2048
Frame 1/10
C 0.000000 0.000000 0.000000
C 0.500000 0.500000 0.000000
C 0.500000 0.000000 0.500000
C 0.000000 0.500000 0.500000
C 1.000000 0.000000 0.000000
C 1.500000 0.500000 0.000000
C 1.500000 0.000000 0.500000
C 1.000000 0.500000 0.500000
C 2.000000 0.000000 0.000000
C 2.500000 0.500000 0.000000
C 2.500000 0.000000 0.500000
C 2.000000 0.500000 0.500000
C 3.000000 0.000000 0.000000
C 3.500000 0.500000 0.000000
C 3.500000 0.000000 0.500000
C 3.000000 0.500000 0.500000
C 4.000000 0.000000 0.000000
C 4.500000 0.500000 0.000000
C 4.500000 0.000000 0.500000
C 4.000000 0.500000 0.500000
C 5.000000 0.000000 0.000000
C 5.500000 0.500000 0.000000
C 5.500000 0.000000 0.500000
C 5.000000 0.500000 0.500000
C 6.000000 0.000000 0.000000
C 6.500000 0.500000 0.000000
C 6.500000 0.000000 0.500000
C 6.000000 0.500000 0.500000
C 7.000000 0.000000 0.000000
C 7.500000 0.500000 0.000000
C 7.500000 0.000000 0.500000
C 7.000000 0.500000 0.500000
C 0.000000 1.000000 0.000000
C 0.500000 1.500000 0.000000
C 0.500000 1.000000 0.500000
C 0.000000 1.500000 0.500000
C 1.000000 1.000000 0.000000
C 1.500000 1.500000 0.000000
C 1.500000 1.000000 0.500000
C 1.000000 1.500000 0.500000
C 2.000000 1.000000 0.000000
C 2.500000 1.500000 0.000000
C 2.500000 1.000000 0.500000
C 2.000000 1.500000 0.500000
C 3.000000 1.000000 0.000000
C 3.500000 1.500000 0.000000
C 3.500000 1.000000 0.500000
C 3.000000 1.500000 0.500000
C 4.000000 1.000000 0.000000
C 4.500000 1.500000 0.000000
C 4.500000 1.000000 0.500000
C 4.000000 1.500000 0.500000
C 5.000000 1.000000 0.000000
C 5.500000 1.500000 0.000000
C 5.500000 1.000000 0.500000
C 5.000000 1.500000 0.500000
C 6.000000 1.000000 0.000000
C 6.500000 1.500000 0.000000
C 6.500000 1.000000 0.500000
C 6.000000 1.500000 0.500000
C 7.000000 1.000000 0.000000
C 7.500000 1.500000 0.000000
C 7.500000 1.000000 0.500000
C 7.000000 1.500000 0.500000
C 0.000000 2.000000 0.000000
C 0.500000 2.500000 0.000000
C 0.500000 2.000000 0.500000
C 0.000000 2.500000 0.500000
C 1.000000 2.000000 0.000000
C 1.500000 2.500000 0.000000
C 1.500000 2.000000 0.500000
C 1.000000 2.500000 0.500000
C 2.000000 2.000000 0.000000
C 2.500000 2.500000 0.000000
C 2.500000 2.000000 0.500000
C 2.000000 2.500000 0.500000
C 3.000000 2.000000 0.000000
C 3.500000 2.500000 0.000000
C 3.500000 2.000000 0.500000
C 3.000000 2.500000 0.500000
C 4.000000 2.000000 0.000000
C 4.500000 2.500000 0.000000
C 4.500000 2.000000 0.500000
C 4.000000 2.500000 0.500000
C 5.000000 2.000000 0.000000
C 5.500000 2.500000 0.000000
C 5.500000 2.000000 0.500000
C 5.000000 2.500000 0.500000
C 6.000000 2.000000 0.000000
C 6.500000 2.500000 0.000000
C 6.500000 2.000000 0.500000
C 6.000000 2.500000 0.500000
C 7.000000 2.000000 0.000000
C 7.500000 2.500000 0.000000
C 7.500000 2.000000 0.500000
C 7.000000 2.500000 0.500000
C 0.000000 3.000000 0.000000
C 0.500000 3.500000 0.000000
C 0.500000 3.000000 0.500000
C 0.000000 3.500000 0.500000
C 1.000000 3.000000 0.000000
C 1.500000 3.500000 0.000000
C 1.500000 3.000000 0.500000
C 1.000000 3.500000 0.500000
C 2.000000 3.000000 0.000000
C 2.500000 3.500000 0.000000
C 2.500000 3.000000 0.500000
C 2.000000 3.500000 0.500000
C 3.000000 3.000000 0.000000
C 3.500000 3.500000 0.000000
C 3.500000 3.000000 0.500000
C 3.000000 3.500000 0.500000
C 4.000000 3.000000 0.000000
C 4.500000 3.500000 0.000000
C 4.500000 3.000000 0.500000
C 4.000000 3.500000 0.500000
C 5.000000 3.000000 0.000000
C 5.500000 3.500000 0.000000
C 5.500000 3.000000 0.500000
C 5.000000 3.500000 0.500000
C 6.000000 3.000000 0.000000
C 6.500000 3.500000 0.000000
C 6.500000 3.000000 0.500000
C 6.000000 3.500000 0.500000
C 7.000000 3.000000 0.000000
C 7.500000 3.500000 0.000000
C 7.500000 3.000000 0.500000
C 7.000000 3.500000 0.500000
C 0.000000 4.000000 0.000000
C 0.500000 4.500000 0.000000
C 0.500000 4.000000 0.500000
C 0.000000 4.500000 0.500000
C 1.000000 4.000000 0.000000
C 1.500000 4.500000 0.000000
C 1.500000 4.000000 0.500000
C 1.000000 4.500000 0.500000
C 2.000000 4.000000 0.000000
C 2.500000 4.500000 0.000000
C 2.500000 4.000000 0.500000
C 2.000000 4.500000 0.500000
C 3.000000 4.000000 0.000000
C 3.500000 4.500000 0.000000
C 3.500000 4.000000 0.500000
C 3.000000 4.500000 0.500000
C 4.000000 4.000000 0.000000
C 4.500000 4.500000 0.000000
C 4.500000 4.000000 0.500000
C 4.000000 4.500000 0.500000
C 5.000000 4.000000 0.000000
C 5.500000 4.500000 0.000000
C 5.500000 4.000000 0.500000
C 5.000000 4.500000 0.500000
C 6.000000 4.000000 0.000000
C 6.500000 4.500000 0.000000
C 6.500000 4.000000 0.500000
C 6.000000 4.500000 0.500000
C 7.000000 4.000000 0.000000
C 7.500000 4.500000 0.000000
C 7.500000 4.000000 0.500000
C 7.000000 4.500000 0.500000
C 0.000000 5.000000 0.000000
C 0.500000 5.500000 0.000000
C 0.500000 5.000000 0.500000
C 0.000000 5.500000 0.500000
C 1.000000 5.000000 0.000000
C 1.500000 5.500000 0.000000
C 1.500000 5.000000 0.500000
C 1.000000 5.500000 0.500000
C 2.000000 5.000000 0.000000
C 2.500000 5.500000 0.000000
C 2.500000 5.000000 0.500000
C 2.000000 5.500000 0.500000
C 3.000000 5.000000 0.000000
C 3.500000 5.500000 0.000000
C 3.500000 5.000000 0.500000
C 3.000000 5.500000 0.500000
C 4.000000 5.000000 0.000000
C 4.500000 5.500000 0.000000
C 4.500000 5.000000 0.500000
C 4.000000 5.500000 0.500000
C 5.000000 5.000000 0.000000
C 5.500000 5.500000 0.000000
C 5.500000 5.000000 0.500000
C 5.000000 5.500000 0.500000
C 6.000000 5.000000 0.000000
C 6.500000 5.500000 0.000000
C 6.500000 5.000000 0.500000
C 6.000000 5.500000 0.500000
C 7.000000 5.000000 0.000000
C 7.500000 5.500000 0.000000
C 7.500000 5.000000 0.500000
C 7.000000 5.500000 0.500000
C 0.000000 6.000000 0.000000
C 0.500000 6.500000 0.000000
C 0.500000 6.000000 0.500000
C 0.000000 6.500000 0.500000
C 1.000000 6.000000 0.000000
C 1.500000 6.500000 0.000000
C 1.500000 6.000000 0.500000
C 1.000000 6.500000 0.500000
C 2.000000 6.000000 0.000000
C 2.500000 6.500000 0.000000
C 2.500000 6.000000 0.500000
C 2.000000 6.500000 0.500000
C 3.000000 6.000000 0.000000
C 3.500000 6.500000 0.000000
C 3.500000 6.000000 0.500000
C 3.000000 6.500000 0.500000
C 4.000000 6.000000 0.000000
C 4.500000 6.500000 0.000000
C 4.500000 6.000000 0.500000
C 4.000000 6.500000 0.500000
C 5.000000 6.000000 0.000000
C 5.500000 6.500000 0.000000
C 5.500000 6.000000 0.500000
C 5.000000 6.500000 0.500000
C 6.000000 6.000000 0.000000
C 6.500000 6.500000 0.000000
C 6.500000 6.000000 0.500000
C 6.000000 6.500000 0.500000
C 7.000000 6.000000 0.000000
C 7.500000 6.500000 0.000000
C 7.500000 6.000000 0.500000
C 7.000000 6.500000 0.500000
C 0.000000 7.000000 0.000000
C 0.500000 7.500000 0.000000
C 0.500000 7.000000 0.500000
C 0.000000 7.500000 0.500000
C 1.000000 7.000000 0.000000
C 1.500000 7.500000 0.000000
C 1.500000 7.000000 0.500000
C 1.000000 7.500000 0.500000
C 2.000000 7.000000 0.000000
C 2.500000 7.500000 0.000000
C 2.500000 7.000000 0.500000
C 2.000000 7.500000 0.500000
C 3.000000 7.000000 0.000000
C 3.500000 7.500000 0.000000
C 3.500000 7.000000 0.500000
C 3.000000 7.500000 0.500000
C 4.000000 7.000000 0.000000
C 4.500000 7.500000 0.000000
C 4.500000 7.000000 0.500000
C 4.000000 7.500000 0.500000
C 5.000000 7.000000 0.000000
C 5.500000 7.500000 0.000000
C 5.500000 7.000000 0.500000
C 5.000000 7.500000 0.500000
C 6.000000 7.000000 0.000000
C 6.500000 7.500000 0.000000
C 6.500000 7.000000 0.500000
C 6.000000 7.500000 0.500000
C 7.000000 7.000000 0.000000
C 7.500000 7.500000 0.000000
C 7.500000 7.000000 0.500000
C 7.000000 7.500000 0.500000
C 0.000000 0.000000 1.000000
C 0.500000 0.500000 1.000000
C 0.500000 0.000000 1.500000
C 0.000000 0.500000 1.500000
C 1.000000 0.000000 1.000000
C 1.500000 0.500000 1.000000
C 1.500000 0.000000 1.500000
C 1.000000 0.500000 1.500000
C 2.000000 0.000000 1.000000
C 2.500000 0.500000 1.000000
C 2.500000 0.000000 1.500000
C 2.000000 0.500000 1.500000
C 3.000000 0.000000 1.000000
C 3.500000 0.500000 1.000000
C 3.500000 0.000000 1.500000
C 3.000000 0.500000 1.500000
C 4.000000 0.000000 1.000000
C 4.500000 0.500000 1.000000
C 4.500000 0.000000 1.500000
C 4.000000 0.500000 1.500000
C 5.000000 0.000000 1.000000
C 5.500000 0.500000 1.000000
C 5.500000 0.000000 1.500000
C 5.000000 0.500000 1.500000
C 6.000000 0.000000 1.000000
C 6.500000 0.500000 1.000000
C 6.500000 0.000000 1.500000
C 6.000000 0.500000 1.500000
C 7.000000 0.000000 1.000000
C 7.500000 0.500000 1.000000
C 7.500000 0.000000 1.500000
C 7.000000 0.500000 1.500000
C 0.000000 1.000000 1.000000
C 0.500000 1.500000 1.000000
C 0.500000 1.000000 1.500000
C 0.000000 1.500000 1.500000
C 1.000000 1.000000 1.000000
C 1.500000 1.500000 1.000000
C 1.500000 1.000000 1.500000
C 1.000000 1.500000 1.500000
C 2.000000 1.000000 1.000000
C 2.500000 1.500000 1.000000
C 2.500000 1.000000 1.500000
C 2.000000 1.500000 1.500000
C 3.000000 1.000000 1.000000
C 3.500000 1.500000 1.000000
C 3.500000 1.000000 1.500000
C 3.000000 1.500000 1.500000
C 4.000000 1.000000 1.000000
C 4.500000 1.500000 1.000000
C 4.500000 1.000000 1.500000
C 4.000000 1.500000 1.500000
C 5.000000 1.000000 1.000000
C 5.500000 1.500000 1.000000
C 5.500000 1.000000 1.500000
C 5.000000 1.500000 1.500000
C 6.000000 1.000000 1.000000
C 6.500000 1.500000 1.000000
C 6.500000 1.000000 1.500000
C 6.000000 1.500000 1.500000
C 7.000000 1.000000 1.000000
C 7.500000 1.500000 1.000000
C 7.500000 1.000000 1.500000
C 7.000000 1.500000 1.500000
C 0.000000 2.000000 1.000000
C 0.500000 2.500000 1.000000
C 0.500000 2.000000 1.500000
C 0.000000 2.500000 1.500000
C 1.000000 2.000000 1.000000
C 1.500000 2.500000 1.000000
C 1.500000 2.000000 1.500000
C 1.000000 2.500000 1.500000
C 2.000000 2.000000 1.000000
C 2.500000 2.500000 1.000000
C 2.500000 2.000000 1.500000
C 2.000000 2.500000 1.500000
C 3.000000 2.000000 1.000000
C 3.500000 2.500000 1.000000
C 3.500000 2.000000 1.500000
C 3.000000 2.500000 1.500000
C 4.000000 2.000000 1.000000
C 4.500000 2.500000 1.000000
C 4.500000 2.000000 1.500000
C 4.000000 2.500000 1.500000
C 5.000000 2.000000 1.000000
C 5.500000 2.500000 1.000000
C 5.500000 2.000000 1.500000
C 5.000000 2.500000 1.500000
C 6.000000 2.000000 1.000000
C 6.500000 2.500000 1.000000
C 6.500000 2.000000 1.500000
C 6.000000 2.500000 1.500000
C 7.000000 2.000000 1.000000
C 7.500000 2.500000 1.000000
C 7.500000 2.000000 1.500000
C 7.000000 2.500000 1.500000
C 0.000000 3.000000 1.000000
C 0.500000 3.500000 1.000000
C 0.500000 3.000000 1.500000
C 0.000000 3.500000 1.500000
C 1.000000 3.000000 1.000000
C 1.500000 3.500000 1.000000
C 1.500000 3.000000 1.500000
C 1.000000 3.500000 1.500000
C 2.000000 3.000000 1.000000
C 2.500000 3.500000 1.000000
C 2.500000 3.000000 1.500000
C 2.000000 3.500000 1.500000
C 3.000000 3.000000 1.000000
C 3.500000 3.500000 1.000000
C 3.500000 3.000000 1.500000
C 3.000000 3.500000 1.500000
C 4.000000 3.000000 1.000000
C 4.500000 3.500000 1.000000
C 4.500000 3.000000 1.500000
C 4.000000 3.500000 1.500000
C 5.000000 3.000000 1.000000
C 5.500000 3.500000 1.000000
C 5.500000 3.000000 1.500000
C 5.000000 3.500000 1.500000
C 6.000000 3.000000 1.000000
C 6.500000 3.500000 1.000000
C 6.500000 3.000000 1.500000
C 6.000000 3.500000 1.500000
C 7.000000 3.000000 1.000000
C 7.500000 3.500000 1.000000
C 7.500000 3.000000 1.500000
C 7.000000 3.500000 1.500000
C 0.000000 4.000000 1.000000
C 0.500000 4.500000 1.000000
C 0.500000 4.000000 1.500000
C 0.000000 4.500000 1.500000
C 1.000000 4.000000 1.000000
C 1.500000 4.500000 1.000000
C 1.500000 4.000000 1.500000
C 1.000000 4.500000 1.500000
C 2.000000 4.000000 1.000000
C 2.500000 4.500000 1.000000
C 2.500000 4.000000 1.500000
C 2.000000 4.500000 1.500000
C 3.000000 4.000000 1.000000
C 3.500000 4.500000 1.000000
C 3.500000 4.000000 1.500000
C 3.000000 4.500000 1.500000
C 4.000000 4.000000 1.000000
C 4.500000 4.500000 1.000000
C 4.500000 4.000000 1.500000
C 4.000000 4.500000 1.500000
C 5.000000 4.000000 1.000000
C 5.500000 4.500000 1.000000
C 5.500000 4.000000 1.500000
C 5.000000 4.500000 1.500000
C 6.000000 4.000000 1.000000
C 6.500000 4.500000 1.000000
C 6.500000 4.000000 1.500000
C 6.000000 4.500000 1.500000
C 7.000000 4.000000 1.000000
C 7.500000 4.500000 1.000000
C 7.500000 4.000000 1.500000
C 7.000000 4.500000 1.500000
C 0.000000 5.000000 1.000000
C 0.500000 5.500000 1.000000
C 0.500000 5.000000 1.500000
C 0.000000 5.500000 1.500000
C 1.000000 5.000000 1.000000
C 1.500000 5.500000 1.000000
C 1.500000 5.000000 1.500000
C 1.000000 5.500000 1.500000
C 2.000000 5.000000 1.000000
C 2.500000 5.500000 1.000000
C 2.500000 5.000000 1.500000
C 2.000000 5.500000 1.500000
C 3.000000 5.000000 1.000000
C 3.500000 5.500000 1.000000
C 3.500000 5.000000 1.500000
C 3.000000 5.500000 1.500000
C 4.000000 5.000000 1.000000
C 4.500000 5.500000 1.000000
C 4.500000 5.000000 1.500000
C 4.000000 5.500000 1.500000
C 5.000000 5.000000 1.000000
C 5.500000 5.500000 1.000000
C 5.500000 5.000000 1.500000
C 5.000000 5.500000 1.500000
C 6.000000 5.000000 1.000000
C 6.500000 5.500000 1.000000
C 6.500000 5.000000 1.500000
C 6.000000 5.500000 1.500000
C 7.000000 5.000000 1.000000
C 7.500000 5.500000 1.000000
C 7.500000 5.000000 1.500000
C 7.000000 5.500000 1.500000
C 0.000000 6.000000 1.000000
C 0.500000 6.500000 1.000000
C 0.500000 6.000000 1.500000
C 0.000000 6.500000 1.500000
C 1.000000 6.000000 1.000000
C 1.500000 6.500000 1.000000
C 1.500000 6.000000 1.500000
C 1.000000 6.500000 1.500000
C 2.000000 6.000000 1.000000
C 2.500000 6.500000 1.000000
C 2.500000 6.000000 1.500000
C 2.000000 6.500000 1.500000
C 3.000000 6.000000 1.000000
C 3.500000 6.500000 1.000000
C 3.500000 6.000000 1.500000
C 3.000000 6.500000 1.500000
C 4.000000 6.000000 1.000000
C 4.500000 6.500000 1.000000
C 4.500000 6.000000 1.500000
C 4.000000 6.500000 1.500000
C 5.000000 6.000000 1.000000
C 5.500000 6.500000 1.000000
C 5.500000 6.000000 1.500000
C 5.000000 6.500000 1.500000
C 6.000000 6.000000 1.000000
C 6.500000 6.500000 1.000000
C 6.500000 6.000000 1.500000
C 6.000000 6.500000 1.500000
C 7.000000 6.000000 1.000000
C 7.500000 6.500000 1.000000
C 7.500000 6.000000 1.500000
C 7.000000 6.500000 1.500000
C 0.000000 7.000000 1.000000
C 0.500000 7.500000 1.000000
C 0.500000 7.000000 1.500000
C 0.000000 7.500000 1.500000
C 1.000000 7.000000 1.000000
C 1.500000 7.500000 1.000000
C 1.500000 7.000000 1.500000
C 1.000000 7.500000 1.500000
C 2.000000 7.000000 1.000000
C 2.500000 7.500000 1.000000
C 2.500000 7.000000 1.500000
C 2.000000 7.500000 1.500000
C 3.000000 7.000000 1.000000
C 3.500000 7.500000 1.000000
C 3.500000 7.000000 1.500000
C 3.000000 7.500000 1.500000
C 4.000000 7.000000 1.000000
C 4.500000 7.500000 1.000000
C 4.500000 7.000000 1.500000
C 4.000000 7.500000 1.500000
C 5.000000 7.000000 1.000000
C 5.500000 7.500000 1.000000
C 5.500000 7.000000 1.500000
C 5.000000 7.500000 1.500000
C 6.000000 7.000000 1.000000
C 6.500000 7.500000 1.000000
C 6.500000 7.000000 1.500000
C 6.000000 7.500000 1.500000
C 7.000000 7.000000 1.000000
C 7.500000 7.500000 1.000000
C 7.500000 7.000000 1.500000
C 7.000000 7.500000 1.500000
C 0.000000 0.000000 2.000000
C 0.500000 0.500000 2.000000
C 0.500000 0.000000 2.500000
C 0.000000 0.500000 2.500000
C 1.000000 0.000000 2.000000
C 1.500000 0.500000 2.000000
C 1.500000 0.000000 2.500000
C 1.000000 0.500000 2.500000
C 2.000000 0.000000 2.000000
C 2.500000 0.500000 2.000000
C 2.500000 0.000000 2.500000
C 2.000000 0.500000 2.500000
C 3.000000 0.000000 2.000000
C 3.500000 0.500000 2.000000
C 3.500000 0.000000 2.500000
C 3.000000 0.500000 2.500000
C 4.000000 0.000000 2.000000
C 4.500000 0.500000 2.000000
C 4.500000 0.000000 2.500000
C 4.000000 0.500000 2.500000
C 5.000000 0.000000 2.000000
C 5.500000 0.500000 2.000000
C 5.500000 0.000000 2.500000
C 5.000000 0.500000 2.500000
C 6.000000 0.000000 2.000000
C 6.500000 0.500000 2.000000
C 6.500000 0.000000 2.500000
C 6.000000 0.500000 2.500000
C 7.000000 0.000000 2.000000
C 7.500000 0.500000 2.000000
C 7.500000 0.000000 2.500000
C 7.000000 0.500000 2.500000
C 0.000000 1.000000 2.000000
C 0.500000 1.500000 2.000000
C 0.500000 1.000000 2.500000
C 0.000000 1.500000 2.500000
C 1.000000 1.000000 2.000000
C 1.500000 1.500000 2.000000
C 1.500000 1.000000 2.500000
C 1.000000 1.500000 2.500000
C 2.000000 1.000000 2.000000
C 2.500000 1.500000 2.000000
C 2.500000 1.000000 2.500000
C 2.000000 1.500000 2.500000
C 3.000000 1.000000 2.000000
C 3.500000 1.500000 2.000000
C 3.500000 1.000000 2.500000
C 3.000000 1.500000 2.500000
C 4.000000 1.000000 2.000000
C 4.500000 1.500000 2.000000
C 4.500000 1.000000 2.500000
C 4.000000 1.500000 2.500000
C 5.000000 1.000000 2.000000
C 5.500000 1.500000 2.000000
C 5.500000 1.000000 2.500000
C 5.000000 1.500000 2.500000
C 6.000000 1.000000 2.000000
C 6.500000 1.500000 2.000000
C 6.500000 1.000000 2.500000
C 6.000000 1.500000 2.500000
C 7.000000 1.000000 2.000000
C 7.500000 1.500000 2.000000
C 7.500000 1.000000 2.500000
C 7.000000 1.500000 2.500000
C 0.000000 2.000000 2.000000
C 0.500000 2.500000 2.000000
C 0.500000 2.000000 2.500000
C 0.000000 2.500000 2.500000
C 1.000000 2.000000 2.000000
C 1.500000 2.500000 2.000000
C 1.500000 2.000000 2.500000
C 1.000000 2.500000 2.500000
C 2.000000 2.000000 2.000000
C 2.500000 2.500000 2.000000
C 2.500000 2.000000 2.500000
C 2.000000 2.500000 2.500000
C 3.000000 2.000000 2.000000
C 3.500000 2.500000 2.000000
C 3.500000 2.000000 2.500000
C 3.000000 2.500000 2.500000
C 4.000000 2.000000 2.000000
C 4.500000 2.500000 2.000000
C 4.500000 2.000000 2.500000
C 4.000000 2.500000 2.500000
C 5.000000 2.000000 2.000000
C 5.500000 2.500000 2.000000
C 5.500000 2.000000 2.500000
C 5.000000 2.500000 2.500000
C 6.000000 2.000000 2.000000
C 6.500000 2.500000 2.000000
C 6.500000 2.000000 2.500000
C 6.000000 2.500000 2.500000
C 7.000000 2.000000 2.000000
C 7.500000 2.500000 2.000000
C 7.500000 2.000000 2.500000
C 7.000000 2.500000 2.500000
C 0.000000 3.000000 2.000000
C 0.500000 3.500000 2.000000
C 0.500000 3.000000 2.500000
C 0.000000 3.500000 2.500000
C 1.000000 3.000000 2.000000
C 1.500000 3.500000 2.000000
C 1.500000 3.000000 2.500000
C 1.000000 3.500000 2.500000
C 2.000000 3.000000 2.000000
C 2.500000 3.500000 2.000000
C 2.500000 3.000000 2.500000
C 2.000000 3.500000 2.500000
C 3.000000 3.000000 2.000000
C 3.500000 3.500000 2.000000
C 3.500000 3.000000 2.500000
C 3.000000 3.500000 2.500000
C 4.000000 3.000000 2.000000
C 4.500000 3.500000 2.000000
C 4.500000 3.000000 2.500000
C 4.000000 3.500000 2.500000
C 5.000000 3.000000 2.000000
C 5.500000 3.500000 2.000000
C 5.500000 3.000000 2.500000
C 5.000000 3.500000 2.500000
C 6.000000 3.000000 2.000000
C 6.500000 3.500000 2.000000
C 6.500000 3.000000 2.500000
C 6.000000 3.500000 2.500000
C 7.000000 3.000000 2.000000
C 7.500000 3.500000 2.000000
C 7.500000 3.000000 2.500000
C 7.000000 3.500000 2.500000
C 0.000000 4.000000 2.000000
C 0.500000 4.500000 2.000000
C 0.500000 4.000000 2.500000
C 0.000000 4.500000 2.500000
C 1.000000 4.000000 2.000000
C 1.500000 4.500000 2.000000
C 1.500000 4.000000 2.500000
C 1.000000 4.500000 2.500000
C 2.000000 4.000000 2.000000
C 2.500000 4.500000 2.000000
C 2.500000 4.000000 2.500000
C 2.000000 4.500000 2.500000
C 3.000000 4.000000 2.000000
C 3.500000 4.500000 2.000000
C 3.500000 4.000000 2.500000
C 3.000000 4.500000 2.500000
C 4.000000 4.000000 2.000000
C 4.500000 4.500000 2.000000
C 4.500000 4.000000 2.500000
C 4.000000 4.500000 2.500000
C 5.000000 4.000000 2.000000
C 5.500000 4.500000 2.000000
C 5.500000 4.000000 2.500000
C 5.000000 4.500000 2.500000
C 6.000000 4.000000 2.000000
C 6.500000 4.500000 2.000000
C 6.500000 4.000000 2.500000
C 6.000000 4.500000 2.500000
C 7.000000 4.000000 2.000000
C 7.500000 4.500000 2.000000
C 7.500000 4.000000 2.500000
C 7.000000 4.500000 2.500000
C 0.000000 5.000000 2.000000
C 0.500000 5.500000 2.000000
C 0.500000 5.000000 2.500000
C 0.000000 5.500000 2.500000
C 1.000000 5.000000 2.000000
C 1.500000 5.500000 2.000000
C 1.500000 5.000000 2.500000
C 1.000000 5.500000 2.500000
C 2.000000 5.000000 2.000000
C 2.500000 5.500000 2.000000
C 2.500000 5.000000 2.500000
C 2.000000 5.500000 2.500000
C 3.000000 5.000000 2.000000
C 3.500000 5.500000 2.000000
C 3.500000 5.000000 2.500000
C 3.000000 5.500000 2.500000
C 4.000000 5.000000 2.000000
C 4.500000 5.500000 2.000000
C 4.500000 5.000000 2.500000
C 4.000000 5.500000 2.500000
C 5.000000 5.000000 2.000000
C 5.500000 5.500000 2.000000
C 5.500000 5.000000 2.500000
C 5.000000 5.500000 2.500000
C 6.000000 5.000000 2.000000
C 6.500000 5.500000 2.000000
C 6.500000 5.000000 2.500000
C 6.000000 5.500000 2.500000
C 7.000000 5.000000 2.000000
C 7.500000 5.500000 2.000000
C 7.500000 5.000000 2.500000
C 7.000000 5.500000 2.500000
C 0.000000 6.000000 2.000000
C 0.500000 6.500000 2.000000
C 0.500000 6.000000 2.500000
C 0.000000 6.500000 2.500000
C 1.000000 6.000000 2.000000
C 1.500000 6.500000 2.000000
C 1.500000 6.000000 2.500000
C 1.000000 6.500000 2.500000
C 2.000000 6.000000 2.000000
C 2.500000 6.500000 2.000000
C 2.500000 6.000000 2.500000
C 2.000000 6.500000 2.500000
C 3.000000 6.000000 2.000000
C 3.500000 6.500000 2.000000
C 3.500000 6.000000 2.500000
C 3.000000 6.500000 2.500000
C 4.000000 6.000000 2.000000
C 4.500000 6.500000 2.000000
C 4.500000 6.000000 2.500000
C 4.000000 6.500000 2.500000
C 5.000000 6.000000 2.000000
C 5.500000 6.500000 2.000000
C 5.500000 6.000000 2.500000
C 5.000000 6.500000 2.500000
C 6.000000 6.000000 2.000000
C 6.500000 6.500000 2.000000
C 6.500000 6.000000 2.500000
C 6.000000 6.500000 2.500000
C 7.000000 6.000000 2.000000
C 7.500000 6.500000 2.000000
C 7.500000 6.000000 2.500000
C 7.000000 6.500000 2.500000
C 0.000000 7.000000 2.000000
C 0.500000 7.500000 2.000000
C 0.500000 7.000000 2.500000
C 0.000000 7.500000 2.500000
C 1.000000 7.000000 2.000000
C 1.500000 7.500000 2.000000
C 1.500000 7.000000 2.500000
C 1.000000 7.500000 2.500000
C 2.000000 7.000000 2.000000
C 2.500000 7.500000 2.000000
C 2.500000 7.000000 2.500000
C 2.000000 7.500000 2.500000
C 3.000000 7.000000 2.000000
C 3.500000 7.500000 2.000000
C 3.500000 7.000000 2.500000
C 3.000000 7.500000 2.500000
C 4.000000 7.000000 2.000000
C 4.500000 7.500000 2.000000
C 4.500000 7.000000 2.500000
C 4.000000 7.500000 2.500000
C 5.000000 7.000000 2.000000
C 5.500000 7.500000 2.000000
C 5.500000 7.000000 2.500000
C 5.000000 7.500000 2.500000
C 6.000000 7.000000 2.000000
C 6.500000 7.500000 2.000000
C 6.500000 7.000000 2.500000
C 6.000000 7.500000 2.500000
C 7.000000 7.000000 2.000000
C 7.500000 7.500000 2.000000
C 7.500000 7.000000 2.500000
C 7.000000 7.500000 2.500000
C 0.000000 0.000000 3.000000
C 0.500000 0.500000 3.000000
C 0.500000 0.000000 3.500000
C 0.000000 0.500000 3.500000
C 1.000000 0.000000 3.000000
C 1.500000 0.500000 3.000000
C 1.500000 0.000000 3.500000
C 1.000000 0.500000 3.500000
C 2.000000 0.000000 3.000000
C 2.500000 0.500000 3.000000
C 2.500000 0.000000 3.500000
C 2.000000 0.500000 3.500000
C 3.000000 0.000000 3.000000
C 3.500000 0.500000 3.000000
C 3.500000 0.000000 3.500000
C 3.000000 0.500000 3.500000
C 4.000000 0.000000 3.000000
C 4.500000 0.500000 3.000000
C 4.500000 0.000000 3.500000
C 4.000000 0.500000 3.500000
C 5.000000 0.000000 3.000000
C 5.500000 0.500000 3.000000
C 5.500000 0.000000 3.500000
C 5.000000 0.500000 3.500000
C 6.000000 0.000000 3.000000
C 6.500000 0.500000 3.000000
C 6.500000 0.000000 3.500000
C 6.000000 0.500000 3.500000
C 7.000000 0.000000 3.000000
C 7.500000 0.500000 3.000000
C 7.500000 0.000000 3.500000
C 7.000000 0.500000 3.500000
C 0.000000 1.000000 3.000000
C 0.500000 1.500000 3.000000
C 0.500000 1.000000 3.500000
C 0.000000 1.500000 3.500000
C 1.000000 1.000000 3.000000
C 1.500000 1.500000 3.000000
C 1.500000 1.000000 3.500000
C 1.000000 1.500000 3.500000
C 2.000000 1.000000 3.000000
C 2.500000 1.500000 3.000000
C 2.500000 1.000000 3.500000
C 2.000000 1.500000 3.500000
C 3.000000 1.000000 3.000000
C 3.500000 1.500000 3.000000
C 3.500000 1.000000 3.500000
C 3.000000 1.500000 3.500000
C 4.000000 1.000000 3.000000
C 4.500000 1.500000 3.000000
C 4.500000 1.000000 3.500000
C 4.000000 1.500000 3.500000
C 5.000000 1.000000 3.000000
C 5.500000 1.500000 3.000000
C 5.500000 1.000000 3.500000
C 5.000000 1.500000 3.500000
C 6.000000 1.000000 3.000000
C 6.500000 1.500000 3.000000
C 6.500000 1.000000 3.500000
C 6.000000 1.500000 3.500000
C 7.000000 1.000000 3.000000
C 7.500000 1.500000 3.000000
C 7.500000 1.000000 3.500000
C 7.000000 1.500000 3.500000
C 0.000000 2.000000 3.000000
C 0.500000 2.500000 3.000000
C 0.500000 2.000000 3.500000
C 0.000000 2.500000 3.500000
C 1.000000 2.000000 3.000000
C 1.500000 2.500000 3.000000
C 1.500000 2.000000 3.500000
C 1.000000 2.500000 3.500000
C 2.000000 2.000000 3.000000
C 2.500000 2.500000 3.000000
C 2.500000 2.000000 3.500000
C 2.000000 2.500000 3.500000
C 3.000000 2.000000 3.000000
C 3.500000 2.500000 3.000000
C 3.500000 2.000000 3.500000
C 3.000000 2.500000 3.500000
C 4.000000 2.000000 3.000000
C 4.500000 2.500000 3.000000
C 4.500000 2.000000 3.500000
C 4.000000 2.500000 3.500000
C 5.000000 2.000000 3.000000
C 5.500000 2.500000 3.000000
C 5.500000 2.000000 3.500000
C 5.000000 2.500000 3.500000
C 6.000000 2.000000 3.000000
C 6.500000 2.500000 3.000000
C 6.500000 2.000000 3.500000
C 6.000000 2.500000 3.500000
C 7.000000 2.000000 3.000000
C 7.500000 2.500000 3.000000
C 7.500000 2.000000 3.500000
C 7.000000 2.500000 3.500000
C 0.000000 3.000000 3.000000
C 0.500000 3.500000 3.000000
C 0.500000 3.000000 3.500000
C 0.000000 3.500000 3.500000
C 1.000000 3.000000 3.000000
C 1.500000 3.500000 3.000000
C 1.500000 3.000000 3.500000
C 1.000000 3.500000 3.500000
C 2.000000 3.000000 3.000000
C 2.500000 3.500000 3.000000
C 2.500000 3.000000 3.500000
C 2.000000 3.500000 3.500000
C 3.000000 3.000000 3.000000
C 3.500000 3.500000 3.000000
C 3.500000 3.000000 3.500000
C 3.000000 3.500000 3.500000
C 4.000000 3.000000 3.000000
C 4.500000 3.500000 3.000000
C 4.500000 3.000000 3.500000
C 4.000000 3.500000 3.500000
C 5.000000 3.000000 3.000000
C 5.500000 3.500000 3.000000
C 5.500000 3.000000 3.500000
C 5.000000 3.500000 3.500000
C 6.000000 3.000000 3.000000
C 6.500000 3.500000 3.000000
C 6.500000 3.000000 3.500000
C 6.000000 3.500000 3.500000
C 7.000000 3.000000 3.000000
C 7.500000 3.500000 3.000000
C 7.500000 3.000000 3.500000
C 7.000000 3.500000 3.500000
C 0.000000 4.000000 3.000000
C 0.500000 4.500000 3.000000
C 0.500000 4.000000 3.500000
C 0.000000 4.500000 3.500000
C 1.000000 4.000000 3.000000
C 1.500000 4.500000 3.000000
C 1.500000 4.000000 3.500000
C 1.000000 4.500000 3.500000
C 2.000000 4.000000 3.000000
C 2.500000 4.500000 3.000000
C 2.500000 4.000000 3.500000
C 2.000000 4.500000 3.500000
C 3.000000 4.000000 3.000000
C 3.500000 4.500000 3.000000
C 3.500000 4.000000 3.500000
C 3.000000 4.500000 3.500000
C 4.000000 4.000000 3.000000
C 4.500000 4.500000 3.000000
C 4.500000 4.000000 3.500000
C 4.000000 4.500000 3.500000
C 5.000000 4.000000 3.000000
C 5.500000 4.500000 3.000000
C 5.500000 4.000000 3.500000
C 5.000000 4.500000 3.500000
C 6.000000 4.000000 3.000000
C 6.500000 4.500000 3.000000
C 6.500000 4.000000 3.500000
C 6.000000 4.500000 3.500000
C 7.000000 4.000000 3.000000
C 7.500000 4.500000 3.000000
C 7.500000 4.000000 3.500000
C 7.000000 4.500000 3.500000
C 0.000000 5.000000 3.000000
C 0.500000 5.500000 3.000000
C 0.500000 5.000000 3.500000
C 0.000000 5.500000 3.500000
C 1.000000 5.000000 3.000000
C 1.500000 5.500000 3.000000
C 1.500000 5.000000 3.500000
C 1.000000 5.500000 3.500000
C 2.000000 5.000000 3.000000
C 2.500000 5.500000 3.000000
C 2.500000 5.000000 3.500000
C 2.000000 5.500000 3.500000
C 3.000000 5.000000 3.000000
C 3.500000 5.500000 3.000000
C 3.500000 5.000000 3.500000
C 3.000000 5.500000 3.500000
C 4.000000 5.000000 3.000000
C 4.500000 5.500000 3.000000
C 4.500000 5.000000 3.500000
C 4.000000 5.500000 3.500000
C 5.000000 5.000000 3.000000
C 5.500000 5.500000 3.000000
C 5.500000 5.000000 3.500000
C 5.000000 5.500000 3.500000
C 6.000000 5.000000 3.000000
C 6.500000 5.500000 3.000000
C 6.500000 5.000000 3.500000
C 6.000000 5.500000 3.500000
C 7.000000 5.000000 3.000000
C 7.500000 5.500000 3.000000
C 7.500000 5.000000 3.500000
C 7.000000 5.500000 3.500000
C 0.000000 6.000000 3.000000
C 0.500000 6.500000 3.000000
C 0.500000 6.000000 3.500000
C 0.000000 6.500000 3.500000
C 1.000000 6.000000 3.000000
C 1.500000 6.500000 3.000000
C 1.500000 6.000000 3.500000
C 1.000000 6.500000 3.500000
C 2.000000 6.000000 3.000000
C 2.500000 6.500000 3.000000
C 2.500000 6.000000 3.500000
C 2.000000 6.500000 3.500000
C 3.000000 6.000000 3.000000
C 3.500000 6.500000 3.000000
C 3.500000 6.000000 3.500000
C 3.000000 6.500000 3.500000
C 4.000000 6.000000 3.000000
C 4.500000 6.500000 3.000000
C 4.500000 6.000000 3.500000
C 4.000000 6.500000 3.500000
C 5.000000 6.000000 3.000000
C 5.500000 6.500000 3.000000
C 5.500000 6.000000 3.500000
C 5.000000 6.500000 3.500000
C 6.000000 6.000000 3.000000
C 6.500000 6.500000 3.000000
C 6.500000 6.000000 3.500000
C 6.000000 6.500000 3.500000
C 7.000000 6.000000 3.000000
C 7.500000 6.500000 3.000000
C 7.500000 6.000000 3.500000
C 7.000000 6.500000 3.500000
C 0.000000 7.000000 3.000000
C 0.500000 7.500000 3.000000
C 0.500000 7.000000 3.500000
C 0.000000 7.500000 3.500000
C 1.000000 7.000000 3.000000
C 1.500000 7.500000 3.000000
C 1.500000 7.000000 3.500000
C 1.000000 7.500000 3.500000
C 2.000000 7.000000 3.000000
C 2.500000 7.500000 3.000000
C 2.500000 7.000000 3.500000
C 2.000000 7.500000 3.500000
C 3.000000 7.000000 3.000000
C 3.500000 7.500000 3.000000
C 3.500000 7.000000 3.500000
C 3.000000 7.500000 3.500000
C 4.000000 7.000000 3.000000
C 4.500000 7.500000 3.000000
C 4.500000 7.000000 3.500000
C 4.000000 7.500000 3.500000
C 5.000000 7.000000 3.000000
C 5.500000 7.500000 3.000000
C 5.500000 7.000000 3.500000
C 5.000000 7.500000 3.500000
C 6.000000 7.000000 3.000000
C 6.500000 7.500000 3.000000
C 6.500000 7.000000 3.500000
C 6.000000 7.500000 3.500000
C 7.000000 7.000000 3.000000
C 7.500000 7.500000 3.000000
C 7.500000 7.000000 3.500000
C 7.000000 7.500000 3.500000
C 0.000000 0.000000 4.000000
C 0.500000 0.500000 4.000000
C 0.500000 0.000000 4.500000
C 0.000000 0.500000 4.500000
C 1.000000 0.000000 4.000000
C 1.500000 0.500000 4.000000
C 1.500000 0.000000 4.500000
C 1.000000 0.500000 4.500000
C 2.000000 0.000000 4.000000
C 2.500000 0.500000 4.000000
C 2.500000 0.000000 4.500000
C 2.000000 0.500000 4.500000
C 3.000000 0.000000 4.000000
C 3.500000 0.500000 4.000000
C 3.500000 0.000000 4.500000
C 3.000000 0.500000 4.500000
C 4.000000 0.000000 4.000000
C 4.500000 0.500000 4.000000
C 4.500000 0.000000 4.500000
C 4.000000 0.500000 4.500000
C 5.000000 0.000000 4.000000
C 5.500000 0.500000 4.000000
C 5.500000 0.000000 4.500000
C 5.000000 0.500000 4.500000
C 6.000000 0.000000 4.000000
C 6.500000 0.500000 4.000000
C 6.500000 0.000000 4.500000
C 6.000000 0.500000 4.500000
C 7.000000 0.000000 4.000000
C 7.500000 0.500000 4.000000
C 7.500000 0.000000 4.500000
C 7.000000 0.500000 4.500000
C 0.000000 1.000000 4.000000
C 0.500000 1.500000 4.000000
C 0.500000 1.000000 4.500000
C 0.000000 1.500000 4.500000
C 1.000000 1.000000 4.000000
C 1.500000 1.500000 4.000000
C 1.500000 1.000000 4.500000
C 1.000000 1.500000 4.500000
C 2.000000 1.000000 4.000000
C 2.500000 1.500000 4.000000
C 2.500000 1.000000 4.500000
C 2.000000 1.500000 4.500000
C 3.000000 1.000000 4.000000
C 3.500000 1.500000 4.000000
C 3.500000 1.000000 4.500000
C 3.000000 1.500000 4.500000
C 4.000000 1.000000 4.000000
C 4.500000 1.500000 4.000000
C 4.500000 1.000000 4.500000
C 4.000000 1.500000 4.500000
C 5.000000 1.000000 4.000000
C 5.500000 1.500000 4.000000
C 5.500000 1.000000 4.500000
C 5.000000 1.500000 4.500000
C 6.000000 1.000000 4.000000
C 6.500000 1.500000 4.000000
C 6.500000 1.000000 4.500000
C 6.000000 1.500000 4.500000
C 7.000000 1.000000 4.000000
C 7.500000 1.500000 4.000000
C 7.500000 1.000000 4.500000
C 7.000000 1.500000 4.500000
C 0.000000 2.000000 4.000000
C 0.500000 2.500000 4.000000
C 0.500000 2.000000 4.500000
C 0.000000 2.500000 4.500000
C 1.000000 2.000000 4.000000
C 1.500000 2.500000 4.000000
C 1.500000 2.000000 4.500000
C 1.000000 2.500000 4.500000
C 2.000000 2.000000 4.000000
C 2.500000 2.500000 4.000000
C 2.500000 2.000000 4.500000
C 2.000000 2.500000 4.500000
C 3.000000 2.000000 4.000000
C 3.500000 2.500000 4.000000
C 3.500000 2.000000 4.500000
C 3.000000 2.500000 4.500000
C 4.000000 2.000000 4.000000
C 4.500000 2.500000 4.000000
C 4.500000 2.000000 4.500000
C 4.000000 2.500000 4.500000
C 5.000000 2.000000 4.000000
C 5.500000 2.500000 4.000000
C 5.500000 2.000000 4.500000
C 5.000000 2.500000 4.500000
C 6.000000 2.000000 4.000000
C 6.500000 2.500000 4.000000
C 6.500000 2.000000 4.500000
C 6.000000 2.500000 4.500000
C 7.000000 2.000000 4.000000
C 7.500000 2.500000 4.000000
C 7.500000 2.000000 4.500000
C 7.000000 2.500000 4.500000
C 0.000000 3.000000 4.000000
C 0.500000 3.500000 4.000000
C 0.500000 3.000000 4.500000
C 0.000000 3.500000 4.500000
C 1.000000 3.000000 4.000000
C 1.500000 3.500000 4.000000
C 1.500000 3.000000 4.500000
C 1.000000 3.500000 4.500000
C 2.000000 3.000000 4.000000
C 2.500000 3.500000 4.000000
C 2.500000 3.000000 4.500000
C 2.000000 3.500000 4.500000
C 3.000000 3.000000 4.000000
C 3.500000 3.500000 4.000000
C 3.500000 3.000000 4.500000
C 3.000000 3.500000 4.500000
C 4.000000 3.000000 4.000000
C 4.500000 3.500000 4.000000
C 4.500000 3.000000 4.500000
C 4.000000 3.500000 4.500000
C 5.000000 3.000000 4.000000
C 5.500000 3.500000 4.000000
C 5.500000 3.000000 4.500000
C 5.000000 3.500000 4.500000
C 6.000000 3.000000 4.000000
C 6.500000 3.500000 4.000000
C 6.500000 3.000000 4.500000
C 6.000000 3.500000 4.500000
C 7.000000 3.000000 4.000000
C 7.500000 3.500000 4.000000
C 7.500000 3.000000 4.500000
C 7.000000 3.500000 4.500000
C 0.000000 4.000000 4.000000
C 0.500000 4.500000 4.000000
C 0.500000 4.000000 4.500000
C 0.000000 4.500000 4.500000
C 1.000000 4.000000 4.000000
C 1.500000 4.500000 4.000000
C 1.500000 4.000000 4.500000
C 1.000000 4.500000 4.500000
C 2.000000 4.000000 4.000000
C 2.500000 4.500000 4.000000
C 2.500000 4.000000 4.500000
C 2.000000 4.500000 4.500000
C 3.000000 4.000000 4.000000
C 3.500000 4.500000 4.000000
C 3.500000 4.000000 4.500000
C 3.000000 4.500000 4.500000
C 4.000000 4.000000 4.000000
C 4.500000 4.500000 4.000000
C 4.500000 4.000000 4.500000
C 4.000000 4.500000 4.500000
C 5.000000 4.000000 4.000000
C 5.500000 4.500000 4.000000
C 5.500000 4.000000 4.500000
C 5.000000 4.500000 4.500000
C 6.000000 4.000000 4.000000
C 6.500000 4.500000 4.000000
C 6.500000 4.000000 4.500000
C 6.000000 4.500000 4.500000
C 7.000000 4.000000 4.000000
C 7.500000 4.500000 4.000000
C 7.500000 4.000000 4.500000
C 7.000000 4.500000 4.500000
C 0.000000 5.000000 4.000000
C 0.500000 5.500000 4.000000
C 0.500000 5.000000 4.500000
C 0.000000 5.500000 4.500000
C 1.000000 5.000000 4.000000
C 1.500000 5.500000 4.000000
C 1.500000 5.000000 4.500000
C 1.000000 5.500000 4.500000
C 2.000000 5.000000 4.000000
C 2.500000 5.500000 4.000000
C 2.500000 5.000000 4.500000
C 2.000000 5.500000 4.500000
C 3.000000 5.000000 4.000000
C 3.500000 5.500000 4.000000
C 3.500000 5.000000 4.500000
C 3.000000 5.500000 4.500000
C 4.000000 5.000000 4.000000
C 4.500000 5.500000 4.000000
C 4.500000 5.000000 4.500000
C 4.000000 5.500000 4.500000
C 5.000000 5.000000 4.000000
C 5.500000 5.500000 4.000000
C 5.500000 5.000000 4.500000
C 5.000000 5.500000 4.500000
C 6.000000 5.000000 4.000000
C 6.500000 5.500000 4.000000
C 6.500000 5.000000 4.500000
C 6.000000 5.500000 4.500000
C 7.000000 5.000000 4.000000
C 7.500000 5.500000 4.000000
C 7.500000 5.000000 4.500000
C 7.000000 5.500000 4.500000
C 0.000000 6.000000 4.000000
C 0.500000 6.500000 4.000000
C 0.500000 6.000000 4.500000
C 0.000000 6.500000 4.500000
C 1.000000 6.000000 4.000000
C 1.500000 6.500000 4.000000
C 1.500000 6.000000 4.500000
C 1.000000 6.500000 4.500000
C 2.000000 6.000000 4.000000
C 2.500000 6.500000 4.000000
C 2.500000 6.000000 4.500000
C 2.000000 6.500000 4.500000
C 3.000000 6.000000 4.000000
C 3.500000 6.500000 4.000000
C 3.500000 6.000000 4.500000
C 3.000000 6.500000 4.500000
C 4.000000 6.000000 4.000000
C 4.500000 6.500000 4.000000
C 4.500000 6.000000 4.500000
C 4.000000 6.500000 4.500000
C 5.000000 6.000000 4.000000
C 5.500000 6.500000 4.000000
C 5.500000 6.000000 4.500000
C 5.000000 6.500000 4.500000
C 6.000000 6.000000 4.000000
C 6.500000 6.500000 4.000000
C 6.500000 6.000000 4.500000
C 6.000000 6.500000 4.500000
C 7.000000 6.000000 4.000000
C 7.500000 6.500000 4.000000
C 7.500000 6.000000 4.500000
C 7.000000 6.500000 4.500000
C 0.000000 7.000000 4.000000
C 0.500000 7.500000 4.000000
C 0.500000 7.000000 4.500000
C 0.000000 7.500000 4.500000
C 1.000000 7.000000 4.000000
C 1.500000 7.500000 4.000000
C 1.500000 7.000000 4.500000
C 1.000000 7.500000 4.500000
C 2.000000 7.000000 4.000000
C 2.500000 7.500000 4.000000
C 2.500000 7.000000 4.500000
C 2.000000 7.500000 4.500000
C 3.000000 7.000000 4.000000
C 3.500000 7.500000 4.000000
C 3.500000 7.000000 4.500000
C 3.000000 7.500000 4.500000
C 4.000000 7.000000 4.000000
C 4.500000 7.500000 4.000000
C 4.500000 7.000000 4.500000
C 4.000000 7.500000 4.500000
C 5.000000 7.000000 4.000000
C 5.500000 7.500000 4.000000
C 5.500000 7.000000 4.500000
C 5.000000 7.500000 4.500000
C 6.000000 7.000000 4.000000
C 6.500000 7.500000 4.000000
C 6.500000 7.000000 4.500000
C 6.000000 7.500000 4.500000
C 7.000000 7.000000 4.000000
C 7.500000 7.500000 4.000000
C 7.500000 7.000000 4.500000
C 7.000000 7.500000 4.500000
C 0.000000 0.000000 5.000000
C 0.500000 0.500000 5.000000
C 0.500000 0.000000 5.500000
C 0.000000 0.500000 5.500000
C 1.000000 0.000000 5.000000
C 1.500000 0.500000 5.000000
C 1.500000 0.000000 5.500000
C 1.000000 0.500000 5.500000
C 2.000000 0.000000 5.000000
C 2.500000 0.500000 5.000000
C 2.500000 0.000000 5.500000
C 2.000000 0.500000 5.500000
C 3.000000 0.000000 5.000000
C 3.500000 0.500000 5.000000
C 3.500000 0.000000 5.500000
C 3.000000 0.500000 5.500000
C 4.000000 0.000000 5.000000
C 4.500000 0.500000 5.000000
C 4.500000 0.000000 5.500000
C 4.000000 0.500000 5.500000
C 5.000000 0.000000 5.000000
C 5.500000 0.500000 5.000000
C 5.500000 0.000000 5.500000
C 5.000000 0.500000 5.500000
C 6.000000 0.000000 5.000000
C 6.500000 0.500000 5.000000
C 6.500000 0.000000 5.500000
C 6.000000 0.500000 5.500000
C 7.000000 0.000000 5.000000
C 7.500000 0.500000 5.000000
C 7.500000 0.000000 5.500000
C 7.000000 0.500000 5.500000
C 0.000000 1.000000 5.000000
C 0.500000 1.500000 5.000000
C 0.500000 1.000000 5.500000
C 0.000000 1.500000 5.500000
C 1.000000 1.000000 5.000000
C 1.500000 1.500000 5.000000
C 1.500000 1.000000 5.500000
C 1.000000 1.500000 5.500000
C 2.000000 1.000000 5.000000
C 2.500000 1.500000 5.000000
C 2.500000 1.000000 5.500000
C 2.000000 1.500000 5.500000
C 3.000000 1.000000 5.000000
C 3.500000 1.500000 5.000000
C 3.500000 1.000000 5.500000
C 3.000000 1.500000 5.500000
C 4.000000 1.000000 5.000000
C 4.500000 1.500000 5.000000
C 4.500000 1.000000 5.500000
C 4.000000 1.500000 5.500000
C 5.000000 1.000000 5.000000
C 5.500000 1.500000 5.000000
C 5.500000 1.000000 5.500000
C 5.000000 1.500000 5.500000
C 6.000000 1.000000 5.000000
C 6.500000 1.500000 5.000000
C 6.500000 1.000000 5.500000
C 6.000000 1.500000 5.500000
C 7.000000 1.000000 5.000000
C 7.500000 1.500000 5.000000
C 7.500000 1.000000 5.500000
C 7.000000 1.500000 5.500000
C 0.000000 2.000000 5.000000
C 0.500000 2.500000 5.000000
C 0.500000 2.000000 5.500000
C 0.000000 2.500000 5.500000
C 1.000000 2.000000 5.000000
C 1.500000 2.500000 5.000000
C 1.500000 2.000000 5.500000
C 1.000000 2.500000 5.500000
C 2.000000 2.000000 5.000000
C 2.500000 2.500000 5.000000
C 2.500000 2.000000 5.500000
C 2.000000 2.500000 5.500000
C 3.000000 2.000000 5.000000
C 3.500000 2.500000 5.000000
C 3.500000 2.000000 5.500000
C 3.000000 2.500000 5.500000
C 4.000000 2.000000 5.000000
C 4.500000 2.500000 5.000000
C 4.500000 2.000000 5.500000
C 4.000000 2.500000 5.500000
C 5.000000 2.000000 5.000000
C 5.500000 2.500000 5.000000
C 5.500000 2.000000 5.500000
C 5.000000 2.500000 5.500000
C 6.000000 2.000000 5.000000
C 6.500000 2.500000 5.000000
C 6.500000 2.000000 5.500000
C 6.000000 2.500000 5.500000
C 7.000000 2.000000 5.000000
C 7.500000 2.500000 5.000000
C 7.500000 2.000000 5.500000
C 7.000000 2.500000 5.500000
C 0.000000 3.000000 5.000000
C 0.500000 3.500000 5.000000
C 0.500000 3.000000 5.500000
C 0.000000 3.500000 5.500000
C 1.000000 3.000000 5.000000
C 1.500000 3.500000 5.000000
C 1.500000 3.000000 5.500000
C 1.000000 3.500000 5.500000
C 2.000000 3.000000 5.000000
C 2.500000 3.500000 5.000000
C 2.500000 3.000000 5.500000
C 2.000000 3.500000 5.500000
C 3.000000 3.000000 5.000000
C 3.500000 3.500000 5.000000
C 3.500000 3.000000 5.500000
C 3.000000 3.500000 5.500000
C 4.000000 3.000000 5.000000
C 4.500000 3.500000 5.000000
C 4.500000 3.000000 5.500000
C 4.000000 3.500000 5.500000
C 5.000000 3.000000 5.000000
C 5.500000 3.500000 5.000000
C 5.500000 3.000000 5.500000
C 5.000000 3.500000 5.500000
C 6.000000 3.000000 5.000000
C 6.500000 3.500000 5.000000
C 6.500000 3.000000 5.500000
C 6.000000 3.500000 5.500000
C 7.000000 3.000000 5.000000
C 7.500000 3.500000 5.000000
C 7.500000 3.000000 5.500000
C 7.000000 3.500000 5.500000
C 0.000000 4.000000 5.000000
C 0.500000 4.500000 5.000000
C 0.500000 4.000000 5.500000
C 0.000000 4.500000 5.500000
C 1.000000 4.000000 5.000000
C 1.500000 4.500000 5.000000
C 1.500000 4.000000 5.500000
C 1.000000 4.500000 5.500000
C 2.000000 4.000000 5.000000
C 2.500000 4.500000 5.000000
C 2.500000 4.000000 5.500000
C 2.000000 4.500000 5.500000
C 3.000000 4.000000 5.000000
C 3.500000 4.500000 5.000000
C 3.500000 4.000000 5.500000
C 3.000000 4.500000 5.500000
C 4.000000 4.000000 5.000000
C 4.500000 4.500000 5.000000
C 4.500000 4.000000 5.500000
C 4.000000 4.500000 5.500000
C 5.000000 4.000000 5.000000
C 5.500000 4.500000 5.000000
C 5.500000 4.000000 5.500000
C 5.000000 4.500000 5.500000
C 6.000000 4.000000 5.000000
C 6.500000 4.500000 5.000000
C 6.500000 4.000000 5.500000
C 6.000000 4.500000 5.500000
C 7.000000 4.000000 5.000000
C 7.500000 4.500000 5.000000
C 7.500000 4.000000 5.500000
C 7.000000 4.500000 5.500000
C 0.000000 5.000000 5.000000
C 0.500000 5.500000 5.000000
C 0.500000 5.000000 5.500000
C 0.000000 5.500000 5.500000
C 1.000000 5.000000 5.000000
C 1.500000 5.500000 5.000000
C 1.500000 5.000000 5.500000
C 1.000000 5.500000 5.500000
C 2.000000 5.000000 5.000000
C 2.500000 5.500000 5.000000
C 2.500000 5.000000 5.500000
C 2.000000 5.500000 5.500000
C 3.000000 5.000000 5.000000
C 3.500000 5.500000 5.000000
C 3.500000 5.000000 5.500000
C 3.000000 5.500000 5.500000
C 4.000000 5.000000 5.000000
C 4.500000 5.500000 5.000000
C 4.500000 5.000000 5.500000
C 4.000000 5.500000 5.500000
C 5.000000 5.000000 5.000000
C 5.500000 5.500000 5.000000
C 5.500000 5.000000 5.500000
C 5.000000 5.500000 5.500000
C 6.000000 5.000000 5.000000
C 6.500000 5.500000 5.000000
C 6.500000 5.000000 5.500000
C 6.000000 5.500000 5.500000
C 7.000000 5.000000 5.000000
C 7.500000 5.500000 5.000000
C 7.500000 5.000000 5.500000
C 7.000000 5.500000 5.500000
C 0.000000 6.000000 5.000000
C 0.500000 6.500000 5.000000
C 0.500000 6.000000 5.500000
C 0.000000 6.500000 5.500000
C 1.000000 6.000000 5.000000
C 1.500000 6.500000 5.000000
C 1.500000 6.000000 5.500000
C 1.000000 6.500000 5.500000
C 2.000000 6.000000 5.000000
C 2.500000 6.500000 5.000000
C 2.500000 6.000000 5.500000
C 2.000000 6.500000 5.500000
C 3.000000 6.000000 5.000000
C 3.500000 6.500000 5.000000
C 3.500000 6.000000 5.500000
C 3.000000 6.500000 5.500000
C 4.000000 6.000000 5.000000
C 4.500000 6.500000 5.000000
C 4.500000 6.000000 5.500000
C 4.000000 6.500000 5.500000
C 5.000000 6.000000 5.000000
C 5.500000 6.500000 5.000000
C 5.500000 6.000000 5.500000
C 5.000000 6.500000 5.500000
C 6.000000 6.000000 5.000000
C 6.500000 6.500000 5.000000
C 6.500000 6.000000 5.500000
C 6.000000 6.500000 5.500000
C 7.000000 6.000000 5.000000
C 7.500000 6.500000 5.000000
C 7.500000 6.000000 5.500000
C 7.000000 6.500000 5.500000
C 0.000000 7.000000 5.000000
C 0.500000 7.500000 5.000000
C 0.500000 7.000000 5.500000
C 0.000000 7.500000 5.500000
C 1.000000 7.000000 5.000000
C 1.500000 7.500000 5.000000
C 1.500000 7.000000 5.500000
C 1.000000 7.500000 5.500000
C 2.000000 7.000000 5.000000
C 2.500000 7.500000 5.000000
C 2.500000 7.000000 5.500000
C 2.000000 7.500000 5.500000
C 3.000000 7.000000 5.000000
C 3.500000 7.500000 5.000000
C 3.500000 7.000000 5.500000
C 3.000000 7.500000 5.500000
C 4.000000 7.000000 5.000000
C 4.500000 7.500000 5.000000
C 4.500000 7.000000 5.500000
C 4.000000 7.500000 5.500000
C 5.000000 7.000000 5.000000
C 5.500000 7.500000 5.000000
C 5.500000 7.000000 5.500000
C 5.000000 7.500000 5.500000
C 6.000000 7.000000 5.000000
C 6.500000 7.500000 5.000000
C 6.500000 7.000000 5.500000
C 6.000000 7.500000 5.500000
C 7.000000 7.000000 5.000000
C 7.500000 7.500000 5.000000
C 7.500000 7.000000 5.500000
C 7.000000 7.500000 5.500000
C 0.000000 0.000000 6.000000
C 0.500000 0.500000 6.000000
C 0.500000 0.000000 6.500000
C 0.000000 0.500000 6.500000
C 1.000000 0.000000 6.000000
C 1.500000 0.500000 6.000000
C 1.500000 0.000000 6.500000
C 1.000000 0.500000 6.500000
C 2.000000 0.000000 6.000000
C 2.500000 0.500000 6.000000
C 2.500000 0.000000 6.500000
C 2.000000 0.500000 6.500000
C 3.000000 0.000000 6.000000
C 3.500000 0.500000 6.000000
C 3.500000 0.000000 6.500000
C 3.000000 0.500000 6.500000
C 4.000000 0.000000 6.000000
C 4.500000 0.500000 6.000000
C 4.500000 0.000000 6.500000
C 4.000000 0.500000 6.500000
C 5.000000 0.000000 6.000000
C 5.500000 0.500000 6.000000
C 5.500000 0.000000 6.500000
C 5.000000 0.500000 6.500000
C 6.000000 0.000000 6.000000
C 6.500000 0.500000 6.000000
C 6.500000 0.000000 6.500000
C 6.000000 0.500000 6.500000
C 7.000000 0.000000 6.000000
C 7.500000 0.500000 6.000000
C 7.500000 0.000000 6.500000
C 7.000000 0.500000 6.500000
C 0.000000 1.000000 6.000000
C 0.500000 1.500000 6.000000
C 0.500000 1.000000 6.500000
C 0.000000 1.500000 6.500000
C 1.000000 1.000000 6.000000
C 1.500000 1.500000 6.000000
C 1.500000 1.000000 6.500000
C 1.000000 1.500000 6.500000
C 2.000000 1.000000 6.000000
C 2.500000 1.500000 6.000000
C 2.500000 1.000000 6.500000
C 2.000000 1.500000 6.500000
C 3.000000 1.000000 6.000000
C 3.500000 1.500000 6.000000
C 3.500000 1.000000 6.500000
C 3.000000 1.500000 6.500000
C 4.000000 1.000000 6.000000
C 4.500000 1.500000 6.000000
C 4.500000 1.000000 6.500000
C 4.000000 1.500000 6.500000
C 5.000000 1.000000 6.000000
C 5.500000 1.500000 6.000000
C 5.500000 1.000000 6.500000
C 5.000000 1.500000 6.500000
C 6.000000 1.000000 6.000000
C 6.500000 1.500000 6.000000
C 6.500000 1.000000 6.500000
C 6.000000 1.500000 6.500000
C 7.000000 1.000000 6.000000
C 7.500000 1.500000 6.000000
C 7.500000 1.000000 6.500000
C 7.000000 1.500000 6.500000
C 0.000000 2.000000 6.000000
C 0.500000 2.500000 6.000000
C 0.500000 2.000000 6.500000
C 0.000000 2.500000 6.500000
C 1.000000 2.000000 6.000000
C 1.500000 2.500000 6.000000
C 1.500000 2.000000 6.500000
C 1.000000 2.500000 6.500000
C 2.000000 2.000000 6.000000
C 2.500000 2.500000 6.000000
C 2.500000 2.000000 6.500000
C 2.000000 2.500000 6.500000
C 3.000000 2.000000 6.000000
C 3.500000 2.500000 6.000000
C 3.500000 2.000000 6.500000
C 3.000000 2.500000 6.500000
C 4.000000 2.000000 6.000000
C 4.500000 2.500000 6.000000
C 4.500000 2.000000 6.500000
C 4.000000 2.500000 6.500000
C 5.000000 2.000000 6.000000
C 5.500000 2.500000 6.000000
C 5.500000 2.000000 6.500000
C 5.000000 2.500000 6.500000
C 6.000000 2.000000 6.000000
C 6.500000 2.500000 6.000000
C 6.500000 2.000000 6.500000
C 6.000000 2.500000 6.500000
C 7.000000 2.000000 6.000000
C 7.500000 2.500000 6.000000
C 7.500000 2.000000 6.500000
C 7.000000 2.500000 6.500000
C 0.000000 3.000000 6.000000
C 0.500000 3.500000 6.000000
C 0.500000 3.000000 6.500000
C 0.000000 3.500000 6.500000
C 1.000000 3.000000 6.000000
C 1.500000 3.500000 6.000000
C 1.500000 3.000000 6.500000
C 1.000000 3.500000 6.500000
C 2.000000 3.000000 6.000000
C 2.500000 3.500000 6.000000
C 2.500000 3.000000 6.500000
C 2.000000 3.500000 6.500000
C 3.000000 3.000000 6.000000
C 3.500000 3.500000 6.000000
C 3.500000 3.000000 6.500000
C 3.000000 3.500000 6.500000
C 4.000000 3.000000 6.000000
C 4.500000 3.500000 6.000000
C 4.500000 3.000000 6.500000
C 4.000000 3.500000 6.500000
C 5.000000 3.000000 6.000000
C 5.500000 3.500000 6.000000
C 5.500000 3.000000 6.500000
C 5.000000 3.500000 6.500000
C 6.000000 3.000000 6.000000
C 6.500000 3.500000 6.000000
C 6.500000 3.000000 6.500000
C 6.000000 3.500000 6.500000
C 7.000000 3.000000 6.000000
C 7.500000 3.500000 6.000000
C 7.500000 3.000000 6.500000
C 7.000000 3.500000 6.500000
C 0.000000 4.000000 6.000000
C 0.500000 4.500000 6.000000
C 0.500000 4.000000 6.500000
C 0.000000 4.500000 6.500000
C 1.000000 4.000000 6.000000
C 1.500000 4.500000 6.000000
C 1.500000 4.000000 6.500000
C 1.000000 4.500000 6.500000
C 2.000000 4.000000 6.000000
C 2.500000 4.500000 6.000000
C 2.500000 4.000000 6.500000
C 2.000000 4.500000 6.500000
C 3.000000 4.000000 6.000000
C 3.500000 4.500000 6.000000
C 3.500000 4.000000 6.500000
C 3.000000 4.500000 6.500000
C 4.000000 4.000000 6.000000
C 4.500000 4.500000 6.000000
C 4.500000 4.000000 6.500000
C 4.000000 4.500000 6.500000
C 5.000000 4.000000 6.000000
C 5.500000 4.500000 6.000000
C 5.500000 4.000000 6.500000
C 5.000000 4.500000 6.500000
C 6.000000 4.000000 6.000000
C 6.500000 4.500000 6.000000
C 6.500000 4.000000 6.500000
C 6.000000 4.500000 6.500000
C 7.000000 4.000000 6.000000
C 7.500000 4.500000 6.000000
C 7.500000 4.000000 6.500000
C 7.000000 4.500000 6.500000
C 0.000000 5.000000 6.000000
C 0.500000 5.500000 6.000000
C 0.500000 5.000000 6.500000
C 0.000000 5.500000 6.500000
C 1.000000 5.000000 6.000000
C 1.500000 5.500000 6.000000
C 1.500000 5.000000 6.500000
C 1.000000 5.500000 6.500000
C 2.000000 5.000000 6.000000
C 2.500000 5.500000 6.000000
C 2.500000 5.000000 6.500000
C 2.000000 5.500000 6.500000
C 3.000000 5.000000 6.000000
C 3.500000 5.500000 6.000000
C 3.500000 5.000000 6.500000
C 3.000000 5.500000 6.500000
C 4.000000 5.000000 6.000000
C 4.500000 5.500000 6.000000
C 4.500000 5.000000 6.500000
C 4.000000 5.500000 6.500000
C 5.000000 5.000000 6.000000
C 5.500000 5.500000 6.000000
C 5.500000 5.000000 6.500000
C 5.000000 5.500000 6.500000
C 6.000000 5.000000 6.000000
C 6.500000 5.500000 6.000000
C 6.500000 5.000000 6.500000
C 6.000000 5.500000 6.500000
C 7.000000 5.000000 6.000000
C 7.500000 5.500000 6.000000
C 7.500000 5.000000 6.500000
C 7.000000 5.500000 6.500000
C 0.000000 6.000000 6.000000
C 0.500000 6.500000 6.000000
C 0.500000 6.000000 6.500000
C 0.000000 6.500000 6.500000
C 1.000000 6.000000 6.000000
C 1.500000 6.500000 6.000000
C 1.500000 6.000000 6.500000
C 1.000000 6.500000 6.500000
C 2.000000 6.000000 6.000000
C 2.500000 6.500000 6.000000
C 2.500000 6.000000 6.500000
C 2.000000 6.500000 6.500000
C 3.000000 6.000000 6.000000
C 3.500000 6.500000 6.000000
C 3.500000 6.000000 6.500000
C 3.000000 6.500000 6.500000
C 4.000000 6.000000 6.000000
C 4.500000 6.500000 6.000000
C 4.500000 6.000000 6.500000
C 4.000000 6.500000 6.500000
C 5.000000 6.000000 6.000000
C 5.500000 6.500000 6.000000
C 5.500000 6.000000 6.500000
C 5.000000 6.500000 6.500000
C 6.000000 6.000000 6.000000
C 6.500000 6.500000 6.000000
C 6.500000 6.000000 6.500000
C 6.000000 6.500000 6.500000
C 7.000000 6.000000 6.000000
C 7.500000 6.500000 6.000000
C 7.500000 6.000000 6.500000
C 7.000000 6.500000 6.500000
C 0.000000 7.000000 6.000000
C 0.500000 7.500000 6.000000
C 0.500000 7.000000 6.500000
C 0.000000 7.500000 6.500000
C 1.000000 7.000000 6.000000
C 1.500000 7.500000 6.000000
C 1.500000 7.000000 6.500000
C 1.000000 7.500000 6.500000
C 2.000000 7.000000 6.000000
C 2.500000 7.500000 6.000000
C 2.500000 7.000000 6.500000
C 2.000000 7.500000 6.500000
C 3.000000 7.000000 6.000000
C 3.500000 7.500000 6.000000
C 3.500000 7.000000 6.500000
C 3.000000 7.500000 6.500000
C 4.000000 7.000000 6.000000
C 4.500000 7.500000 6.000000
C 4.500000 7.000000 6.500000
C 4.000000 7.500000 6.500000
C 5.000000 7.000000 6.000000
C 5.500000 7.500000 6.000000
C 5.500000 7.000000 6.500000
C 5.000000 7.500000 6.500000
C 6.000000 7.000000 6.000000
C 6.500000 7.500000 6.000000
C 6.500000 7.000000 6.500000
C 6.000000 7.500000 6.500000
C 7.000000 7.000000 6.000000
C 7.500000 7.500000 6.000000
C 7.500000 7.000000 6.500000
C 7.000000 7.500000 6.500000
C 0.000000 0.000000 7.000000
C 0.500000 0.500000 7.000000
C 0.500000 0.000000 7.500000
C 0.000000 0.500000 7.500000
C 1.000000 0.000000 7.000000
C 1.500000 0.500000 7.000000
C 1.500000 0.000000 7.500000
C 1.000000 0.500000 7.500000
C 2.000000 0.000000 7.000000
C 2.500000 0.500000 7.000000
C 2.500000 0.000000 7.500000
C 2.000000 0.500000 7.500000
C 3.000000 0.000000 7.000000
C 3.500000 0.500000 7.000000
C 3.500000 0.000000 7.500000
C 3.000000 0.500000 7.500000
C 4.000000 0.000000 7.000000
C 4.500000 0.500000 7.000000
C 4.500000 0.000000 7.500000
C 4.000000 0.500000 7.500000
C 5.000000 0.000000 7.000000
C 5.500000 0.500000 7.000000
C 5.500000 0.000000 7.500000
C 5.000000 0.500000 7.500000
C 6.000000 0.000000 7.000000
C 6.500000 0.500000 7.000000
C 6.500000 0.000000 7.500000
C 6.000000 0.500000 7.500000
C 7.000000 0.000000 7.000000
C 7.500000 0.500000 7.000000
C 7.500000 0.000000 7.500000
C 7.000000 0.500000 7.500000
C 0.000000 1.000000 7.000000
C 0.500000 1.500000 7.000000
C 0.500000 1.000000 7.500000
C 0.000000 1.500000 7.500000
C 1.000000 1.000000 7.000000
C 1.500000 1.500000 7.000000
C 1.500000 1.000000 7.500000
C 1.000000 1.500000 7.500000
C 2.000000 1.000000 7.000000
C 2.500000 1.500000 7.000000
C 2.500000 1.000000 7.500000
C 2.000000 1.500000 7.500000
C 3.000000 1.000000 7.000000
C 3.500000 1.500000 7.000000
C 3.500000 1.000000 7.500000
C 3.000000 1.500000 7.500000
C 4.000000 1.000000 7.000000
C 4.500000 1.500000 7.000000
C 4.500000 1.000000 7.500000
C 4.000000 1.500000 7.500000
C 5.000000 1.000000 7.000000
C 5.500000 1.500000 7.000000
C 5.500000 1.000000 7.500000
C 5.000000 1.500000 7.500000
C 6.000000 1.000000 7.000000
C 6.500000 1.500000 7.000000
C 6.500000 1.000000 7.500000
C 6.000000 1.500000 7.500000
C 7.000000 1.000000 7.000000
C 7.500000 1.500000 7.000000
C 7.500000 1.000000 7.500000
C 7.000000 1.500000 7.500000
C 0.000000 2.000000 7.000000
C 0.500000 2.500000 7.000000
C 0.500000 2.000000 7.500000
C 0.000000 2.500000 7.500000
C 1.000000 2.000000 7.000000
C 1.500000 2.500000 7.000000
C 1.500000 2.000000 7.500000
C 1.000000 2.500000 7.500000
C 2.000000 2.000000 7.000000
C 2.500000 2.500000 7.000000
C 2.500000 2.000000 7.500000
C 2.000000 2.500000 7.500000
C 3.000000 2.000000 7.000000
C 3.500000 2.500000 7.000000
C 3.500000 2.000000 7.500000
C 3.000000 2.500000 7.500000
C 4.000000 2.000000 7.000000
C 4.500000 2.500000 7.000000
C 4.500000 2.000000 7.500000
C 4.000000 2.500000 7.500000
C 5.000000 2.000000 7.000000
C 5.500000 2.500000 7.000000
C 5.500000 2.000000 7.500000
C 5.000000 2.500000 7.500000
C 6.000000 2.000000 7.000000
C 6.500000 2.500000 7.000000
C 6.500000 2.000000 7.500000
C 6.000000 2.500000 7.500000
C 7.000000 2.000000 7.000000
C 7.500000 2.500000 7.000000
C 7.500000 2.000000 7.500000
C 7.000000 2.500000 7.500000
C 0.000000 3.000000 7.000000
C 0.500000 3.500000 7.000000
C 0.500000 3.000000 7.500000
C 0.000000 3.500000 7.500000
C 1.000000 3.000000 7.000000
C 1.500000 3.500000 7.000000
C 1.500000 3.000000 7.500000
C 1.000000 3.500000 7.500000
C 2.000000 3.000000 7.000000
C 2.500000 3.500000 7.000000
C 2.500000 3.000000 7.500000
C 2.000000 3.500000 7.500000
C 3.000000 3.000000 7.000000
C 3.500000 3.500000 7.000000
C 3.500000 3.000000 7.500000
C 3.000000 3.500000 7.500000
C 4.000000 3.000000 7.000000
C 4.500000 3.500000 7.000000
C 4.500000 3.000000 7.500000
C 4.000000 3.500000 7.500000
C 5.000000 3.000000 7.000000
C 5.500000 3.500000 7.000000
C 5.500000 3.000000 7.500000
C 5.000000 3.500000 7.500000
C 6.000000 3.000000 7.000000
C 6.500000 3.500000 7.000000
C 6.500000 3.000000 7.500000
C 6.000000 3.500000 7.500000
C 7.000000 3.000000 7.000000
C 7.500000 3.500000 7.000000
C 7.500000 3.000000 7.500000
C 7.000000 3.500000 7.500000
C 0.000000 4.000000 7.000000
C 0.500000 4.500000 7.000000
C 0.500000 4.000000 7.500000
C 0.000000 4.500000 7.500000
C 1.000000 4.000000 7.000000
C 1.500000 4.500000 7.000000
C 1.500000 4.000000 7.500000
C 1.000000 4.500000 7.500000
C 2.000000 4.000000 7.000000
C 2.500000 4.500000 7.000000
C 2.500000 4.000000 7.500000
C 2.000000 4.500000 7.500000
C 3.000000 4.000000 7.000000
C 3.500000 4.500000 7.000000
C 3.500000 4.000000 7.500000
C 3.000000 4.500000 7.500000
C 4.000000 4.000000 7.000000
C 4.500000 4.500000 7.000000
C 4.500000 4.000000 7.500000
C 4.000000 4.500000 7.500000
C 5.000000 4.000000 7.000000
C 5.500000 4.500000 7.000000
C 5.500000 4.000000 7.500000
C 5.000000 4.500000 7.500000
C 6.000000 4.000000 7.000000
C 6.500000 4.500000 7.000000
C 6.500000 4.000000 7.500000
C 6.000000 4.500000 7.500000
C 7.000000 4.000000 7.000000
C 7.500000 4.500000 7.000000
C 7.500000 4.000000 7.500000
C 7.000000 4.500000 7.500000
C 0.000000 5.000000 7.000000
C 0.500000 5.500000 7.000000
C 0.500000 5.000000 7.500000
C 0.000000 5.500000 7.500000
C 1.000000 5.000000 7.000000
C 1.500000 5.500000 7.000000
C 1.500000 5.000000 7.500000
C 1.000000 5.500000 7.500000
C 2.000000 5.000000 7.000000
C 2.500000 5.500000 7.000000
C 2.500000 5.000000 7.500000
C 2.000000 5.500000 7.500000
C 3.000000 5.000000 7.000000
C 3.500000 5.500000 7.000000
C 3.500000 5.000000 7.500000
C 3.000000 5.500000 7.500000
C 4.000000 5.000000 7.000000
C 4.500000 5.500000 7.000000
C 4.500000 5.000000 7.500000
C 4.000000 5.500000 7.500000
C 5.000000 5.000000 7.000000
C 5.500000 5.500000 7.000000
C 5.500000 5.000000 7.500000
C 5.000000 5.500000 7.500000
C 6.000000 5.000000 7.000000
C 6.500000 5.500000 7.000000
C 6.500000 5.000000 7.500000
C 6.000000 5.500000 7.500000
C 7.000000 5.000000 7.000000
C 7.500000 5.500000 7.000000
C 7.500000 5.000000 7.500000
C 7.000000 5.500000 7.500000
C 0.000000 6.000000 7.000000
C 0.500000 6.500000 7.000000
C 0.500000 6.000000 7.500000
C 0.000000 6.500000 7.500000
C 1.000000 6.000000 7.000000
C 1.500000 6.500000 7.000000
C 1.500000 6.000000 7.500000
C 1.000000 6.500000 7.500000
C 2.000000 6.000000 7.000000
C 2.500000 6.500000 7.000000
C 2.500000 6.000000 7.500000
C 2.000000 6.500000 7.500000
C 3.000000 6.000000 7.000000
C 3.500000 6.500000 7.000000
C 3.500000 6.000000 7.500000
C 3.000000 6.500000 7.500000
C 4.000000 6.000000 7.000000
C 4.500000 6.500000 7.000000
C 4.500000 6.000000 7.500000
C 4.000000 6.500000 7.500000
C 5.000000 6.000000 7.000000
C 5.500000 6.500000 7.000000
C 5.500000 6.000000 7.500000
C 5.000000 6.500000 7.500000
C 6.000000 6.000000 7.000000
C 6.500000 6.500000 7.000000
C 6.500000 6.000000 7.500000
C 6.000000 6.500000 7.500000
C 7.000000 6.000000 7.000000
C 7.500000 6.500000 7.000000
C 7.500000 6.000000 7.500000
C 7.000000 6.500000 7.500000
C 0.000000 7.000000 7.000000
C 0.500000 7.500000 7.000000
C 0.500000 7.000000 7.500000
C 0.000000 7.500000 7.500000
C 1.000000 7.000000 7.000000
C 1.500000 7.500000 7.000000
C 1.500000 7.000000 7.500000
C 1.000000 7.500000 7.500000
C 2.000000 7.000000 7.000000
C 2.500000 7.500000 7.000000
C 2.500000 7.000000 7.500000
C 2.000000 7.500000 7.500000
C 3.000000 7.000000 7.000000
C 3.500000 7.500000 7.000000
C 3.500000 7.000000 7.500000
C 3.000000 7.500000 7.500000
C 4.000000 7.000000 7.000000
C 4.500000 7.500000 7.000000
C 4.500000 7.000000 7.500000
C 4.000000 7.500000 7.500000
C 5.000000 7.000000 7.000000
C 5.500000 7.500000 7.000000
C 5.500000 7.000000 7.500000
C 5.000000 7.500000 7.500000
C 6.000000 7.000000 7.000000
C 6.500000 7.500000 7.000000
C 6.500000 7.000000 7.500000
C 6.000000 7.500000 7.500000
C 7.000000 7.000000 7.000000
C 7.500000 7.500000 7.000000
C 7.500000 7.000000 7.500000
C 7.000000 7.500000 7.500000
2048
Frame 2/10
C 0.023724 0.026574 0.028093
C 0.503895 0.487903 0.001970
C 0.491951 0.008281 0.513298
C 0.004394 0.529892 0.513832
C 0.982305 0.002357 0.004144
C 1.473501 0.523562 0.030033
C 1.497456 0.014985 0.495942
C 1.008793 0.496837 0.524169
C 1.987805 0.001061 0.000610
C 2.512488 0.494439 0.017178
C 2.528268 0.015390 0.511173
C 2.013623 0.488965 0.519215
C 3.034240 0.009855 0.034811
C 3.475534 0.506985 0.012729
C 3.532982 0.031187 0.482315
C 3.007550 0.507172 0.538426
C 4.054401 0.000547 0.002619
C 4.474881 0.525674 0.011051
C 4.514585 0.014500 0.517277
C 4.013614 0.489391 0.521514
C 5.029723 0.019340 0.000193
C 5.480284 0.531709 0.023063
C 5.521726 0.010301 0.498800
C 4.999120 0.478736 0.488805
C 5.970111 0.033539 0.005316
C 6.496046 0.524655 0.007240
C 6.496568 0.005458 0.513627
C 6.005995 0.499289 0.497942
C 7.036802 0.002329 0.007879
C 7.481672 0.527010 0.035622
C 7.458396 0.011739 0.518699
C 6.983862 0.509197 0.497611
C 0.024842 0.971304 0.024003
C 0.529679 1.518152 0.003550
C 0.489211 1.016963 0.498730
C 0.030366 1.496523 0.466295
C 1.002206 0.996664 0.003132
C 1.502153 1.511489 0.012075
C 1.524499 1.036175 0.506073
C 0.997875 1.504352 0.526580
C 1.981712 1.018035 0.003767
C 2.522646 1.512646 0.003760
C 2.512936 0.980884 0.515235
C 2.015720 1.495299 0.467718
C 2.982538 0.980150 0.001015
C 3.470793 1.516966 0.049735
C 3.503480 0.962002 0.494960
C 2.982339 1.484964 0.484144
C 3.979580 1.019823 0.037571
C 4.495511 1.489103 0.000075
C 4.531154 1.001342 0.492254
C 3.982391 1.513128 0.485969
C 5.010801 1.037613 0.009045
C 5.490257 1.516407 0.019042
C 5.526842 1.012430 0.496837
C 5.011626 1.497714 0.499161
C 5.984530 0.978518 0.019910
C 6.491763 1.509116 0.031311
C 6.482467 1.013807 0.468440
C 6.008700 1.516793 0.501841
C 6.978101 0.996729 0.016095
C 7.490246 1.516939 0.002224
C 7.467776 1.012578 0.498810
C 6.976958 1.525570 0.508372
C 0.026463 2.035453 0.004593
C 0.510923 2.519184 0.005702
C 0.488269 1.989593 0.476270
C 0.017007 2.466278 0.507791
C 0.990553 2.017380 0.012127
C 1.499562 2.493953 0.035227
C 1.520162 2.007090 0.492579
C 0.974969 2.478111 0.508762
C 2.013118 2.013359 0.029291
C 2.479647 2.495132 0.003012
C 2.517451 2.010806 0.543897
C 2.010299 2.533567 0.523146
C 2.981189 2.002994 0.030420
C 3.513164 2.530790 0.004428
C 3.463949 2.011619 0.501599
C 3.027689 2.525397 0.497615
C 4.013582 1.983179 0.012512
C 4.487466 2.486589 0.011111
C 4.472453 1.982093 0.513002
C 3.990696 2.518916 0.498103
C 5.021794 2.001558 0.015763
C 5.455950 2.502806 0.011035
C 5.515594 2.010476 0.505834
C 5.016209 2.536443 0.498249
C 5.986139 2.021802 0.013908
C 6.504338 2.497829 0.013755
C 6.513584 2.013666 0.532636
C 5.989024 2.501274 0.512343
C 6.958061 1.990364 0.005851
C 7.491747 2.491522 0.021852
C 7.472952 1.984688 0.497607
C 7.004517 2.480234 0.486239
C 0.039132 3.011696 0.015865
C 0.510467 3.548401 0.014773
C 0.504604 3.032362 0.506766
C 0.014022 3.462249 0.526303
C 0.993849 2.995898 0.015740
C 1.481870 3.526749 0.005509
C 1.485834 3.017281 0.494845
C 0.993700 3.487147 0.471182
C 1.978872 2.967356 0.010908
C 2.491000 3.535821 0.015856
C 2.519392 2.988196 0.488465
C 2.016426 3.489941 0.502502
C 2.991987 2.977773 0.002328
C 3.467105 3.508592 0.006361
C 3.473053 3.016072 0.511640
C 3.005437 3.510575 0.509829
C 3.992011 3.019144 0.005679
C 4.539184 3.503162 0.015027
C 4.518218 3.016093 0.478532
C 4.021638 3.519779 0.509445
C 5.030024 3.025179 0.030935
C 5.517197 3.515689 0.003447
C 5.531048 2.997387 0.513690
C 5.013829 3.515683 0.500749
C 5.963367 2.994907 0.000263
C 6.516875 3.477415 0.037465
C 6.463074 2.980199 0.489942
C 6.020424 3.472577 0.490337
C 7.011013 3.013574 0.002608
C 7.486935 3.521694 0.026493
C 7.482246 2.977589 0.490881
C 7.013238 3.494391 0.509998
C 0.015584 3.971860 0.035171
C 0.477750 4.492492 0.003804
C 0.522254 4.020409 0.498632
C 0.030768 4.493420 0.505348
C 1.002664 4.010435 0.019489
C 1.502047 4.463346 0.020666
C 1.477639 3.981740 0.496056
C 0.985253 4.508519 0.484610
C 1.997970 4.007569 0.036337
C 2.524942 4.506105 0.022215
C 2.490172 4.040312 0.502853
C 1.980789 4.524753 0.493856
C 2.980136 4.013719 0.007610
C 3.494770 4.493583 0.001859
C 3.490734 4.001635 0.466868
C 3.009594 4.473638 0.497994
C 3.989820 4.031469 0.005101
C 4.496116 4.499110 0.001884
C 4.527588 3.995771 0.500578
C 4.020725 4.518948 0.503116
C 4.994146 4.003950 0.012894
C 5.501826 4.490193 0.034502
C 5.506038 3.975862 0.496714
C 4.980800 4.521769 0.487248
C 6.008779 3.982967 0.028654
C 6.518100 4.504825 0.012333
C 6.481729 4.028070 0.496123
C 5.996168 4.496820 0.473525
C 6.970335 4.012199 0.019044
C 7.474600 4.523371 0.000629
C 7.478483 4.022154 0.481505
C 6.988447 4.528855 0.496634
C 0.005380 4.988598 0.046240
C 0.491445 5.522162 0.000915
C 0.520635 5.015941 0.530408
C 0.008448 5.500050 0.521646
C 0.987229 5.013694 0.016809
C 1.463680 5.523153 0.018657
C 1.509624 5.033058 0.486223
C 0.978446 5.506115 0.484246
C 2.023469 5.037590 0.010533
C 2.520859 5.508698 0.026023
C 2.512820 5.018920 0.491109
C 1.999687 5.490972 0.506824
C 2.994957 4.994300 0.030031
C 3.483637 5.475662 0.017139
C 3.488658 5.013965 0.516914
C 3.002611 5.497024 0.523136
C 3.983791 4.999923 0.034760
C 4.519479 5.518923 0.008296
C 4.507650 5.004617 0.522980
C 3.970564 5.494962 0.514097
C 5.014198 4.981686 0.012241
C 5.509396 5.506153 0.007967
C 5.502446 5.007627 0.462907
C 5.007929 5.493860 0.481640
C 6.013141 4.975325 0.000942
C 6.494424 5.467628 0.019554
C 6.493065 4.966965 0.499835
C 5.957785 5.504183 0.512593
C 6.990665 5.020116 0.004995
C 7.482789 5.520683 0.013971
C 7.478111 4.976848 0.524637
C 7.005055 5.512030 0.496943
C 0.000644 5.968229 0.022601
C 0.488264 6.497281 0.018059
C 0.513338 6.001696 0.495888
C 0.009457 6.474888 0.490696
C 0.979673 6.009929 0.010035
C 1.473095 6.471459 0.033516
C 1.539214 5.999338 0.487892
C 0.995906 6.479775 0.526274
C 1.998970 5.968605 0.006590
C 2.513226 6.491333 0.006320
C 2.511917 5.999483 0.485148
C 2.013065 6.503076 0.508233
C 3.023373 6.027131 0.015954
C 3.515596 6.462747 0.009224
C 3.477448 5.992069 0.493091
C 3.030534 6.504467 0.497864
C 4.005884 6.007010 0.039486
C 4.504836 6.520868 0.003828
C 4.513698 5.982883 0.505166
C 3.975627 6.511457 0.472652
C 4.999599 6.007186 0.002486
C 5.476551 6.516777 0.012260
C 5.462177 5.988292 0.512866
C 5.009116 6.483898 0.489518
C 6.022899 6.003995 0.009135
C 6.471104 6.521019 0.015125
C 6.514786 5.990679 0.481112
C 5.975537 6.500766 0.507154
C 7.012863 6.026472 0.007945
C 7.495138 6.534963 0.018110
C 7.477584 6.005586 0.539102
C 6.969159 6.500654 0.473963
C 0.033125 6.999434 0.000125
C 0.540920 7.492684 0.004199
C 0.481688 6.985426 0.489814
C 0.002500 7.495603 0.492444
C 0.987871 6.958528 0.008157
C 1.490970 7.439873 0.003685
C 1.519209 7.013918 0.515184
C 1.030529 7.476274 0.517066
C 2.030014 6.982695 0.031005
C 2.484858 7.474386 0.044987
C 2.474367 7.010428 0.534457
C 1.990296 7.483192 0.476888
C 3.042533 6.990629 0.010099
C 3.516873 7.483151 0.013043
C 3.481997 7.003395 0.506829
C 2.990569 7.499133 0.453888
C 4.033572 7.004702 0.019870
C 4.535235 7.498140 0.024872
C 4.484594 6.976250 0.504373
C 3.993687 7.490432 0.521599
C 4.995289 6.985071 0.032823
C 5.481475 7.492275 0.004458
C 5.520958 6.990328 0.482795
C 5.030246 7.486613 0.504981
C 5.974424 7.029547 0.012719
C 6.506286 7.491166 0.014667
C 6.522177 6.996059 0.505591
C 5.979426 7.495439 0.516418
C 7.000370 6.995245 0.004419
C 7.441587 7.476605 0.033855
C 7.461642 6.955703 0.504695
C 7.005646 7.479462 0.544091
C 0.002423 0.027979 0.982013
C 0.476610 0.503017 1.008697
C 0.490980 0.003831 1.503575
C 0.000886 0.492358 1.493929
C 1.007852 0.006689 1.002445
C 1.523956 0.502480 0.984506
C 1.512397 0.006530 1.526635
C 0.970720 0.515136 1.489775
C 2.020594 0.023423 1.016680
C 2.514224 0.474746 1.005896
C 2.514008 0.009070 1.514938
C 2.008135 0.534566 1.516772
C 3.011377 0.011133 0.992849
C 3.529851 0.523851 1.005662
C 3.528203 0.027552 1.487977
C 2.980759 0.504435 1.503652
C 3.975227 0.022354 0.994369
C 4.521203 0.472262 1.008719
C 4.457201 0.009993 1.510006
C 4.004634 0.527714 1.534169
C 5.030032 0.009512 0.972863
C 5.528125 0.488502 0.991808
C 5.478051 0.006318 1.497905
C 4.991950 0.476402 1.500112
C 5.991703 0.018277 1.038098
C 6.527276 0.491858 0.989518
C 6.509970 0.005023 1.537601
C 5.984721 0.539081 1.493885
C 6.979268 0.000464 1.036311
C 7.498987 0.477469 0.997846
C 7.458726 0.039790 1.472899
C 6.973654 0.492522 1.523491
C 0.017425 1.008938 0.987951
C 0.512056 1.500848 1.006557
C 0.485211 0.991949 1.475055
C 0.016766 1.477191 1.473190
C 0.987387 0.985104 0.983190
C 1.483238 1.493914 1.014065
C 1.490835 0.998956 1.524564
C 0.975338 1.501253 1.508106
C 1.964986 1.002230 0.992239
C 2.521962 1.509037 1.010817
C 2.502064 0.976565 1.475108
C 2.000752 1.482192 1.481801
C 2.994753 1.015102 0.992777
C 3.496287 1.492878 0.992233
C 3.520925 0.984147 1.509295
C 3.003207 1.492515 1.530892
C 4.002395 1.012383 1.008944
C 4.514261 1.509889 0.993094
C 4.497882 0.990666 1.496745
C 4.012308 1.509461 1.465298
C 4.970481 1.020318 1.007803
C 5.523682 1.508415 0.995475
C 5.524566 1.029383 1.524841
C 5.025270 1.490667 1.470098
C 6.017948 0.975828 0.998786
C 6.499378 1.522118 0.996611
C 6.495610 0.971755 1.492715
C 5.978749 1.514196 1.499904
C 7.021140 0.985297 0.998861
C 7.478236 1.509622 1.016256
C 7.487089 0.966318 1.504883
C 6.999344 1.523842 1.496136
C 0.016911 1.992948 1.035788
C 0.497888 2.467731 0.989900
C 0.512217 2.001841 1.523187
C 0.002281 2.492606 1.505190
C 1.016724 2.001531 0.993101
C 1.488113 2.503643 0.988142
C 1.494693 1.980292 1.514890
C 1.026407 2.490973 1.485510
C 2.017360 1.974849 0.989238
C 2.490926 2.501993 1.004479
C 2.480009 1.998694 1.493603
C 2.023170 2.499967 1.509730
C 3.025760 2.004348 1.007382
C 3.491445 2.491153 0.970612
C 3.531635 1.983393 1.507632
C 3.017347 2.472231 1.501272
C 3.996278 2.029344 0.983669
C 4.479912 2.503323 0.968905
C 4.474155 1.992723 1.492487
C 3.998091 2.504684 1.503615
C 4.986815 1.986975 1.021126
C 5.501854 2.521894 0.995374
C 5.484337 1.981806 1.477586
C 5.012725 2.465339 1.495782
C 5.970855 2.014533 1.002334
C 6.536045 2.509148 0.990618
C 6.513378 2.016000 1.507700
C 6.021338 2.489142 1.508184
C 6.987339 1.984553 1.004508
C 7.494902 2.532440 0.989124
C 7.490767 1.996482 1.529304
C 6.965243 2.517095 1.508580
C 0.014818 3.032978 1.015917
C 0.526083 3.479455 1.021200
C 0.511218 2.995962 1.527135
C 0.007633 3.534410 1.499410
C 1.011281 2.993072 0.987044
C 1.486011 3.496301 0.982726
C 1.487787 2.979553 1.473859
C 1.001911 3.463288 1.520602
C 1.997187 3.006949 1.021229
C 2.514330 3.522020 0.972936
C 2.499221 2.998293 1.492393
C 2.025389 3.493094 1.503141
C 2.990060 2.985063 1.034775
C 3.469237 3.478540 1.021084
C 3.504396 2.976792 1.485734
C 2.970860 3.521048 1.507725
C 3.988034 2.998509 0.986713
C 4.520522 3.508313 1.019372
C 4.489928 3.025042 1.474839
C 4.004329 3.510910 1.528020
C 5.000701 3.007891 0.998180
C 5.482931 3.515754 1.011420
C 5.497147 3.018919 1.494050
C 5.026870 3.518531 1.502487
C 5.988796 3.009963 1.010590
C 6.510610 3.465735 0.978967
C 6.455294 2.993630 1.493803
C 5.991163 3.485803 1.505417
C 6.993922 2.997478 0.957478
C 7.496787 3.473138 0.983540
C 7.473410 3.001704 1.496717
C 6.974467 3.521064 1.509373
C 0.012492 3.995203 0.972541
C 0.506021 4.522413 0.971734
C 0.528233 3.998023 1.518119
C 0.010333 4.506623 1.468614
C 1.026698 3.992386 1.018329
C 1.500907 4.494858 1.026130
C 1.510215 3.986549 1.504141
C 0.999097 4.522263 1.504005
C 2.012466 3.967194 0.987347
C 2.492111 4.526191 0.974006
C 2.487556 3.984745 1.486981
C 2.005089 4.513501 1.500219
C 2.983966 3.990951 1.016163
C 3.469312 4.476996 1.012848
C 3.511771 3.981233 1.514129
C 3.007025 4.486744 1.526146
C 3.994856 4.020095 1.015551
C 4.521216 4.494572 1.007210
C 4.469936 3.979711 1.485309
C 3.963593 4.484451 1.499328
C 5.009358 4.006499 1.016749
C 5.505727 4.463189 0.999584
C 5.483088 4.026781 1.499786
C 5.032029 4.520452 1.506389
C 5.981613 3.991766 1.036004
C 6.497162 4.478465 1.022353
C 6.480368 3.968735 1.517966
C 6.024520 4.498641 1.499525
C 6.979599 3.998506 1.006367
C 7.486061 4.471624 0.972849
C 7.476375 3.988793 1.513270
C 6.989461 4.470838 1.496821
C 0.017528 4.984513 0.982093
C 0.496199 5.527897 0.979895
C 0.499784 5.028926 1.477023
C 0.029752 5.491683 1.523137
C 0.992762 4.973384 0.997165
C 1.519376 5.527103 1.024264
C 1.488330 4.996369 1.488728
C 1.008666 5.506528 1.467528
C 2.021107 4.992313 1.021758
C 2.481033 5.522160 0.993767
C 2.508800 4.996880 1.524593
C 2.025001 5.495616 1.484529
C 3.002003 5.019266 1.016648
C 3.488963 5.501688 1.008323
C 3.489955 5.012689 1.491241
C 3.002709 5.478601 1.506239
C 3.971278 5.025000 1.001224
C 4.491023 5.498496 0.977514
C 4.518477 4.998939 1.522236
C 4.015656 5.496143 1.485307
C 5.019689 4.995117 1.021986
C 5.470478 5.483239 0.987106
C 5.509712 5.039958 1.476493
C 4.978150 5.504726 1.471590
C 5.993463 5.010875 1.027798
C 6.498566 5.522157 0.972968
C 6.497872 5.006655 1.470116
C 5.982739 5.516171 1.501091
C 7.028216 5.005907 1.010369
C 7.487271 5.499353 1.006462
C 7.474940 4.989332 1.533346
C 7.019197 5.489211 1.503907
C 0.009208 6.048240 0.989534
C 0.501241 6.489547 0.975287
C 0.490083 5.977813 1.500632
C 0.003353 6.482275 1.482929
C 0.993282 5.998694 1.021204
C 1.492422 6.483271 0.986815
C 1.487126 6.019292 1.474657
C 0.983199 6.482545 1.513317
C 1.996089 6.003251 0.978214
C 2.494955 6.524201 0.989992
C 2.494364 6.013134 1.473578
C 2.006543 6.501659 1.484758
C 2.971441 5.980557 0.992938
C 3.482774 6.481292 0.998297
C 3.523769 5.991278 1.500547
C 3.009987 6.479959 1.531250
C 4.000932 5.968987 0.997274
C 4.472757 6.506754 1.005613
C 4.521399 5.999401 1.501923
C 3.981261 6.490310 1.476007
C 4.992278 6.015789 0.996240
C 5.482473 6.495962 1.014155
C 5.495349 5.982359 1.487183
C 4.980844 6.510431 1.499234
C 5.997829 6.002599 0.975453
C 6.483157 6.482772 1.020650
C 6.492119 5.986460 1.513525
C 5.983939 6.496821 1.496485
C 6.968332 5.973537 1.014652
C 7.494961 6.522748 0.998202
C 7.488484 5.979897 1.521466
C 7.021297 6.487860 1.497510
C 0.040096 6.999201 1.008915
C 0.503504 7.470185 0.956558
C 0.513444 6.994664 1.497876
C 0.028162 7.494423 1.479004
C 0.982325 7.015857 0.999095
C 1.494188 7.497669 1.043524
C 1.506889 7.000951 1.471005
C 0.973491 7.496959 1.495663
C 1.984933 6.960155 0.995008
C 2.514006 7.494406 1.000756
C 2.509476 6.986584 1.501720
C 1.996546 7.482713 1.522310
C 2.995492 7.011301 0.983912
C 3.483798 7.492037 0.986405
C 3.507472 6.977246 1.485134
C 2.989667 7.469020 1.489173
C 4.031549 7.003905 1.014423
C 4.522481 7.495982 1.017343
C 4.536753 7.001858 1.479149
C 4.016630 7.489367 1.496627
C 5.019991 7.019334 1.003720
C 5.510012 7.490750 1.011038
C 5.474860 6.990552 1.513822
C 4.997302 7.496817 1.510183
C 6.001056 7.017749 1.017423
C 6.512277 7.492817 1.004622
C 6.509319 7.012685 1.480534
C 6.018083 7.498345 1.492544
C 6.995323 6.964244 1.022507
C 7.457343 7.464282 1.034414
C 7.470430 6.982047 1.521369
C 6.991624 7.483672 1.548104
C 0.005763 0.018010 2.038600
C 0.526107 0.482689 1.996325
C 0.498001 0.017710 2.486521
C 0.008072 0.510196 2.481241
C 1.010499 0.015371 1.973473
C 1.488307 0.494104 1.981535
C 1.504701 0.027823 2.510523
C 0.982330 0.532345 2.478866
C 2.025920 0.008170 1.994257
C 2.476184 0.505398 1.997740
C 2.486674 0.009308 2.501846
C 1.983053 0.511629 2.530580
C 2.993819 0.005604 2.035198
C 3.481018 0.485341 1.991716
C 3.508357 0.012588 2.467336
C 2.989632 0.517958 2.513707
C 4.005096 0.037479 2.023705
C 4.488793 0.488762 1.974251
C 4.508574 0.005691 2.491012
C 3.984426 0.503413 2.513118
C 5.021050 0.004559 2.010233
C 5.518575 0.493394 2.016980
C 5.506022 0.002065 2.494609
C 5.007541 0.478717 2.498474
C 5.985226 0.017365 1.984812
C 6.473652 0.497027 1.977585
C 6.477152 0.021517 2.471447
C 5.987968 0.473940 2.507432
C 6.992527 0.011679 2.029232
C 7.459915 0.506586 2.007823
C 7.483992 0.017723 2.450435
C 6.978708 0.523237 2.532013
C 0.013058 1.017574 1.963110
C 0.466861 1.506116 1.994095
C 0.485881 0.984367 2.507523
C 0.020081 1.471191 2.491218
C 0.979998 1.015822 2.007860
C 1.472135 1.497109 1.985135
C 1.482445 0.984294 2.481120
C 0.988647 1.493606 2.522226
C 1.992057 1.038957 2.000079
C 2.513739 1.525116 2.022141
C 2.462013 0.990516 2.493963
C 2.012191 1.495727 2.509565
C 3.019879 0.982480 1.997858
C 3.494810 1.488203 2.011812
C 3.513130 0.982892 2.478565
C 2.994484 1.484264 2.470705
C 3.977199 1.007389 1.995659
C 4.466375 1.499277 1.994461
C 4.519113 1.013624 2.510779
C 4.016869 1.525216 2.514048
C 5.013531 1.026356 2.003162
C 5.471255 1.520858 2.013116
C 5.500003 0.967546 2.496115
C 5.009119 1.507006 2.499717
C 6.016630 1.014960 2.009811
C 6.512466 1.502677 1.991876
C 6.480418 0.990643 2.536839
C 6.016486 1.482190 2.500439
C 6.972881 0.994319 1.973262
C 7.492973 1.475348 1.975637
C 7.493652 0.987444 2.493825
C 7.012921 1.520259 2.526977
C 0.002431 2.008016 1.983389
C 0.507916 2.497505 1.972636
C 0.486102 1.983859 2.509507
C 0.030005 2.479234 2.512615
C 1.033552 1.995942 2.010483
C 1.505973 2.528236 2.004650
C 1.497102 1.962450 2.483751
C 0.979810 2.503172 2.496440
C 2.023711 1.985751 1.994945
C 2.508913 2.469456 2.000283
C 2.502603 1.992747 2.542541
C 1.989495 2.482625 2.489188
C 2.995253 1.983170 1.990355
C 3.503558 2.503101 1.981696
C 3.505946 1.978978 2.503274
C 2.980389 2.482346 2.502069
C 4.007082 2.012435 1.992640
C 4.480381 2.502217 2.004596
C 4.515956 1.993179 2.520913
C 3.987130 2.476040 2.491718
C 4.988940 1.974744 1.972598
C 5.490448 2.487100 1.998190
C 5.516157 1.995081 2.486544
C 5.006752 2.472825 2.482627
C 6.025993 2.011494 1.998812
C 6.483566 2.512789 2.008007
C 6.498630 2.015378 2.504037
C 6.008891 2.477648 2.500653
C 6.984711 1.976336 2.033309
C 7.499376 2.490800 2.010326
C 7.491018 1.997131 2.506298
C 7.001913 2.512786 2.535675
C 0.010953 2.969697 2.022619
C 0.516668 3.490541 2.025742
C 0.483613 3.007635 2.482522
C 0.000031 3.484181 2.488989
C 0.983663 3.002741 2.032135
C 1.486758 3.492104 2.002596
C 1.509924 2.986949 2.497092
C 0.973591 3.507677 2.522129
C 2.006061 3.000069 1.974163
C 2.509337 3.477093 1.986454
C 2.510026 2.991172 2.522443
C 1.967143 3.502439 2.511804
C 2.998821 3.033029 2.011046
C 3.518428 3.505867 2.011895
C 3.483804 3.018494 2.509668
C 3.007544 3.505458 2.506404
C 4.026450 2.995253 1.984537
C 4.499414 3.513611 1.984417
C 4.492411 3.007745 2.477217
C 4.013635 3.493655 2.464242
C 4.964292 2.992183 1.990594
C 5.506916 3.468790 2.007037
C 5.513171 2.949947 2.509100
C 4.986234 3.484565 2.504773
C 6.003079 2.988333 2.023545
C 6.502428 3.502037 2.023061
C 6.492218 3.014653 2.516631
C 5.994197 3.479359 2.470005
C 7.012201 3.025665 1.989698
C 7.499403 3.492296 1.962145
C 7.484918 3.000283 2.484995
C 7.012228 3.501393 2.508469
C 0.006454 3.994572 2.022548
C 0.500556 4.475684 2.010722
C 0.503962 3.983228 2.463729
C 0.028153 4.475873 2.506752
C 0.994636 3.987621 2.010482
C 1.501547 4.483007 2.022674
C 1.519884 3.988189 2.478069
C 1.031453 4.501370 2.514145
C 1.985957 3.992406 1.984592
C 2.514184 4.479979 1.980775
C 2.503085 4.037693 2.478611
C 2.018706 4.508200 2.499944
C 3.004096 3.995439 2.029634
C 3.491361 4.501810 2.030430
C 3.517613 4.014670 2.504859
C 2.988763 4.468502 2.513432
C 4.008175 4.018958 1.976907
C 4.493722 4.483926 1.988441
C 4.486703 3.972466 2.490560
C 3.994772 4.495898 2.505058
C 5.017571 3.977327 1.993202
C 5.509860 4.514085 2.003563
C 5.476265 4.017923 2.527272
C 4.991072 4.507486 2.482691
C 6.000747 3.986974 1.988992
C 6.488233 4.469225 1.976403
C 6.501396 3.985256 2.504500
C 6.009511 4.498317 2.530045
C 7.006120 4.004089 1.996424
C 7.471828 4.506572 2.011282
C 7.498138 3.968042 2.482556
C 6.963357 4.510656 2.510569
C 0.006510 4.992791 1.965903
C 0.489461 5.479710 2.019518
C 0.485900 5.020324 2.515866
C 0.014489 5.535102 2.515381
C 1.001916 5.002298 1.998165
C 1.491296 5.503819 1.979291
C 1.500890 5.005653 2.475176
C 1.009152 5.497002 2.485146
C 1.999173 5.016519 2.024316
C 2.516861 5.508129 1.998275
C 2.482501 4.998295 2.510256
C 1.979322 5.491192 2.505330
C 3.006135 4.998095 1.987439
C 3.489707 5.535832 2.001903
C 3.495943 5.006024 2.511425
C 3.007233 5.471355 2.507186
C 3.976448 4.995488 2.027262
C 4.496782 5.502923 2.021536
C 4.480204 5.013728 2.507655
C 3.995929 5.490498 2.482933
C 5.022964 4.993236 2.027165
C 5.522513 5.482178 1.976792
C 5.492999 5.009191 2.514098
C 4.981176 5.493850 2.508246
C 6.018760 4.966831 2.003277
C 6.491260 5.479741 2.020017
C 6.500162 4.995466 2.535157
C 6.020849 5.483635 2.508009
C 6.965146 4.975844 2.023256
C 7.477088 5.466775 2.018364
C 7.476936 4.965552 2.531438
C 7.028785 5.509889 2.496766
C 0.028526 5.988928 2.000967
C 0.472033 6.486246 2.008178
C 0.488591 6.019405 2.491294
C 0.018532 6.500653 2.514905
C 1.008327 5.999469 2.022710
C 1.484851 6.505493 1.997455
C 1.503633 6.006098 2.488283
C 0.994513 6.511112 2.458749
C 2.021052 6.022895 1.996832
C 2.513480 6.505867 2.019609
C 2.508173 5.996643 2.488627
C 2.003135 6.510474 2.471708
C 2.997878 6.021433 2.025844
C 3.491232 6.511172 2.025836
C 3.515995 6.014263 2.480167
C 2.972902 6.483735 2.509549
C 3.993526 5.978618 2.015262
C 4.500810 6.497738 2.017647
C 4.503034 5.996929 2.505000
C 3.970314 6.492406 2.514985
C 5.017421 5.981166 1.973144
C 5.483616 6.499914 2.011252
C 5.477937 5.998671 2.523688
C 4.998419 6.486300 2.489782
C 5.982909 5.986094 1.985619
C 6.499414 6.482754 2.025439
C 6.530823 5.973565 2.498976
C 5.995221 6.498597 2.534117
C 6.997221 5.989679 2.008037
C 7.473659 6.489509 2.000800
C 7.491701 6.019310 2.485487
C 6.988050 6.503615 2.482016
C 0.008799 7.016789 1.966272
C 0.498598 7.478677 1.973329
C 0.504999 7.013005 2.531934
C 0.030966 7.463879 2.489028
C 1.002441 7.000165 2.034536
C 1.526394 7.484450 2.010203
C 1.491213 6.984427 2.487398
C 1.007974 7.498510 2.522586
C 2.010287 6.990844 1.969755
C 2.493649 7.482838 2.003597
C 2.520604 7.016153 2.492672
C 2.004334 7.493583 2.499172
C 2.973496 6.990377 1.991620
C 3.486397 7.473760 2.025861
C 3.523386 7.022688 2.507692
C 3.034557 7.486455 2.516048
C 3.974152 7.013155 1.993813
C 4.483661 7.489840 1.984885
C 4.486811 6.986886 2.494369
C 3.996681 7.493918 2.476846
C 4.988620 6.986119 1.982040
C 5.492651 7.475295 2.025392
C 5.487888 7.006254 2.510148
C 4.982140 7.463680 2.482137
C 5.993968 6.983607 2.008912
C 6.463064 7.481178 1.997802
C 6.488122 6.988328 2.509438
C 5.964043 7.495892 2.504015
C 6.992328 6.992577 2.007164
C 7.487989 7.479015 1.982974
C 7.496028 7.020605 2.504650
C 6.989464 7.470802 2.524919
C 0.020781 0.001315 2.996001
C 0.486460 0.493729 2.978174
C 0.528198 0.016901 3.518276
C 0.026743 0.505013 3.492500
C 1.011132 0.033488 2.989637
C 1.490795 0.526438 2.982837
C 1.476872 0.028312 3.482528
C 0.984961 0.499878 3.478156
C 1.998732 0.011680 2.984462
C 2.506977 0.489406 2.969670
C 2.479762 0.003844 3.483605
C 2.018950 0.511378 3.507117
C 3.020167 0.018738 2.977664
C 3.490413 0.515363 2.972421
C 3.497793 0.011719 3.501410
C 3.015339 0.497524 3.515712
C 3.980177 0.001182 2.965299
C 4.482575 0.509802 3.020274
C 4.485183 0.015832 3.454799
C 3.988296 0.498038 3.458141
C 4.987794 0.000828 3.014425
C 5.486991 0.502937 3.000239
C 5.499164 0.023046 3.487504
C 4.999318 0.525444 3.485614
C 5.985969 0.000396 3.010184
C 6.510006 0.476139 2.994332
C 6.533644 0.005611 3.496875
C 5.973748 0.523592 3.509604
C 7.016791 0.024633 2.965811
C 7.493372 0.479304 2.999568
C 7.483337 0.001615 3.513382
C 7.016912 0.489118 3.502703
C 0.000418 1.025082 3.037731
C 0.484868 1.471729 2.982093
C 0.489816 1.006215 3.485381
C 0.022306 1.519630 3.495078
C 1.006802 0.995762 2.973741
C 1.519329 1.494463 2.978513
C 1.529501 0.995943 3.493032
C 1.024479 1.493289 3.512966
C 2.019842 0.983807 2.985826
C 2.505205 1.477028 2.995550
C 2.514511 0.994279 3.497423
C 2.026991 1.493514 3.476524
C 2.995267 0.968798 3.023313
C 3.510979 1.487205 2.984645
C 3.489767 0.992101 3.515915
C 3.002552 1.510540 3.502227
C 4.004382 1.007341 3.032354
C 4.499656 1.507366 2.987478
C 4.532380 1.013257 3.497991
C 3.966048 1.483237 3.488495
C 5.018085 1.041137 3.017810
C 5.509692 1.480813 2.970420
C 5.504905 1.025482 3.499148
C 5.001196 1.489011 3.526418
C 5.984071 0.983048 2.999689
C 6.531175 1.498089 3.001555
C 6.517316 0.979352 3.498450
C 6.033759 1.488893 3.514235
C 6.999790 1.007760 2.959936
C 7.499214 1.461229 2.998217
C 7.489731 0.989340 3.519466
C 6.999946 1.514160 3.503406
C 0.002098 2.025569 3.020205
C 0.524549 2.518648 3.004961
C 0.498539 2.007190 3.479154
C 0.004599 2.532894 3.512200
C 0.973347 1.995457 2.999154
C 1.525011 2.512672 3.025403
C 1.523604 2.007101 3.486684
C 0.982423 2.480567 3.494034
C 2.004345 1.980427 2.995866
C 2.511573 2.508753 3.003194
C 2.506297 2.008883 3.484036
C 2.018520 2.519531 3.487222
C 3.003453 1.979190 3.015540
C 3.497805 2.514771 2.995905
C 3.482705 1.991681 3.519048
C 3.001207 2.512987 3.530121
C 3.977343 2.018105 2.988939
C 4.458475 2.499410 3.016939
C 4.529291 2.030504 3.495043
C 3.998435 2.507704 3.535067
C 5.021042 1.992467 2.991627
C 5.515942 2.489144 3.022655
C 5.473193 1.990642 3.501210
C 5.017736 2.501088 3.473583
C 6.008274 1.997718 3.019047
C 6.457535 2.498941 3.008140
C 6.516572 2.008232 3.484544
C 5.987486 2.481659 3.532444
C 6.981650 2.021778 2.976660
C 7.489384 2.487353 2.967983
C 7.498731 2.007381 3.528314
C 7.000328 2.507330 3.499053
C 0.005072 3.014751 3.020089
C 0.507336 3.517637 3.033810
C 0.489327 3.032301 3.495087
C 0.016771 3.515819 3.518984
C 0.978528 3.017119 3.004707
C 1.543257 3.484668 2.996060
C 1.502838 3.004441 3.460066
C 0.996016 3.483184 3.510154
C 2.005689 2.992190 2.969542
C 2.487679 3.510749 2.976908
C 2.483650 3.007256 3.507651
C 1.989787 3.479996 3.489773
C 3.007639 3.019600 2.991035
C 3.513104 3.465556 3.013812
C 3.512722 2.986432 3.496045
C 2.984930 3.495584 3.521993
C 4.019926 2.995273 3.026554
C 4.507067 3.501625 2.988343
C 4.512666 3.005953 3.512179
C 3.986930 3.486759 3.507783
C 5.001399 3.003895 3.014805
C 5.505059 3.523945 3.011140
C 5.513924 2.987358 3.487310
C 5.009296 3.499431 3.470216
C 5.981768 2.977167 2.994112
C 6.479078 3.525201 2.987478
C 6.473245 2.989316 3.523930
C 6.014837 3.508485 3.490052
C 7.000488 3.025680 3.013317
C 7.497921 3.487198 3.015102
C 7.485556 2.963587 3.470702
C 6.991218 3.502197 3.492368
C 0.007139 3.986591 2.979558
C 0.509125 4.486147 2.987904
C 0.533700 3.983042 3.515593
C 0.000028 4.528714 3.515513
C 1.030404 4.007465 3.008449
C 1.522676 4.481612 2.982973
C 1.518434 4.000028 3.510851
C 0.999086 4.475485 3.510767
C 2.000407 3.996874 2.970790
C 2.501907 4.489671 2.974060
C 2.503363 3.982613 3.505389
C 1.996976 4.468091 3.485392
C 2.994236 4.013318 3.003658
C 3.479090 4.492514 2.995645
C 3.522866 4.026863 3.484092
C 3.013807 4.497434 3.489655
C 4.001743 3.995616 3.008479
C 4.476540 4.520086 2.993840
C 4.484397 3.997649 3.510828
C 4.001254 4.504068 3.485487
C 4.973895 3.996911 2.989381
C 5.476714 4.517506 2.987846
C 5.528196 3.975442 3.507086
C 5.008327 4.470780 3.501711
C 5.972269 4.028484 3.017658
C 6.495386 4.476230 2.988313
C 6.504042 3.977059 3.479592
C 6.016324 4.473960 3.493968
C 6.994639 3.992865 3.003460
C 7.495690 4.478088 2.954664
C 7.479091 4.009224 3.481997
C 6.981809 4.492399 3.531477
C 0.015321 4.988701 3.028482
C 0.504054 5.519260 2.988048
C 0.503654 4.995368 3.504642
C 0.013363 5.522067 3.519506
C 0.967887 5.007964 3.000922
C 1.513223 5.517713 3.006068
C 1.501182 5.021850 3.484610
C 0.993844 5.477110 3.478960
C 1.966580 4.999663 3.000743
C 2.515900 5.520140 3.013191
C 2.528183 5.014867 3.522349
C 1.998349 5.504649 3.490658
C 3.014713 4.984257 2.979371
C 3.488996 5.521629 3.029452
C 3.465477 4.994957 3.486100
C 3.015204 5.525383 3.522947
C 3.975903 5.010258 3.001418
C 4.494932 5.481529 3.009911
C 4.507458 5.033106 3.519528
C 3.978220 5.488814 3.479044
C 4.995757 5.025457 2.994274
C 5.523191 5.500810 2.974514
C 5.527718 5.002697 3.485144
C 5.001338 5.481661 3.514829
C 5.986127 5.014025 2.984055
C 6.476845 5.515875 2.997795
C 6.493437 5.011674 3.501959
C 6.005024 5.486808 3.501618
C 6.993553 5.011042 3.019327
C 7.490341 5.490274 2.988657
C 7.466617 4.977693 3.492564
C 6.990126 5.485720 3.501746
C 0.014262 5.998333 3.012804
C 0.500168 6.466038 3.001364
C 0.508907 5.987518 3.518453
C 0.015748 6.496586 3.512798
C 1.005659 5.968162 3.002402
C 1.532386 6.518688 3.016132
C 1.514939 5.996237 3.532678
C 1.015013 6.492175 3.518702
C 1.998483 5.992260 3.025592
C 2.486488 6.472549 2.972999
C 2.472634 6.018922 3.505003
C 2.024062 6.504754 3.532866
C 2.978389 6.014721 3.003519
C 3.478988 6.506785 2.999389
C 3.533998 5.984731 3.507473
C 3.000907 6.533758 3.498191
C 4.007817 6.012916 3.020510
C 4.507191 6.471739 2.985971
C 4.477684 6.014469 3.507636
C 4.020592 6.504740 3.507938
C 4.993928 6.005189 3.020749
C 5.515854 6.493177 3.024636
C 5.516431 6.004918 3.497294
C 5.020631 6.489929 3.477870
C 5.971585 6.005545 3.001876
C 6.526703 6.476408 3.000421
C 6.485076 5.992919 3.514637
C 6.032421 6.483258 3.475728
C 6.991979 5.972083 2.998909
C 7.477600 6.492290 2.978573
C 7.492528 6.004211 3.460164
C 6.976794 6.519898 3.500970
C 0.003439 6.978054 3.002734
C 0.458556 7.476187 2.992522
C 0.507183 7.015440 3.469117
C 0.023314 7.480445 3.491426
C 0.988312 6.978385 2.970984
C 1.493495 7.482528 3.004803
C 1.496637 6.967522 3.502762
C 0.999466 7.476666 3.482958
C 2.005306 6.979443 2.967110
C 2.534645 7.478143 2.993764
C 2.511256 6.987718 3.478237
C 2.005116 7.482335 3.515294
C 2.983027 6.970359 2.985626
C 3.524570 7.498055 3.001482
C 3.497471 6.993881 3.515308
C 3.019810 7.480123 3.489376
C 3.997252 7.012284 3.008514
C 4.494502 7.477624 3.001085
C 4.492941 6.990194 3.501621
C 4.031645 7.498320 3.527058
C 4.997687 6.998655 2.975496
C 5.478064 7.497502 2.992316
C 5.505101 6.984824 3.475868
C 4.974903 7.495090 3.474311
C 5.990546 7.020738 2.999034
C 6.489209 7.473365 3.009466
C 6.505523 7.012344 3.510986
C 6.002933 7.488543 3.490404
C 6.988129 6.986958 2.996857
C 7.489583 7.490340 2.997637
C 7.473088 6.984625 3.473646
C 6.978615 7.496027 3.504885
C 0.008141 0.008455 4.031531
C 0.520092 0.482715 4.023473
C 0.503093 0.010872 4.522688
C 0.029387 0.495468 4.499150
C 1.017714 0.013155 3.984073
C 1.530994 0.483034 3.976635
C 1.471901 0.010775 4.474843
C 0.990440 0.513687 4.493129
C 2.031939 0.019249 4.008757
C 2.513528 0.498140 3.980862
C 2.502788 0.006624 4.512887
C 2.000021 0.534376 4.468854
C 2.978325 0.009555 3.972541
C 3.518104 0.486014 3.997098
C 3.505746 0.006342 4.482746
C 2.989496 0.497544 4.465807
C 4.017268 0.009106 3.975376
C 4.520909 0.506558 4.027150
C 4.461986 0.002274 4.503526
C 4.004856 0.492722 4.510384
C 5.012538 0.014588 3.982965
C 5.526239 0.533149 4.002663
C 5.493219 0.046672 4.482836
C 5.021355 0.513054 4.520062
C 5.969773 0.007061 3.985627
C 6.509023 0.479177 3.973958
C 6.460045 0.007263 4.480461
C 5.994510 0.514338 4.514731
C 6.985953 0.022560 4.013329
C 7.498750 0.488565 3.977631
C 7.473721 0.027844 4.491542
C 6.996549 0.510608 4.505047
C 0.006691 0.976130 3.977256
C 0.488225 1.503247 3.989688
C 0.494222 1.015727 4.502904
C 0.008254 1.503848 4.498701
C 0.994933 1.017628 3.988182
C 1.533980 1.498915 4.031067
C 1.461017 1.007916 4.496030
C 1.029738 1.499698 4.488702
C 2.004231 1.038223 3.988765
C 2.524113 1.513836 3.991911
C 2.498071 0.998820 4.502912
C 2.015809 1.490816 4.503846
C 2.990774 1.000748 4.019362
C 3.506076 1.516245 3.997473
C 3.483564 0.976420 4.519794
C 3.010605 1.467343 4.509776
C 3.995017 0.966431 3.992887
C 4.512688 1.483788 4.011438
C 4.518337 1.000838 4.495804
C 4.028722 1.517232 4.490807
C 4.981914 0.997504 3.987160
C 5.474226 1.495454 4.019989
C 5.512657 0.981353 4.533017
C 4.974647 1.503618 4.506366
C 6.013048 0.992325 3.981079
C 6.514407 1.481550 4.036693
C 6.507959 0.980137 4.519740
C 5.983503 1.513697 4.482036
C 6.999506 0.986108 3.998769
C 7.496691 1.505902 4.020678
C 7.488589 0.983031 4.518181
C 7.016751 1.511377 4.510366
C 0.000408 1.970939 3.984540
C 0.494851 2.478179 4.023837
C 0.512895 1.982793 4.475140
C 0.016556 2.515288 4.483918
C 0.990936 2.012093 3.992291
C 1.486887 2.522143 3.966731
C 1.505970 1.994687 4.467304
C 1.012795 2.496872 4.498806
C 2.024772 2.013631 3.989236
C 2.461622 2.532485 3.986020
C 2.513295 1.999518 4.501076
C 2.036152 2.507997 4.514706
C 2.982700 2.035315 4.007141
C 3.506248 2.479347 3.990785
C 3.484672 2.022611 4.501921
C 3.023599 2.526966 4.523143
C 3.997005 1.975868 3.979536
C 4.533372 2.489052 3.995785
C 4.516028 2.004019 4.494978
C 4.026566 2.508857 4.482177
C 5.015304 2.019386 4.031447
C 5.510523 2.471389 4.017347
C 5.493008 1.957017 4.509995
C 5.026638 2.500910 4.504627
C 6.011024 1.988798 4.002295
C 6.509518 2.521275 3.993974
C 6.482879 1.988639 4.516232
C 5.997154 2.470083 4.502551
C 7.026831 1.993733 4.020615
C 7.482353 2.485416 4.034838
C 7.494223 2.007400 4.518093
C 6.978163 2.500212 4.501063
C 0.037643 3.011828 3.986505
C 0.508976 3.495767 4.010721
C 0.489808 3.001352 4.491756
C 0.021328 3.532668 4.490967
C 1.000938 2.986946 4.021439
C 1.476615 3.473830 4.004324
C 1.506087 2.988015 4.480310
C 0.995403 3.493997 4.480196
C 1.993666 3.018974 4.010495
C 2.487860 3.539859 4.000776
C 2.512969 2.980914 4.494545
C 1.991114 3.533889 4.495449
C 3.024647 3.022632 3.988322
C 3.509196 3.506973 4.025100
C 3.528847 3.021090 4.506684
C 2.984850 3.510093 4.465708
C 4.032037 3.005125 4.006391
C 4.505019 3.504396 4.015502
C 4.495282 3.002800 4.502230
C 3.998173 3.504113 4.517565
C 4.994305 2.988921 4.025159
C 5.493138 3.501560 3.995793
C 5.521192 2.984610 4.513200
C 5.019076 3.492435 4.512390
C 6.014206 3.018490 4.020091
C 6.480945 3.485409 3.972692
C 6.482124 2.995481 4.528896
C 5.984121 3.493105 4.487764
C 7.006248 2.990396 3.978873
C 7.468197 3.507219 3.980686
C 7.496442 2.984424 4.471522
C 7.007622 3.468036 4.518334
C 0.020092 4.040456 4.005917
C 0.507699 4.501855 3.970605
C 0.506508 4.004709 4.467502
C 0.019438 4.469075 4.514009
C 1.016220 3.970805 4.000408
C 1.473127 4.498087 3.996557
C 1.462553 4.004112 4.503654
C 1.022166 4.509992 4.516820
C 1.996356 4.014527 4.011608
C 2.495209 4.483843 3.989926
C 2.513623 3.992311 4.487219
C 1.984021 4.512349 4.527170
C 2.994839 4.006029 4.009991
C 3.497446 4.489131 3.974722
C 3.502003 3.998158 4.489519
C 2.986462 4.505213 4.502210
C 4.000188 4.023500 3.995787
C 4.493976 4.484095 3.982110
C 4.508627 4.035804 4.500039
C 3.996884 4.484384 4.490528
C 5.035496 3.993066 3.997738
C 5.498102 4.482090 4.038507
C 5.509499 3.991847 4.494451
C 4.997540 4.524738 4.505247
C 5.988789 3.984400 4.003048
C 6.489238 4.517997 4.024851
C 6.485556 4.006235 4.524837
C 6.004981 4.535973 4.501187
C 6.966329 4.000037 4.003684
C 7.481340 4.492685 4.001091
C 7.461265 4.000700 4.495775
C 6.987025 4.504887 4.507614
C 0.003319 5.036160 3.999581
C 0.490816 5.513360 3.999990
C 0.516459 5.002632 4.511628
C 0.028943 5.483016 4.513005
C 0.991229 4.969081 4.013074
C 1.490843 5.487411 3.975543
C 1.481356 5.003607 4.488968
C 1.001391 5.485845 4.484267
C 2.002721 5.000219 3.976782
C 2.469757 5.479799 4.016162
C 2.509421 5.000329 4.476220
C 1.974643 5.509310 4.528347
C 2.989074 4.973720 3.995893
C 3.495469 5.500237 4.003971
C 3.479333 4.983145 4.511049
C 2.986107 5.505244 4.466386
C 3.985054 4.976395 3.986695
C 4.502851 5.494309 4.010956
C 4.489806 4.993906 4.499626
C 4.009130 5.476969 4.481103
C 4.999933 4.967444 3.979462
C 5.477747 5.474260 4.007862
C 5.498896 4.990288 4.467732
C 4.975030 5.493674 4.501950
C 5.988630 5.001924 3.993725
C 6.472002 5.493278 3.993638
C 6.494539 5.006233 4.496758
C 5.992520 5.508907 4.520618
C 6.992604 5.006630 4.015846
C 7.495853 5.507890 4.006162
C 7.472577 4.984258 4.485367
C 6.978035 5.510348 4.499899
C 0.026962 5.990774 4.031823
C 0.474041 6.493925 4.003628
C 0.522122 6.020082 4.480721
C 0.022554 6.527586 4.520592
C 0.987679 5.984262 4.012081
C 1.483358 6.506533 4.022942
C 1.507052 6.003855 4.485928
C 0.982915 6.520739 4.509622
C 2.023745 5.977210 4.023839
C 2.519507 6.501934 3.990053
C 2.514692 5.987330 4.487609
C 2.015323 6.516704 4.519643
C 3.011833 6.002142 4.038443
C 3.511675 6.471291 3.992518
C 3.504400 6.013866 4.509316
C 2.976728 6.479258 4.477495
C 4.021824 5.981778 4.021905
C 4.525603 6.506718 3.986335
C 4.495521 6.015792 4.492659
C 3.999949 6.523862 4.489741
C 4.994107 5.981541 4.037391
C 5.475774 6.488499 3.980341
C 5.533557 5.997822 4.497331
C 4.980565 6.509327 4.489916
C 5.976019 5.979546 3.997162
C 6.470885 6.502569 4.001861
C 6.482956 5.981388 4.490006
C 6.001111 6.482820 4.483212
C 6.999093 5.966160 3.996425
C 7.491392 6.549327 4.011267
C 7.491661 5.977332 4.515301
C 6.992013 6.529619 4.478056
C 0.013854 6.989758 3.956414
C 0.493140 7.497757 3.973547
C 0.487800 7.009393 4.458056
C 0.015520 7.498833 4.509052
C 0.984477 6.980323 4.010897
C 1.517408 7.455185 4.023483
C 1.469800 6.996963 4.491801
C 1.033759 7.492317 4.504185
C 1.995955 6.992952 3.971221
C 2.486736 7.468249 3.991948
C 2.489136 7.021598 4.524234
C 2.011260 7.475296 4.487973
C 2.997285 6.982203 4.000401
C 3.518692 7.492268 3.984202
C 3.487217 7.017802 4.517802
C 2.991737 7.490261 4.498949
C 3.998881 7.016234 3.964797
C 4.525827 7.492004 4.030591
C 4.487372 7.026288 4.497273
C 3.995984 7.492859 4.520112
C 5.020401 6.988715 3.986765
C 5.497221 7.471018 4.003153
C 5.500519 7.027784 4.504806
C 5.003611 7.486999 4.509054
C 5.977380 6.982624 3.970764
C 6.506014 7.482523 3.995751
C 6.485964 6.982685 4.509295
C 6.015511 7.495535 4.472073
C 7.017997 7.004034 3.975200
C 7.497917 7.494625 4.013295
C 7.490162 6.977114 4.506224
C 7.026945 7.493926 4.511858
C 0.029880 0.028665 5.025572
C 0.503294 0.526452 5.007598
C 0.508127 0.034000 5.532294
C 0.021674 0.524936 5.517556
C 0.998350 0.003958 5.005854
C 1.513677 0.500518 4.999354
C 1.511427 0.048277 5.494013
C 1.025466 0.504518 5.515773
C 1.979110 0.018202 4.962131
C 2.503712 0.505819 4.967928
C 2.515042 0.005959 5.460940
C 2.008866 0.479026 5.484533
C 3.033199 0.034342 4.990251
C 3.513616 0.488625 4.959276
C 3.477077 0.006796 5.485869
C 2.976144 0.494116 5.490577
C 3.988695 0.031841 4.996572
C 4.484275 0.503892 4.991761
C 4.512197 0.025945 5.491208
C 4.006144 0.511020 5.474096
C 5.002378 0.000315 5.043880
C 5.492547 0.481234 4.988591
C 5.480426 0.033084 5.521565
C 5.020389 0.522211 5.505301
C 5.983731 0.025328 4.988663
C 6.507960 0.474765 4.977817
C 6.518390 0.016805 5.525845
C 5.981933 0.488536 5.479745
C 7.026822 0.002109 5.018974
C 7.497476 0.495864 4.994076
C 7.479997 0.027360 5.522000
C 7.002526 0.488848 5.475913
C 0.003051 0.974515 5.001775
C 0.482292 1.496698 5.010300
C 0.477966 1.011994 5.486356
C 0.041882 1.512836 5.502605
C 1.008976 0.985798 4.985664
C 1.507890 1.495356 5.017806
C 1.477833 0.994243 5.487793
C 0.972183 1.486102 5.474629
C 2.010315 0.970905 5.007570
C 2.501738 1.494085 4.974807
C 2.521478 1.001089 5.486487
C 2.004934 1.508632 5.527527
C 2.991086 0.973255 4.971535
C 3.481031 1.477968 4.998341
C 3.518584 1.020724 5.500667
C 2.997913 1.493151 5.515542
C 3.960046 0.989167 5.000115
C 4.488919 1.500591 4.984911
C 4.479777 0.975313 5.505843
C 4.011434 1.480277 5.495710
C 5.003126 1.005424 5.006245
C 5.505380 1.526996 5.001926
C 5.492160 1.004958 5.474085
C 5.021103 1.498847 5.481827
C 5.982549 1.006542 5.011147
C 6.515087 1.519185 4.987297
C 6.506982 1.012549 5.474305
C 5.969065 1.488674 5.482438
C 6.989470 1.023110 5.001603
C 7.494414 1.505237 4.987725
C 7.486696 0.992524 5.502203
C 6.996364 1.528078 5.478220
C 0.008908 1.992958 4.972963
C 0.475272 2.499363 4.984348
C 0.484104 1.994419 5.473608
C 0.002738 2.515038 5.509145
C 1.013546 1.977341 5.001220
C 1.520111 2.496104 4.998146
C 1.470149 1.977360 5.496208
C 0.999302 2.504243 5.494591
C 1.996005 1.997843 5.024241
C 2.466123 2.518600 5.011960
C 2.475955 1.978320 5.494974
C 1.995237 2.510051 5.502896
C 2.969714 2.008317 5.018237
C 3.509298 2.470256 4.996616
C 3.486189 1.971795 5.492376
C 3.018430 2.484723 5.465620
C 4.011880 1.989906 4.981885
C 4.477742 2.492938 5.021946
C 4.503758 1.994641 5.461158
C 3.985527 2.473293 5.496118
C 5.011570 1.977702 4.976926
C 5.516512 2.471238 4.979122
C 5.521976 1.978296 5.501238
C 5.006329 2.522524 5.488251
C 5.993121 2.008398 5.014792
C 6.514318 2.516409 5.008952
C 6.497142 1.977255 5.473536
C 6.017040 2.508754 5.491853
C 6.999553 2.004242 4.969561
C 7.481716 2.466599 5.008403
C 7.490109 1.963070 5.489991
C 6.995682 2.473041 5.503872
C 0.005915 3.018298 4.983330
C 0.486867 3.507984 5.004831
C 0.496855 2.990117 5.524681
C 0.003537 3.496689 5.476108
C 0.995373 2.981648 5.013318
C 1.509570 3.484950 5.010391
C 1.505271 2.990047 5.472371
C 0.981041 3.490192 5.499205
C 1.993984 3.011444 5.034566
C 2.496615 3.522174 4.992229
C 2.483924 3.004691 5.493301
C 1.962375 3.503478 5.515644
C 3.010835 3.016971 5.019344
C 3.503082 3.474733 5.002459
C 3.465158 2.986267 5.500867
C 3.007111 3.504279 5.488003
C 4.001918 3.026145 5.001955
C 4.492488 3.520653 5.000777
C 4.512982 2.998920 5.514799
C 4.010774 3.509063 5.504647
C 5.018272 3.022956 5.000702
C 5.508896 3.459766 4.993743
C 5.505611 2.975618 5.481362
C 5.012315 3.492852 5.492116
C 5.997756 2.998676 5.011004
C 6.476634 3.496127 4.999221
C 6.498180 2.985462 5.503677
C 5.988214 3.510675 5.466534
C 6.977853 2.986257 4.973482
C 7.456734 3.515352 4.987721
C 7.496417 2.989862 5.496799
C 7.006727 3.520813 5.517469
C 0.013389 3.991469 4.993397
C 0.501934 4.525221 5.002280
C 0.506489 3.975766 5.488119
C 0.034571 4.521377 5.489029
C 0.974118 3.995476 4.968643
C 1.525389 4.484963 5.008130
C 1.521346 3.995938 5.513329
C 0.969554 4.487777 5.520004
C 1.994399 3.990810 5.020017
C 2.501061 4.494146 4.994566
C 2.483116 3.972615 5.490442
C 2.002115 4.474718 5.495303
C 3.019156 4.015133 5.003547
C 3.527898 4.515511 4.988303
C 3.493629 3.979795 5.507118
C 2.991403 4.514966 5.531906
C 3.982008 4.002595 4.975189
C 4.508298 4.506056 4.995227
C 4.488716 3.987886 5.518090
C 4.005006 4.483892 5.470283
C 4.979359 4.011183 5.004409
C 5.492780 4.515928 4.989178
C 5.528154 3.987985 5.517414
C 5.002285 4.498444 5.519570
C 5.979339 4.005854 4.980772
C 6.512332 4.503038 4.994961
C 6.509687 3.982879 5.469447
C 5.998940 4.495093 5.489857
C 7.025549 4.015889 5.010093
C 7.463363 4.503809 4.989019
C 7.473259 4.022358 5.511831
C 7.029337 4.521145 5.479987
C 0.009725 4.985827 5.001115
C 0.521648 5.500882 4.970536
C 0.513101 4.997039 5.539698
C 0.001386 5.522198 5.503824
C 0.979533 5.021119 4.999206
C 1.461348 5.499383 5.008887
C 1.482274 5.019992 5.508979
C 0.984073 5.477010 5.516173
C 1.993964 5.015194 5.021957
C 2.492857 5.460665 5.004009
C 2.496623 5.015033 5.503013
C 1.974177 5.517285 5.501716
C 3.001817 4.993264 5.001581
C 3.477986 5.519615 4.972719
C 3.492399 4.981295 5.521914
C 2.979571 5.495537 5.483433
C 4.001370 5.007822 4.981780
C 4.520662 5.516727 4.991223
C 4.524797 4.989943 5.479613
C 3.993734 5.527970 5.504941
C 4.983010 5.013494 4.979091
C 5.499508 5.508351 5.015340
C 5.506871 4.999158 5.495824
C 5.014942 5.467127 5.486787
C 6.027482 5.007518 5.006529
C 6.501828 5.481791 4.977377
C 6.490002 5.027103 5.512332
C 6.002326 5.507589 5.488658
C 7.014952 5.024376 4.978184
C 7.466363 5.475387 5.027758
C 7.491987 5.011644 5.515432
C 6.983670 5.469601 5.512561
C 0.016402 6.015344 4.978974
C 0.497033 6.482364 5.025062
C 0.481041 5.995220 5.522826
C 0.018582 6.479584 5.502233
C 0.995560 6.034261 5.018708
C 1.481553 6.476089 4.994631
C 1.486361 5.991523 5.493396
C 0.994098 6.522126 5.486809
C 2.015343 6.015601 4.965706
C 2.501718 6.476271 5.029620
C 2.510544 5.988177 5.497965
C 2.012355 6.500566 5.527534
C 2.979073 5.990489 4.980495
C 3.482821 6.506445 4.964199
C 3.506116 5.996286 5.492624
C 2.999092 6.492170 5.476746
C 4.004227 6.018625 4.984260
C 4.482534 6.501952 5.021740
C 4.508163 5.987249 5.473389
C 4.028125 6.505629 5.513705
C 4.997659 5.987054 5.014485
C 5.477627 6.519991 4.989951
C 5.514347 6.004098 5.502347
C 4.976968 6.502250 5.480171
C 5.954661 6.001321 4.992309
C 6.467151 6.492677 4.980826
C 6.517938 6.018237 5.528697
C 5.991922 6.515805 5.458762
C 7.013554 6.002159 4.998982
C 7.484171 6.480166 5.029919
C 7.491344 5.996116 5.504031
C 6.981682 6.501996 5.467305
C 0.000402 6.985955 5.020174
C 0.520581 7.475847 4.989070
C 0.502018 6.970333 5.505063
C 0.023265 7.497073 5.457253
C 1.025283 6.975446 4.981836
C 1.499366 7.478384 4.994185
C 1.488130 6.992134 5.481994
C 0.999496 7.483280 5.513046
C 2.003353 7.011104 5.011058
C 2.528173 7.482596 4.990576
C 2.473650 7.006065 5.506151
C 1.993488 7.496153 5.482612
C 2.982334 6.974100 4.996013
C 3.464026 7.496395 4.985559
C 3.488746 6.990133 5.492437
C 3.014948 7.480682 5.519920
C 4.008138 6.993525 4.975798
C 4.494950 7.477353 4.992584
C 4.500451 6.992496 5.502611
C 4.009385 7.496982 5.506073
C 4.983070 6.997363 5.015988
C 5.463276 7.486635 5.002097
C 5.492556 7.005002 5.493527
C 4.990877 7.480409 5.490148
C 6.019327 7.026147 5.011669
C 6.487248 7.493952 4.967113
C 6.500641 7.008187 5.516458
C 5.978295 7.464357 5.511986
C 7.011878 7.000167 4.975731
C 7.493896 7.490468 5.003925
C 7.493210 6.982103 5.479381
C 6.989646 7.495846 5.480947
C 0.022462 0.009739 5.965951
C 0.477926 0.513423 6.007743
C 0.482329 0.006825 6.495518
C 0.001743 0.503734 6.514723
C 1.002541 0.004059 6.000503
C 1.480322 0.499984 6.025710
C 1.531552 0.002871 6.525657
C 1.007319 0.537760 6.514349
C 2.018960 0.025095 5.978064
C 2.526042 0.483396 5.983542
C 2.500708 0.020445 6.503337
C 1.986222 0.506823 6.500561
C 2.990643 0.022387 6.037856
C 3.486054 0.475755 5.983638
C 3.475042 0.009156 6.507311
C 2.978066 0.521554 6.468131
C 3.965312 0.013104 6.012394
C 4.514656 0.509124 5.982162
C 4.495877 0.058748 6.486731
C 4.011899 0.510112 6.517439
C 4.982888 0.013773 5.996303
C 5.497574 0.499100 6.029395
C 5.509762 0.000908 6.472204
C 4.999922 0.493322 6.470901
C 5.978866 0.012398 5.983216
C 6.515828 0.497549 6.005307
C 6.506721 0.011882 6.503866
C 5.988363 0.486102 6.491811
C 7.016176 0.018832 6.010292
C 7.499741 0.502731 6.016389
C 7.494502 0.013083 6.490531
C 6.984053 0.489798 6.495516
C 0.016740 1.042330 5.980858
C 0.481916 1.479245 6.025117
C 0.473604 0.990797 6.497296
C 0.008953 1.478428 6.525135
C 1.002139 0.980167 6.017509
C 1.479798 1.495980 6.014105
C 1.520518 1.010980 6.491076
C 1.023660 1.480533 6.512652
C 2.002728 1.015009 5.976423
C 2.525417 1.503160 6.013169
C 2.485791 0.999780 6.468723
C 1.993095 1.492303 6.501520
C 3.005188 1.016461 5.998379
C 3.484569 1.503458 6.013741
C 3.479949 0.974025 6.488462
C 3.001489 1.517004 6.490133
C 3.996503 0.991148 5.996602
C 4.487784 1.481309 5.993701
C 4.516861 0.985511 6.511238
C 4.024568 1.511725 6.513997
C 5.004342 0.998726 6.022221
C 5.486777 1.487762 5.986625
C 5.490929 1.003460 6.490351
C 5.007470 1.501139 6.464742
C 5.996774 1.010361 5.968075
C 6.478430 1.520387 6.024391
C 6.519340 0.969000 6.526729
C 5.980656 1.531161 6.479902
C 6.993726 0.982000 6.026116
C 7.477979 1.504911 5.998820
C 7.497767 1.017763 6.519507
C 6.970600 1.470236 6.479030
C 0.015873 2.017718 5.974359
C 0.515118 2.506226 6.021471
C 0.507460 1.958120 6.506781
C 0.014969 2.467829 6.495678
C 0.977466 1.983479 6.031872
C 1.511235 2.487718 5.978129
C 1.491794 1.992346 6.499564
C 0.986959 2.521750 6.524628
C 2.013260 2.018853 5.994330
C 2.507015 2.514296 5.978815
C 2.490270 2.023087 6.476884
C 1.971494 2.527624 6.493493
C 2.982476 2.025545 5.992894
C 3.484779 2.506368 5.970171
C 3.487358 2.029958 6.519198
C 2.990721 2.525286 6.503124
C 4.007326 1.986100 5.975887
C 4.511165 2.480008 5.997767
C 4.487551 2.008075 6.487056
C 3.995077 2.529958 6.499871
C 5.008149 1.992707 6.022085
C 5.477042 2.484963 5.983489
C 5.475129 1.991408 6.525396
C 4.992765 2.515638 6.534185
C 5.999767 2.007642 5.965653
C 6.508242 2.493117 5.972265
C 6.521144 1.972388 6.496057
C 6.007696 2.492766 6.528208
C 7.018022 2.020124 5.995413
C 7.463727 2.520309 5.989959
C 7.496652 2.011631 6.479976
C 6.969503 2.473123 6.508125
C 0.005924 3.016958 5.962174
C 0.484552 3.508125 5.992898
C 0.499850 2.987264 6.494464
C 0.002207 3.505283 6.488961
C 1.012094 3.011490 5.979648
C 1.493174 3.502675 6.041947
C 1.485168 2.983996 6.521652
C 0.979205 3.490934 6.488014
C 1.992006 3.010176 6.024597
C 2.501555 3.471291 6.029146
C 2.480293 2.983937 6.474483
C 1.998194 3.525050 6.525344
C 2.971973 2.989883 6.015274
C 3.527553 3.492160 5.985352
C 3.483600 2.971276 6.506554
C 2.974012 3.498089 6.512394
C 3.984875 3.002555 5.979627
C 4.511783 3.516795 6.007696
C 4.499649 2.993024 6.526179
C 4.010866 3.465572 6.502265
C 5.006603 2.976124 5.979493
C 5.504243 3.472260 5.976190
C 5.513025 3.016713 6.476854
C 4.988230 3.507017 6.499682
C 6.022067 2.968976 6.005476
C 6.502492 3.472427 5.995293
C 6.526805 2.987223 6.496936
C 6.011682 3.482313 6.509202
C 7.002879 3.007917 5.977483
C 7.476665 3.474296 6.012195
C 7.474856 2.998566 6.513555
C 6.973752 3.495022 6.502190
C 0.021366 3.995145 5.957056
C 0.491283 4.472106 6.018128
C 0.522617 3.987675 6.504657
C 0.016959 4.471606 6.499785
C 0.985406 4.009163 6.001077
C 1.487902 4.523345 5.987187
C 1.508656 3.985871 6.522602
C 0.996701 4.522730 6.505757
C 2.009013 3.976893 6.016638
C 2.504000 4.498863 6.017596
C 2.489549 3.979403 6.496709
C 2.017039 4.480833 6.522118
C 2.979529 4.011702 6.000532
C 3.497782 4.475054 6.010597
C 3.533764 3.994904 6.485629
C 2.995583 4.494952 6.488225
C 3.982413 4.003590 5.983787
C 4.480751 4.512819 5.992739
C 4.502432 3.981337 6.498053
C 3.986749 4.495328 6.481666
C 4.998368 4.001358 6.030683
C 5.504965 4.502726 6.025167
C 5.500939 4.015897 6.516885
C 4.970649 4.521005 6.513695
C 6.007435 4.023660 6.000637
C 6.499754 4.514946 6.026332
C 6.497955 4.015249 6.482977
C 5.986523 4.482907 6.505277
C 6.985281 4.021032 6.015661
C 7.489023 4.480930 6.001227
C 7.474380 3.972272 6.481037
C 7.018799 4.475378 6.502594
C 0.001909 5.010120 6.029986
C 0.476596 5.471733 5.991539
C 0.477743 5.003594 6.513739
C 0.014114 5.517396 6.531170
C 0.995932 4.973671 6.013334
C 1.474077 5.503143 6.007921
C 1.471232 5.003984 6.506001
C 0.984109 5.523884 6.496064
C 2.008104 5.007970 5.999260
C 2.507565 5.514833 5.990118
C 2.468470 5.013772 6.494675
C 1.998233 5.518217 6.506548
C 2.992311 5.012620 5.986337
C 3.489728 5.475127 5.985999
C 3.520217 4.976724 6.514188
C 3.004804 5.503716 6.483803
C 3.999171 4.995452 5.980186
C 4.518055 5.482409 5.973946
C 4.475369 5.010791 6.515908
C 4.024892 5.518202 6.489526
C 4.995630 4.994368 5.980851
C 5.493400 5.493386 6.029136
C 5.516126 4.998659 6.476994
C 5.004739 5.508469 6.466383
C 6.013801 4.997252 6.007170
C 6.519310 5.522329 5.998747
C 6.521893 5.019278 6.511831
C 5.969420 5.495859 6.512350
C 6.998171 4.982546 5.981608
C 7.496590 5.490163 6.026541
C 7.475859 4.986986 6.517093
C 7.015760 5.477053 6.505711
C 0.028725 5.970187 6.025290
C 0.485639 6.513846 6.001349
C 0.500653 6.012682 6.542254
C 0.006742 6.528991 6.509804
C 1.041890 6.001441 5.993535
C 1.520933 6.506738 6.018036
C 1.509858 5.980018 6.514841
C 0.983381 6.498956 6.516409
C 2.003927 5.994450 6.025699
C 2.503926 6.501883 5.967043
C 2.507071 5.995771 6.512575
C 2.010460 6.489738 6.494280
C 2.998178 6.006270 5.981728
C 3.509464 6.507846 5.967876
C 3.485109 5.991083 6.513383
C 2.997041 6.484900 6.514457
C 4.001870 6.008775 6.012262
C 4.495387 6.496468 6.013864
C 4.522125 6.024839 6.486833
C 3.981382 6.467638 6.510606
C 5.018983 6.015454 6.012635
C 5.472479 6.508967 6.004876
C 5.508160 5.991609 6.480027
C 5.016509 6.496158 6.508055
C 6.016591 6.001549 5.979540
C 6.517359 6.534989 5.998082
C 6.528653 6.001363 6.510828
C 5.981512 6.516025 6.497249
C 6.986221 6.015300 6.016441
C 7.462996 6.509995 5.985658
C 7.497559 6.040418 6.497161
C 6.980061 6.504633 6.499878
C 0.018076 7.013451 6.025647
C 0.513321 7.489426 5.979194
C 0.520535 7.006139 6.505046
C 0.003177 7.498413 6.514975
C 0.978505 7.004504 6.012973
C 1.501775 7.490038 6.000380
C 1.499093 7.033856 6.503801
C 1.002749 7.493248 6.498122
C 2.029774 6.988619 6.002484
C 2.504755 7.494258 5.992471
C 2.513044 6.971081 6.505538
C 1.988153 7.467587 6.491757
C 2.992739 6.988798 5.973203
C 3.518491 7.495520 5.983505
C 3.513030 7.006803 6.499106
C 2.970107 7.481847 6.495158
C 3.989360 6.979076 6.001744
C 4.459849 7.469134 5.996780
C 4.482346 6.992820 6.495213
C 4.003760 7.471847 6.516453
C 4.977638 7.022227 6.013736
C 5.479013 7.460868 6.000596
C 5.485209 6.980406 6.487477
C 4.983130 7.485654 6.511410
C 6.023315 7.009285 6.006080
C 6.486431 7.499427 6.022719
C 6.501456 6.990272 6.486151
C 5.983348 7.497692 6.510041
C 6.997968 7.033733 6.007580
C 7.492513 7.490005 6.044163
C 7.466245 6.976361 6.495836
C 6.978081 7.479562 6.496814
C 0.050031 0.036201 6.986101
C 0.512410 0.525023 6.978428
C 0.499607 0.041568 7.497304
C 0.004726 0.468361 7.489787
C 0.997215 0.021889 7.003390
C 1.498777 0.491279 6.986200
C 1.529496 0.015188 7.478499
C 0.989357 0.540500 7.493530
C 2.007834 0.035558 6.995663
C 2.524380 0.504931 7.034947
C 2.467783 0.025028 7.487684
C 2.002208 0.521848 7.463753
C 2.985909 0.032272 6.986702
C 3.466346 0.505643 6.999194
C 3.483495 0.006970 7.464584
C 3.011067 0.523262 7.497356
C 4.008814 0.001874 7.009452
C 4.524426 0.546717 7.016669
C 4.464299 0.065872 7.476676
C 3.965920 0.494193 7.471049
C 4.967618 0.024158 6.980872
C 5.487944 0.529175 7.012140
C 5.517644 0.019933 7.483789
C 4.993352 0.496647 7.478834
C 6.010786 0.005526 7.007024
C 6.488943 0.494879 7.029751
C 6.509574 0.001206 7.458693
C 5.998465 0.516837 7.481337
C 7.000204 0.007466 6.982225
C 7.468890 0.506761 6.982705
C 7.488034 0.013364 7.446045
C 7.026313 0.515578 7.487982
C 0.011141 0.983155 7.024914
C 0.500096 1.529544 7.020384
C 0.503260 1.024267 7.474549
C 0.013110 1.513343 7.445680
C 0.998745 0.958164 7.007011
C 1.510136 1.467106 6.995961
C 1.488519 1.006262 7.481383
C 0.999627 1.483624 7.485872
C 2.012052 1.037954 6.995689
C 2.526032 1.525356 6.982724
C 2.501430 1.000659 7.453885
C 1.977444 1.496128 7.479470
C 3.008592 0.988104 6.970006
C 3.518792 1.505531 6.983171
C 3.483261 1.004020 7.479460
C 2.992976 1.487346 7.498056
C 4.000725 1.010495 6.967611
C 4.501040 1.482590 7.001070
C 4.466617 1.023587 7.481502
C 4.020458 1.517189 7.489795
C 5.006447 1.019795 6.977984
C 5.521650 1.519599 6.968558
C 5.526451 1.003216 7.479031
C 5.017720 1.507059 7.483223
C 6.020505 1.021904 7.011241
C 6.494491 1.502175 7.022232
C 6.482963 0.993247 7.497169
C 6.011671 1.490440 7.498479
C 6.992780 1.019206 6.973172
C 7.490720 1.500142 7.019091
C 7.457828 1.005878 7.491892
C 6.982669 1.524510 7.470786
C 0.014541 1.971590 6.938113
C 0.504199 2.473057 6.979139
C 0.509488 2.015692 7.493026
C 0.030123 2.523478 7.443009
C 0.998394 1.997204 7.031800
C 1.510959 2.531069 7.013201
C 1.487539 1.979690 7.474797
C 0.979014 2.515765 7.497323
C 1.987315 1.995805 7.018864
C 2.506630 2.477589 7.014592
C 2.530308 2.008253 7.499072
C 2.033810 2.480553 7.498115
C 2.998083 2.006504 7.011987
C 3.488741 2.504892 7.016305
C 3.539917 2.002338 7.490744
C 2.989140 2.507307 7.485770
C 3.973640 2.012163 6.997176
C 4.505460 2.487472 6.979789
C 4.483403 2.031613 7.485502
C 3.968720 2.521399 7.494111
C 4.986456 1.999940 7.015475
C 5.507061 2.496085 6.969717
C 5.512889 2.001967 7.480369
C 4.970600 2.503876 7.479903
C 6.010269 1.986881 6.986606
C 6.520297 2.489381 7.016060
C 6.499560 2.011084 7.487903
C 5.967064 2.500872 7.485353
C 6.958806 1.997286 6.996260
C 7.465661 2.508244 6.940274
C 7.472694 2.025150 7.463955
C 6.997995 2.525657 7.483090
C 0.001853 3.014827 6.963409
C 0.500573 3.525127 6.998159
C 0.517308 3.007131 7.492040
C 0.008796 3.475410 7.484132
C 1.006717 2.983986 7.008204
C 1.534581 3.499042 7.006656
C 1.532829 3.022923 7.494673
C 0.972219 3.508297 7.479910
C 1.983452 3.021057 6.972834
C 2.503503 3.510448 7.003378
C 2.501659 3.013293 7.493769
C 2.013841 3.533699 7.474909
C 2.989622 3.010521 6.989054
C 3.502847 3.498534 7.006715
C 3.509949 3.031297 7.491947
C 2.985208 3.503322 7.493100
C 4.011621 3.029771 6.993197
C 4.485636 3.537149 6.992870
C 4.507080 3.010881 7.465184
C 3.991020 3.511977 7.478317
C 4.992568 3.008567 6.995414
C 5.529076 3.488933 7.009420
C 5.524434 2.996588 7.486749
C 5.007086 3.511691 7.486279
C 6.025037 2.974363 7.000633
C 6.467025 3.514606 6.990325
C 6.487235 2.960127 7.494781
C 6.004131 3.551135 7.495305
C 6.991657 2.984773 6.985228
C 7.456978 3.530104 6.971322
C 7.481879 2.998421 7.479759
C 7.012676 3.485589 7.488305
C 0.035912 4.011105 6.986302
C 0.489016 4.521061 7.014551
C 0.476100 4.031520 7.476863
C 0.016415 4.527421 7.496608
C 0.996503 4.009677 7.026809
C 1.476262 4.480549 7.003625
C 1.480816 4.001017 7.498021
C 0.984599 4.503126 7.458553
C 1.968162 3.992439 7.020685
C 2.467686 4.518665 7.010166
C 2.488951 4.021638 7.469154
C 1.972551 4.538449 7.493310
C 3.007851 3.999784 6.974866
C 3.488992 4.488636 7.012562
C 3.475011 3.985668 7.472748
C 3.001489 4.476804 7.496186
C 3.976337 4.006527 6.976365
C 4.518934 4.501064 7.016406
C 4.512944 4.011099 7.483835
C 4.037907 4.502930 7.493114
C 4.994779 4.015618 7.006632
C 5.529723 4.483874 6.998056
C 5.500681 3.969051 7.477077
C 5.032902 4.469348 7.488257
C 6.024177 4.018235 6.996299
C 6.523335 4.495933 6.986963
C 6.516292 3.987347 7.464291
C 5.986848 4.524135 7.473400
C 7.007093 4.010901 7.001351
C 7.476846 4.521229 7.011171
C 7.460165 4.013522 7.496883
C 6.964517 4.516104 7.497746
C 0.028875 5.018731 7.004873
C 0.492462 5.519785 7.017074
C 0.544725 4.995878 7.479259
C 0.004507 5.504099 7.472876
C 0.982733 5.012864 6.989634
C 1.473650 5.484291 6.985877
C 1.488372 5.016680 7.495573
C 1.015902 5.497524 7.481548
C 2.023226 5.017278 7.003397
C 2.505093 5.494897 6.986269
C 2.463763 4.995937 7.495235
C 1.986531 5.476641 7.488781
C 3.004161 4.999451 6.988730
C 3.456566 5.513920 6.996472
C 3.491191 5.014866 7.465693
C 3.022006 5.494528 7.497434
C 3.992703 5.031609 6.987306
C 4.482024 5.523307 7.014783
C 4.499796 5.037074 7.491339
C 4.004816 5.493840 7.494163
C 4.978690 5.003787 7.027021
C 5.479542 5.519614 7.001596
C 5.484847 5.024559 7.486775
C 4.968240 5.528773 7.481170
C 6.020126 4.987891 6.999784
C 6.481856 5.494380 7.003369
C 6.480255 4.928356 7.485404
C 5.990203 5.502130 7.479299
C 6.983947 5.006162 7.006402
C 7.489292 5.535010 6.971383
C 7.486789 5.025861 7.493169
C 6.997000 5.503247 7.441230
C 0.006298 6.009072 6.983565
C 0.492515 6.507255 6.964040
C 0.524505 6.015262 7.485971
C 0.018451 6.478401 7.480220
C 0.995159 6.005621 6.978964
C 1.471975 6.493766 6.992485
C 1.505902 5.983686 7.478610
C 0.957753 6.517651 7.497002
C 2.021152 6.015745 6.980151
C 2.498206 6.508833 7.001249
C 2.488251 6.010965 7.489009
C 2.019657 6.507463 7.492733
C 2.961824 6.017910 7.006946
C 3.480984 6.482979 7.015542
C 3.480023 6.002190 7.499368
C 2.988516 6.458815 7.497477
C 4.013885 5.983815 6.976921
C 4.505680 6.493835 7.001557
C 4.480103 6.001101 7.494178
C 3.988599 6.494718 7.473512
C 5.012701 6.008093 7.000784
C 5.515618 6.478954 7.023657
C 5.478082 6.001037 7.496290
C 5.015177 6.491466 7.475668
C 6.005550 6.013304 7.018820
C 6.492959 6.518069 6.979790
C 6.501469 5.971862 7.498866
C 6.020600 6.490941 7.494936
C 7.016639 5.992651 7.014885
C 7.492275 6.502592 6.996863
C 7.483487 6.007703 7.498675
C 7.008034 6.506933 7.484703
C 0.042854 7.015666 7.004349
C 0.530380 7.494579 6.995495
C 0.534353 7.012518 7.475116
C 0.031786 7.499614 7.482965
C 0.994063 6.971944 7.006878
C 1.469467 7.495844 6.988736
C 1.490775 6.984609 7.489732
C 1.038284 7.485459 7.479776
C 1.986356 6.983657 7.028341
C 2.539122 7.482447 7.004961
C 2.520355 6.973098 7.495928
C 2.025263 7.464290 7.471297
C 2.986483 6.980725 6.990714
C 3.519982 7.478249 6.994885
C 3.541594 7.005073 7.473971
C 2.960771 7.492369 7.492658
C 4.031195 6.992022 6.989263
C 4.472098 7.472121 7.031573
C 4.479950 6.965927 7.488462
C 3.959092 7.499959 7.491943
C 4.982480 7.027912 7.012548
C 5.471663 7.488618 6.985370
C 5.486306 6.990393 7.491109
C 5.027892 7.482686 7.497285
C 6.026387 7.005223 6.998767
C 6.544588 7.477878 6.987532
C 6.457680 7.002129 7.497878
C 5.971336 7.495172 7.484338
C 7.001639 6.980742 6.985925
C 7.480123 7.497984 7.008217
C 7.467877 6.999013 7.476148
C 6.964551 7.491832 7.472395
2048
Frame 3/10
C 0.047447 0.053149 0.056187
C 0.507790 0.475805 0.003940
C 0.483902 0.016562 0.526595
C 0.008788 0.559785 0.527663
C 0.964610 0.004713 0.008288
C 1.447002 0.547124 0.060065
C 1.494912 0.029970 0.491885
C 1.017587 0.493674 0.548338
C 1.975610 0.002122 0.001219
C 2.524976 0.488877 0.034356
C 2.556535 0.030781 0.522345
C 2.027245 0.477929 0.538430
C 3.068480 0.019710 0.069622
C 3.451068 0.513970 0.025459
C 3.565964 0.062375 0.464630
C 3.015100 0.514345 0.576852
C 4.108802 0.001093 0.005238
C 4.449762 0.551347 0.022103
C 4.529170 0.029000 0.534555
C 4.027229 0.478783 0.543028
C 5.059447 0.038681 0.000386
C 5.460568 0.563417 0.046125
C 5.543453 0.020603 0.497600
C 4.998241 0.457472 0.477609
C 5.940223 0.067078 0.010631
C 6.492091 0.549309 0.014481
C 6.493137 0.010915 0.527253
C 6.011989 0.498578 0.495884
C 7.073605 0.004657 0.015758
C 7.463344 0.554020 0.071245
C 7.416793 0.023477 0.537398
C 6.967725 0.518395 0.495221
C 0.049685 0.942608 0.048005
C 0.559357 1.536305 0.007100
C 0.478422 1.033927 0.497459
C 0.060731 1.493046 0.432591
C 1.004413 0.993327 0.006263
C 1.504307 1.522977 0.024151
C 1.548998 1.072350 0.512146
C 0.995751 1.508703 0.553160
C 1.963424 1.036069 0.007535
C 2.545292 1.525292 0.007520
C 2.525871 0.961767 0.530470
C 2.031439 1.490598 0.435436
C 2.965076 0.960301 0.002031
C 3.441585 1.533931 0.099470
C 3.506960 0.924004 0.489921
C 2.964677 1.469929 0.468288
C 3.959160 1.039645 0.075142
C 4.491022 1.478206 0.000150
C 4.562309 1.002684 0.484509
C 3.964783 1.526256 0.471937
C 5.021602 1.075227 0.018091
C 5.480514 1.532814 0.038084
C 5.553683 1.024860 0.493675
C 5.023253 1.495427 0.498321
C 5.969059 0.957036 0.039820
C 6.483526 1.518232 0.062622
C 6.464933 1.027614 0.436880
C 6.017401 1.533586 0.503683
C 6.956202 0.993458 0.032190
C 7.480492 1.533878 0.004448
C 7.435551 1.025157 0.497619
C 6.953917 1.551140 0.516745
C 0.052926 2.070906 0.009185
C 0.521847 2.538368 0.011404
C 0.476539 1.979186 0.452540
C 0.034014 2.432556 0.515582
C 0.981106 2.034761 0.024255
C 1.499125 2.487906 0.070454
C 1.540324 2.014179 0.485159
C 0.949938 2.456222 0.517524
C 2.026235 2.026718 0.058581
C 2.459295 2.490264 0.006023
C 2.534901 2.021612 0.587794
C 2.020599 2.567135 0.546292
C 2.962378 2.005989 0.060840
C 3.526327 2.561580 0.008856
C 3.427899 2.023238 0.503198
C 3.055378 2.550794 0.495230
C 4.027164 1.966358 0.025024
C 4.474931 2.473177 0.022221
C 4.444906 1.964185 0.526003
C 3.981393 2.537832 0.496206
C 5.043587 2.003115 0.031526
C 5.411901 2.505612 0.022070
C 5.531189 2.020952 0.511669
C 5.032419 2.572886 0.496497
C 5.972278 2.043603 0.027817
C 6.508675 2.495658 0.027509
C 6.527168 2.027332 0.565273
C 5.978047 2.502548 0.524686
C 6.916122 1.980729 0.011701
C 7.483494 2.483043 0.043704
C 7.445905 1.969376 0.495215
C 7.009033 2.460469 0.472477
C 0.078264 3.023393 0.031730
C 0.520935 3.596801 0.029545
C 0.509209 3.064725 0.513533
C 0.028043 3.424498 0.552606
C 0.987698 2.991796 0.031480
C 1.463740 3.553497 0.011017
C 1.471669 3.034562 0.489691
C 0.987400 3.474293 0.442364
C 1.957744 2.934712 0.021817
C 2.482000 3.571642 0.031712
C 2.538784 2.976393 0.476930
C 2.032852 3.479883 0.505004
C 2.983975 2.955547 0.004656
C 3.434209 3.517183 0.012722
C 3.446106 3.032144 0.523280
C 3.010875 3.521150 0.519658
C 3.984022 3.038289 0.011358
C 4.578368 3.506324 0.030055
C 4.536437 3.032186 0.457063
C 4.043276 3.539558 0.518889
C 5.060048 3.050358 0.061870
C 5.534395 3.531379 0.006895
C 5.562096 2.994774 0.527379
C 5.027659 3.531367 0.501497
C 5.926733 2.989814 0.000527
C 6.533750 3.454829 0.074929
C 6.426148 2.960399 0.479884
C 6.040849 3.445153 0.480674
C 7.022027 3.027147 0.005217
C 7.473871 3.543389 0.052987
C 7.464491 2.955179 0.481762
C 7.026475 3.488781 0.519996
C 0.031167 3.943721 0.070343
C 0.455500 4.484984 0.007609
C 0.544507 4.040819 0.497263
C 0.061536 4.486840 0.510696
C 1.005329 4.020870 0.038978
C 1.504094 4.426691 0.041333
C 1.455277 3.963481 0.492113
C 0.970505 4.517039 0.469219
C 1.995941 4.015139 0.072673
C 2.549884 4.512210 0.044431
C 2.480343 4.080624 0.505706
C 1.961578 4.549505 0.487712
C 2.960272 4.027438 0.015221
C 3.489540 4.487166 0.003719
C 3.481468 4.003269 0.433736
C 3.019188 4.447276 0.495988
C 3.979640 4.062938 0.010202
C 4.492233 4.498221 0.003768
C 4.555176 3.991542 0.501156
C 4.041450 4.537896 0.506232
C 4.988292 4.007900 0.025787
C 5.503652 4.480385 0.069004
C 5.512076 3.951724 0.493428
C 4.961600 4.543539 0.474496
C 6.017559 3.965934 0.057308
C 6.536199 4.509650 0.024665
C 6.463458 4.056141 0.492246
C 5.992336 4.493639 0.447050
C 6.940671 4.024397 0.038087
C 7.449199 4.546743 0.001258
C 7.456966 4.044308 0.463010
C 6.976894 4.557711 0.493268
C 0.010760 4.977196 0.092479
C 0.482889 5.544324 0.001830
C 0.541270 5.031881 0.560816
C 0.016895 5.500099 0.543293
C 0.974457 5.027387 0.033619
C 1.427361 5.546306 0.037314
C 1.519247 5.066115 0.472447
C 0.956892 5.512230 0.468492
C 2.046939 5.075180 0.021065
C 2.541718 5.517395 0.052047
C 2.525640 5.037840 0.482217
C 1.999374 5.481945 0.513649
C 2.989914 4.988601 0.060061
C 3.467273 5.451324 0.034278
C 3.477316 5.027930 0.533828
C 3.005221 5.494048 0.546272
C 3.967581 4.999847 0.069520
C 4.538957 5.537845 0.016593
C 4.515300 5.009234 0.545960
C 3.941127 5.489924 0.528194
C 5.028395 4.963372 0.024481
C 5.518792 5.512306 0.015933
C 5.504893 5.015254 0.425814
C 5.015858 5.487720 0.463281
C 6.026281 4.950649 0.001885
C 6.488848 5.435256 0.039109
C 6.486131 4.933931 0.499670
C 5.915570 5.508365 0.525186
C 6.981330 5.040232 0.009991
C 7.465577 5.541367 0.027942
C 7.456221 4.953696 0.549274
C 7.010111 5.524059 0.493886
C 0.001288 5.936458 0.045202
C 0.476528 6.494562 0.036118
C 0.526676 6.003391 0.491776
C 0.018913 6.449776 0.481392
C 0.959346 6.019857 0.020069
C 1.446190 6.442919 0.067032
C 1.578428 5.998677 0.475784
C 0.991812 6.459550 0.552547
C 1.997940 5.937211 0.013181
C 2.526453 6.482666 0.012640
C 2.523834 5.998966 0.470297
C 2.026131 6.506151 0.516466
C 3.046746 6.054263 0.031908
C 3.531192 6.425493 0.018448
C 3.454896 5.984139 0.486182
C 3.061068 6.508934 0.495727
C 4.011767 6.014021 0.078972
C 4.509671 6.541735 0.007657
C 4.527395 5.965765 0.510331
C 3.951255 6.522915 0.445304
C 4.999198 6.014373 0.004971
C 5.453101 6.533554 0.024521
C 5.424353 5.976585 0.525732
C 5.018232 6.467796 0.479036
C 6.045799 6.007989 0.018270
C 6.442208 6.542038 0.030249
C 6.529572 5.981358 0.462224
C 5.951074 6.501533 0.514308
C 7.025726 6.052943 0.015890
C 7.490276 6.569925 0.036219
C 7.455169 6.011173 0.578204
C 6.938318 6.501308 0.447926
C 0.066250 6.998869 0.000250
C 0.581840 7.485367 0.008397
C 0.463375 6.970852 0.479628
C 0.005000 7.491205 0.484887
C 0.975743 6.917056 0.016314
C 1.481939 7.379745 0.007370
C 1.538418 7.027837 0.530368
C 1.061057 7.452548 0.534132
C 2.060028 6.965391 0.062010
C 2.469716 7.448772 0.089975
C 2.448733 7.020856 0.568914
C 1.980593 7.466384 0.453775
C 3.085066 6.981257 0.020198
C 3.533747 7.466303 0.026085
C 3.463994 7.006790 0.513658
C 2.981139 7.498267 0.407775
C 4.067144 7.009405 0.039740
C 4.570470 7.496279 0.049744
C 4.469188 6.952500 0.508745
C 3.987374 7.480863 0.543199
C 4.990578 6.970141 0.065645
C 5.462949 7.484550 0.008917
C 5.541916 6.980655 0.465590
C 5.060492 7.473225 0.509962
C 5.948849 7.059093 0.025438
C 6.512573 7.482332 0.029334
C 6.544355 6.992117 0.511181
C 5.958851 7.490878 0.532836
C 7.000740 6.990490 0.008838
C 7.383173 7.453211 0.067710
C 7.423285 6.911405 0.509391
C 7.011291 7.458923 0.588182
C 0.004845 0.055959 0.964026
C 0.453219 0.506035 1.017393
C 0.481959 0.007663 1.507150
C 0.001771 0.484717 1.487858
C 1.015704 0.013379 1.004890
C 1.547912 0.504960 0.969011
C 1.524794 0.013059 1.553269
C 0.941440 0.530273 1.479549
C 2.041187 0.046845 1.033360
C 2.528448 0.449491 1.011792
C 2.528016 0.018140 1.529875
C 2.016270 0.569132 1.533545
C 3.022755 0.022267 0.985698
C 3.559702 0.547702 1.011323
C 3.556407 0.055104 1.475955
C 2.961519 0.508869 1.507304
C 3.950453 0.044707 0.988738
C 4.542405 0.444524 1.017438
C 4.414402 0.019986 1.520013
C 4.009269 0.555428 1.568339
C 5.060065 0.019023 0.945726
C 5.556251 0.477004 0.983616
C 5.456101 0.012636 1.495811
C 4.983901 0.452803 1.500224
C 5.983406 0.036554 1.076196
C 6.554551 0.483715 0.979037
C 6.519940 0.010046 1.575203
C 5.969442 0.578162 1.487770
C 6.958536 0.000929 1.072622
C 7.497973 0.454938 0.995691
C 7.417451 0.079580 1.445798
C 6.947308 0.485043 1.546982
C 0.034851 1.017877 0.975902
C 0.524112 1.501695 1.013115
C 0.470422 0.983897 1.450110
C 0.033532 1.454382 1.446381
C 0.974773 0.970208 0.966380
C 1.466475 1.487829 1.028131
C 1.481670 0.997913 1.549128
C 0.950677 1.502505 1.516212
C 1.929972 1.004461 0.984479
C 2.543925 1.518073 1.021633
C 2.504129 0.953130 1.450215
C 2.001504 1.464384 1.463602
C 2.989506 1.030205 0.985553
C 3.492575 1.485756 0.984466
C 3.541850 0.968294 1.518589
C 3.006414 1.485030 1.561783
C 4.004790 1.024767 1.017887
C 4.528522 1.519778 0.986187
C 4.495764 0.981333 1.493491
C 4.024616 1.518921 1.430596
C 4.940961 1.040637 1.015606
C 5.547364 1.516830 0.990950
C 5.549131 1.058767 1.549683
C 5.050540 1.481335 1.440197
C 6.035896 0.951655 0.997573
C 6.498756 1.544237 0.993223
C 6.491219 0.943509 1.485429
C 5.957498 1.528392 1.499808
C 7.042279 0.970594 0.997722
C 7.456471 1.519244 1.032511
C 7.474179 0.932637 1.509765
C 6.998689 1.547683 1.492273
C 0.033821 1.985896 1.071576
C 0.495776 2.435462 0.979799
C 0.524434 2.003683 1.546374
C 0.004562 2.485213 1.510381
C 1.033449 2.003061 0.986202
C 1.476226 2.507286 0.976284
C 1.489385 1.960584 1.529781
C 1.052814 2.481946 1.471019
C 2.034720 1.949697 0.978475
C 2.481852 2.503986 1.008958
C 2.460017 1.997387 1.487207
C 2.046340 2.499935 1.519461
C 3.051520 2.008696 1.014765
C 3.482890 2.482306 0.941224
C 3.563270 1.966785 1.515265
C 3.034693 2.444462 1.502544
C 3.992557 2.058689 0.967339
C 4.459824 2.506646 0.937810
C 4.448310 1.985446 1.484974
C 3.996181 2.509368 1.507230
C 4.973630 1.973951 1.042252
C 5.503707 2.543787 0.990747
C 5.468674 1.963612 1.455172
C 5.025450 2.430679 1.491564
C 5.941711 2.029065 1.004667
C 6.572090 2.518295 0.981236
C 6.526756 2.032001 1.515400
C 6.042676 2.478283 1.516368
C 6.974678 1.969106 1.009015
C 7.489805 2.564879 0.978247
C 7.481534 1.992964 1.558608
C 6.930486 2.534190 1.517160
C 0.029637 3.065956 1.031834
C 0.552167 3.458909 1.042399
C 0.522436 2.991924 1.554269
C 0.015267 3.568820 1.498820
C 1.022561 2.986143 0.974087
C 1.472023 3.492603 0.965452
C 1.475573 2.959105 1.447718
C 1.003821 3.426577 1.541205
C 1.994374 3.013897 1.042457
C 2.528660 3.544040 0.945872
C 2.498443 2.996585 1.484787
C 2.050777 3.486188 1.506282
C 2.980120 2.970127 1.069550
C 3.438474 3.457080 1.042169
C 3.508791 2.953585 1.471468
C 2.941719 3.542095 1.515450
C 3.976069 2.997017 0.973427
C 4.541044 3.516626 1.038745
C 4.479857 3.050084 1.449678
C 4.008658 3.521821 1.556039
C 5.001402 3.015782 0.996360
C 5.465862 3.531508 1.022840
C 5.494294 3.037838 1.488100
C 5.053739 3.537062 1.504975
C 5.977592 3.019925 1.021181
C 6.521220 3.431470 0.957935
C 6.410589 2.987261 1.487606
C 5.982327 3.471606 1.510835
C 6.987844 2.994955 0.914955
C 7.493575 3.446277 0.967080
C 7.446821 3.003408 1.493434
C 6.948934 3.542129 1.518746
C 0.024984 3.990405 0.945082
C 0.512041 4.544826 0.943467
C 0.556465 3.996046 1.536237
C 0.020666 4.513246 1.437229
C 1.053396 3.984773 1.036658
C 1.501814 4.489716 1.052261
C 1.520430 3.973099 1.508282
C 0.998195 4.544527 1.508010
C 2.024932 3.934388 0.974694
C 2.484222 4.552383 0.948012
C 2.475112 3.969490 1.473961
C 2.010177 4.527002 1.500439
C 2.967931 3.981902 1.032326
C 3.438624 4.453993 1.025697
C 3.523542 3.962465 1.528259
C 3.014050 4.473489 1.552292
C 3.989711 4.040190 1.031102
C 4.542433 4.489143 1.014421
C 4.439872 3.959423 1.470619
C 3.927187 4.468902 1.498657
C 5.018715 4.012998 1.033498
C 5.511453 4.426379 0.999168
C 5.466177 4.053562 1.499573
C 5.064058 4.540904 1.512778
C 5.963227 3.983533 1.072009
C 6.494324 4.456931 1.044705
C 6.460735 3.937471 1.535932
C 6.049040 4.497282 1.499050
C 6.959198 3.997013 1.012734
C 7.472122 4.443248 0.945699
C 7.452751 3.977587 1.526540
C 6.978922 4.441676 1.493641
C 0.035056 4.969025 0.964186
C 0.492398 5.555793 0.959790
C 0.499567 5.057853 1.454046
C 0.059504 5.483365 1.546274
C 0.985524 4.946768 0.994329
C 1.538751 5.554206 1.048528
C 1.476660 4.992739 1.477456
C 1.017332 5.513056 1.435056
C 2.042214 4.984626 1.043515
C 2.462066 5.544320 0.987533
C 2.517599 4.993760 1.549187
C 2.050001 5.491232 1.469057
C 3.004007 5.038532 1.033296
C 3.477927 5.503375 1.016646
C 3.479911 5.025378 1.482483
C 3.005419 5.457202 1.512478
C 3.942556 5.049999 1.002449
C 4.482046 5.496991 0.955029
C 4.536954 4.997877 1.544473
C 4.031313 5.492286 1.470614
C 5.039378 4.990234 1.043971
C 5.440956 5.466477 0.974212
C 5.519424 5.079916 1.452985
C 4.956301 5.509452 1.443179
C 5.986926 5.021751 1.055595
C 6.497132 5.544313 0.945936
C 6.495743 5.013310 1.440232
C 5.965479 5.532342 1.502182
C 7.056433 5.011814 1.020738
C 7.474541 5.498705 1.012924
C 7.449881 4.978664 1.566693
C 7.038394 5.478422 1.507814
C 0.018415 6.096479 0.979067
C 0.502482 6.479095 0.950573
C 0.480166 5.955626 1.501264
C 0.006706 6.464550 1.465858
C 0.986565 5.997388 1.042408
C 1.484844 6.466542 0.973631
C 1.474252 6.038585 1.449314
C 0.966399 6.465089 1.526634
C 1.992178 6.006501 0.956427
C 2.489910 6.548403 0.979984
C 2.488728 6.026268 1.447155
C 2.013086 6.503318 1.469515
C 2.942881 5.961114 0.985876
C 3.465547 6.462584 0.996594
C 3.547538 5.982556 1.501093
C 3.019974 6.459918 1.562501
C 4.001864 5.937975 0.994547
C 4.445513 6.513509 1.011226
C 4.542798 5.998801 1.503845
C 3.962522 6.480619 1.452015
C 4.984556 6.031578 0.992480
C 5.464945 6.491924 1.028310
C 5.490697 5.964718 1.474367
C 4.961689 6.520862 1.498468
C 5.995658 6.005198 0.950905
C 6.466314 6.465544 1.041300
C 6.484237 5.972919 1.527050
C 5.967879 6.493643 1.492969
C 6.936665 5.947074 1.029304
C 7.489922 6.545496 0.996403
C 7.476967 5.959793 1.542933
C 7.042594 6.475719 1.495020
C 0.080191 6.998401 1.017831
C 0.507008 7.440371 0.913117
C 0.526888 6.989329 1.495751
C 0.056324 7.488846 1.458008
C 0.964651 7.031714 0.998191
C 1.488376 7.495338 1.087048
C 1.513777 7.001902 1.442011
C 0.946981 7.493917 1.491326
C 1.969866 6.920311 0.990015
C 2.528012 7.488812 1.001512
C 2.518952 6.973168 1.503441
C 1.993092 7.465426 1.544620
C 2.990984 7.022602 0.967825
C 3.467595 7.484074 0.972810
C 3.514945 6.954492 1.470268
C 2.979334 7.438041 1.478346
C 4.063098 7.007809 1.028846
C 4.544962 7.491964 1.034686
C 4.573505 7.003715 1.458298
C 4.033260 7.478734 1.493253
C 5.039982 7.038668 1.007440
C 5.520023 7.481499 1.022075
C 5.449719 6.981105 1.527645
C 4.994605 7.493634 1.520366
C 6.002112 7.035499 1.034846
C 6.524554 7.485633 1.009243
C 6.518638 7.025369 1.461068
C 6.036167 7.496690 1.485088
C 6.990646 6.928488 1.045014
C 7.414687 7.428563 1.068829
C 7.440861 6.964094 1.542738
C 6.983248 7.467344 1.596207
C 0.011525 0.036021 2.077200
C 0.552214 0.465379 1.992650
C 0.496002 0.035420 2.473042
C 0.016143 0.520393 2.462481
C 1.020998 0.030742 1.946946
C 1.476614 0.488209 1.963069
C 1.509402 0.055646 2.521046
C 0.964660 0.564689 2.457731
C 2.051841 0.016340 1.988513
C 2.452368 0.510795 1.995479
C 2.473349 0.018616 2.503693
C 1.966106 0.523257 2.561161
C 2.987638 0.011209 2.070395
C 3.462035 0.470683 1.983432
C 3.516715 0.025176 2.434672
C 2.979264 0.535915 2.527413
C 4.010192 0.074958 2.047410
C 4.477585 0.477523 1.948502
C 4.517148 0.011383 2.482023
C 3.968852 0.506826 2.526237
C 5.042101 0.009118 2.020466
C 5.537150 0.486788 2.033960
C 5.512044 0.004130 2.489218
C 5.015081 0.457435 2.496948
C 5.970451 0.034730 1.969624
C 6.447305 0.494055 1.955170
C 6.454305 0.043035 2.442894
C 5.975937 0.447880 2.514865
C 6.985055 0.023357 2.058465
C 7.419830 0.513171 2.015647
C 7.467985 0.035446 2.400869
C 6.957415 0.546474 2.564027
C 0.026115 1.035147 1.926219
C 0.433723 1.512232 1.988189
C 0.471762 0.968735 2.515046
C 0.040162 1.442382 2.482436
C 0.959996 1.031645 2.015720
C 1.444270 1.494219 1.970270
C 1.464891 0.968588 2.462239
C 0.977294 1.487211 2.544452
C 1.984114 1.077915 2.000158
C 2.527479 1.550232 2.044282
C 2.424025 0.981032 2.487925
C 2.024382 1.491454 2.519130
C 3.039757 0.964960 1.995715
C 3.489619 1.476407 2.023625
C 3.526259 0.965784 2.457130
C 2.988968 1.468528 2.441409
C 3.954399 1.014779 1.991318
C 4.432751 1.498553 1.988922
C 4.538225 1.027248 2.521557
C 4.033738 1.550432 2.528095
C 5.027062 1.052712 2.006323
C 5.442509 1.541716 2.026232
C 5.500005 0.935092 2.492230
C 5.018239 1.514013 2.499434
C 6.033261 1.029920 2.019623
C 6.524932 1.505353 1.983752
C 6.460836 0.981285 2.573677
C 6.032971 1.464381 2.500878
C 6.945761 0.988637 1.946523
C 7.485945 1.450697 1.951274
C 7.487305 0.974889 2.487650
C 7.025842 1.540518 2.553953
C 0.004862 2.016031 1.966777
C 0.515832 2.495009 1.945273
C 0.472203 1.967718 2.519015
C 0.060010 2.458467 2.525230
C 1.067104 1.991884 2.020967
C 1.511946 2.556472 2.009299
C 1.494204 1.924900 2.467502
C 0.959619 2.506344 2.492881
C 2.047422 1.971503 1.989891
C 2.517826 2.438911 2.000565
C 2.505207 1.985495 2.585082
C 1.978991 2.465250 2.478376
C 2.990506 1.966339 1.980710
C 3.507116 2.506202 1.963392
C 3.511891 1.957955 2.506549
C 2.960778 2.464693 2.504137
C 4.014164 2.024869 1.985279
C 4.460761 2.504434 2.009193
C 4.531913 1.986359 2.541825
C 3.974260 2.452081 2.483435
C 4.977881 1.949489 1.945195
C 5.480897 2.474199 1.996379
C 5.532313 1.990162 2.473089
C 5.013504 2.445649 2.465254
C 6.051986 2.022989 1.997624
C 6.467131 2.525579 2.016014
C 6.497261 2.030756 2.508074
C 6.017782 2.455297 2.501305
C 6.969423 1.952673 2.066618
C 7.498751 2.481599 2.020651
C 7.482035 1.994262 2.512597
C 7.003826 2.525573 2.571349
C 0.021906 2.939395 2.045238
C 0.533336 3.481082 2.051484
C 0.467226 3.015269 2.465044
C 0.000063 3.468363 2.477979
C 0.967325 3.005482 2.064270
C 1.473515 3.484207 2.005192
C 1.519848 2.973898 2.494183
C 0.947181 3.515353 2.544258
C 2.012122 3.000139 1.948326
C 2.518674 3.454187 1.972907
C 2.520052 2.982344 2.544886
C 1.934286 3.504877 2.523607
C 2.997643 3.066059 2.022093
C 3.536855 3.511735 2.023790
C 3.467608 3.036988 2.519337
C 3.015088 3.510915 2.512809
C 4.052900 2.990505 1.969074
C 4.498829 3.527223 1.968834
C 4.484822 3.015490 2.454434
C 4.027270 3.487310 2.428484
C 4.928585 2.984365 1.981188
C 5.513832 3.437581 2.014073
C 5.526342 2.899894 2.518200
C 4.972467 3.469130 2.509547
C 6.006157 2.976665 2.047090
C 6.504855 3.504074 2.046122
C 6.484436 3.029306 2.533262
C 5.988394 3.458718 2.440010
C 7.024401 3.051330 1.979396
C 7.498805 3.484592 1.924289
C 7.469835 3.000565 2.469989
C 7.024456 3.502786 2.516939
C 0.012908 3.989145 2.045096
C 0.501112 4.451368 2.021445
C 0.507923 3.966455 2.427457
C 0.056306 4.451746 2.513505
C 0.989271 3.975243 2.020964
C 1.503093 4.466014 2.045348
C 1.539767 3.976378 2.456138
C 1.062907 4.502739 2.528290
C 1.971915 3.984812 1.969184
C 2.528369 4.459959 1.961549
C 2.506170 4.075385 2.457223
C 2.037412 4.516401 2.499889
C 3.008192 3.990878 2.059268
C 3.482722 4.503621 2.060860
C 3.535226 4.029341 2.509719
C 2.977525 4.437003 2.526865
C 4.016351 4.037916 1.953814
C 4.487443 4.467852 1.976882
C 4.473407 3.944932 2.481121
C 3.989544 4.491795 2.510115
C 5.035141 3.954654 1.986403
C 5.519721 4.528170 2.007126
C 5.452531 4.035845 2.554543
C 4.982144 4.514973 2.465382
C 6.001495 3.973948 1.977984
C 6.476466 4.438450 1.952805
C 6.502793 3.970512 2.509000
C 6.019022 4.496635 2.560090
C 7.012239 4.008179 1.992848
C 7.443655 4.513144 2.022563
C 7.496275 3.936084 2.465112
C 6.926714 4.521313 2.521139
C 0.013021 4.985581 1.931806
C 0.478922 5.459419 2.039035
C 0.471801 5.040648 2.531733
C 0.028979 5.570205 2.530763
C 1.003832 5.004596 1.996329
C 1.482592 5.507638 1.958582
C 1.501780 5.011305 2.450353
C 1.018304 5.494004 2.470292
C 1.998345 5.033038 2.048632
C 2.533723 5.516259 1.996550
C 2.465001 4.996590 2.520511
C 1.958645 5.482384 2.510661
C 3.012270 4.996190 1.974879
C 3.479414 5.571664 2.003806
C 3.491885 5.012047 2.522851
C 3.014465 5.442711 2.514372
C 3.952896 4.990977 2.054523
C 4.493565 5.505846 2.043071
C 4.460409 5.027456 2.515310
C 3.991858 5.480996 2.465865
C 5.045929 4.986471 2.054330
C 5.545026 5.464357 1.953584
C 5.485999 5.018383 2.528196
C 4.962353 5.487701 2.516492
C 6.037521 4.933663 2.006554
C 6.482521 5.459481 2.040035
C 6.500323 4.990933 2.570315
C 6.041698 5.467270 2.516018
C 6.930292 4.951688 2.046511
C 7.454176 5.433549 2.036728
C 7.453872 4.931104 2.562876
C 7.057571 5.519778 2.493532
C 0.057051 5.977857 2.001935
C 0.444065 6.472491 2.016356
C 0.477182 6.038810 2.482588
C 0.037065 6.501306 2.529810
C 1.016653 5.998939 2.045420
C 1.469703 6.510986 1.994911
C 1.507265 6.012196 2.476565
C 0.989027 6.522225 2.417497
C 2.042104 6.045790 1.993663
C 2.526961 6.511735 2.039219
C 2.516347 5.993286 2.477254
C 2.006269 6.520948 2.443417
C 2.995756 6.042866 2.051689
C 3.482464 6.522344 2.051671
C 3.531989 6.028525 2.460334
C 2.945803 6.467471 2.519099
C 3.987051 5.957236 2.030525
C 4.501620 6.495475 2.035294
C 4.506068 5.993858 2.509999
C 3.940628 6.484812 2.529969
C 5.034841 5.962332 1.946288
C 5.467232 6.499828 2.022503
C 5.455873 5.997341 2.547377
C 4.996839 6.472599 2.479565
C 5.965819 5.972187 1.971238
C 6.498828 6.465509 2.050878
C 6.561645 5.947131 2.497952
C 5.990443 6.497195 2.568233
C 6.994442 5.979357 2.016074
C 7.447318 6.479017 2.001601
C 7.483402 6.038619 2.470973
C 6.976100 6.507231 2.464033
C 0.017597 7.033579 1.932543
C 0.497195 7.457354 1.946659
C 0.509998 7.026010 2.563869
C 0.061932 7.427758 2.478057
C 1.004882 7.000330 2.069071
C 1.552788 7.468901 2.020405
C 1.482425 6.968854 2.474796
C 1.015949 7.497021 2.545171
C 2.020573 6.981689 1.939511
C 2.487298 7.465676 2.007195
C 2.541208 7.032307 2.485345
C 2.008667 7.487166 2.498344
C 2.946992 6.980755 1.983239
C 3.472795 7.447521 2.051722
C 3.546771 7.045376 2.515384
C 3.069114 7.472911 2.532097
C 3.948304 7.026310 1.987626
C 4.467322 7.479679 1.969771
C 4.473622 6.973772 2.488738
C 3.993362 7.487837 2.453691
C 4.977240 6.972237 1.964080
C 5.485301 7.450590 2.050785
C 5.475775 7.012509 2.520295
C 4.964279 7.427360 2.464274
C 5.987936 6.967215 2.017825
C 6.426128 7.462355 1.995603
C 6.476243 6.976657 2.518876
C 5.928086 7.491784 2.508030
C 6.984656 6.985154 2.014328
C 7.475977 7.458030 1.965948
C 7.492057 7.041210 2.509301
C 6.978928 7.441604 2.549838
C 0.041561 0.002630 2.992002
C 0.472920 0.487458 2.956349
C 0.556396 0.033802 3.536551
C 0.053486 0.510026 3.485001
C 1.022265 0.066975 2.979275
C 1.481590 0.552876 2.965675
C 1.453744 0.056624 3.465056
C 0.969922 0.499756 3.456312
C 1.997464 0.023361 2.968923
C 2.513953 0.478813 2.939340
C 2.459523 0.007687 3.467210
C 2.037901 0.522755 3.514233
C 3.040335 0.037476 2.955328
C 3.480825 0.530725 2.944841
C 3.495586 0.023438 3.502820
C 3.030678 0.495048 3.531424
C 3.960354 0.002364 2.930597
C 4.465151 0.519604 3.040548
C 4.470366 0.031663 3.409599
C 3.976592 0.496076 3.416283
C 4.975588 0.001655 3.028850
C 5.473982 0.505875 3.000478
C 5.498327 0.046091 3.475009
C 4.998636 0.550888 3.471228
C 5.971938 0.000791 3.020369
C 6.520012 0.452279 2.988664
C 6.567288 0.011223 3.493749
C 5.947496 0.547185 3.519209
C 7.033581 0.049267 2.931623
C 7.486743 0.458609 2.999136
C 7.466674 0.003231 3.526765
C 7.033824 0.478235 3.505406
C 0.000837 1.050164 3.075461
C 0.469736 1.443458 2.964187
C 0.479632 1.012430 3.470762
C 0.044613 1.539260 3.490157
C 1.013603 0.991524 2.947482
C 1.538659 1.488926 2.957025
C 1.559001 0.991886 3.486064
C 1.048957 1.486578 3.525932
C 2.039684 0.967613 2.971652
C 2.510409 1.454056 2.991100
C 2.529021 0.988559 3.494846
C 2.053982 1.487028 3.453047
C 2.990533 0.937596 3.046627
C 3.521958 1.474410 2.969289
C 3.479533 0.984202 3.531831
C 3.005105 1.521081 3.504455
C 4.008764 1.014682 3.064708
C 4.499312 1.514733 2.974956
C 4.564759 1.026514 3.495982
C 3.932095 1.466474 3.476991
C 5.036170 1.082274 3.035620
C 5.519384 1.461626 2.940839
C 5.509811 1.050963 3.498295
C 5.002393 1.478023 3.552835
C 5.968143 0.966095 2.999379
C 6.562351 1.496178 3.003111
C 6.534631 0.958703 3.496900
C 6.067518 1.477787 3.528470
C 6.999579 1.015521 2.919871
C 7.498429 1.422458 2.996435
C 7.479462 0.978680 3.538932
C 6.999892 1.528321 3.506811
C 0.004196 2.051138 3.040410
C 0.549099 2.537297 3.009922
C 0.497079 2.014379 3.458308
C 0.009198 2.565789 3.524399
C 0.946694 1.990915 2.998308
C 1.550022 2.525344 3.050806
C 1.547208 2.014201 3.473368
C 0.964845 2.461134 3.488069
C 2.008691 1.960854 2.991733
C 2.523146 2.517507 3.006389
C 2.512594 2.017767 3.468073
C 2.037039 2.539062 3.474444
C 3.006907 1.958381 3.031080
C 3.495609 2.529543 2.991811
C 3.465411 1.983362 3.538096
C 3.002414 2.525974 3.560242
C 3.954687 2.036210 2.977878
C 4.416950 2.498820 3.033879
C 4.558582 2.061009 3.490086
C 3.996870 2.515409 3.570134
C 5.042085 1.984933 2.983254
C 5.531885 2.478289 3.045310
C 5.446385 1.981285 3.502420
C 5.035473 2.502176 3.447166
C 6.016548 1.995435 3.038094
C 6.415071 2.497882 3.016281
C 6.533143 2.016464 3.469087
C 5.974972 2.463317 3.564888
C 6.963301 2.043557 2.953319
C 7.478767 2.474707 2.935967
C 7.497462 2.014763 3.556629
C 7.000656 2.514659 3.498106
C 0.010144 3.029502 3.040177
C 0.514671 3.535274 3.067620
C 0.478654 3.064601 3.490173
C 0.033541 3.531639 3.537968
C 0.957057 3.034238 3.009413
C 1.586514 3.469336 2.992121
C 1.505677 3.008883 3.420131
C 0.992032 3.466369 3.520309
C 2.011379 2.984379 2.939085
C 2.475358 3.521499 2.953815
C 2.467299 3.014512 3.515302
C 1.979573 3.459991 3.479546
C 3.015279 3.039200 2.982070
C 3.526208 3.431113 3.027624
C 3.525445 2.972863 3.492090
C 2.969861 3.491169 3.543985
C 4.039852 2.990546 3.053108
C 4.514133 3.503251 2.976685
C 4.525331 3.011906 3.524358
C 3.973860 3.473518 3.515566
C 5.002798 3.007790 3.029610
C 5.510118 3.547889 3.022280
C 5.527849 2.974716 3.474621
C 5.018592 3.498862 3.440431
C 5.963536 2.954334 2.988224
C 6.458155 3.550401 2.974957
C 6.446490 2.978631 3.547860
C 6.029674 3.516969 3.480103
C 7.000977 3.051360 3.026634
C 7.495841 3.474395 3.030204
C 7.471113 2.927174 3.441403
C 6.982436 3.504395 3.484737
C 0.014279 3.973182 2.959117
C 0.518249 4.472295 2.975809
C 0.567401 3.966085 3.531186
C 0.000056 4.557428 3.531026
C 1.060807 4.014930 3.016897
C 1.545352 4.463225 2.965946
C 1.536867 4.000056 3.521703
C 0.998172 4.450969 3.521533
C 2.000814 3.993747 2.941580
C 2.503814 4.479342 2.948121
C 2.506726 3.965226 3.510778
C 1.993952 4.436182 3.470784
C 2.988472 4.026637 3.007316
C 3.458180 4.485027 2.991290
C 3.545731 4.053726 3.468185
C 3.027613 4.494867 3.479310
C 4.003487 3.991232 3.016959
C 4.453081 4.540173 2.987681
C 4.468795 3.995298 3.521656
C 4.002509 4.508135 3.470974
C 4.947789 3.993822 2.978762
C 5.453428 4.535013 2.975692
C 5.556392 3.950883 3.514172
C 5.016655 4.441560 3.503423
C 5.944538 4.056968 3.035317
C 6.490772 4.452460 2.976626
C 6.508083 3.954118 3.459183
C 6.032648 4.447919 3.487937
C 6.989278 3.985729 3.006920
C 7.491381 4.456175 2.909327
C 7.458182 4.018449 3.463994
C 6.963617 4.484798 3.562953
C 0.030643 4.977403 3.056964
C 0.508108 5.538520 2.976095
C 0.507308 4.990737 3.509283
C 0.026726 5.544134 3.539011
C 0.935774 5.015928 3.001844
C 1.526447 5.535426 3.012137
C 1.502364 5.043699 3.469219
C 0.987688 5.454221 3.457920
C 1.933160 4.999326 3.001486
C 2.531800 5.540279 3.026382
C 2.556366 5.029734 3.544698
C 1.996697 5.509298 3.481316
C 3.029425 4.968515 2.958742
C 3.477991 5.543258 3.058904
C 3.430954 4.989913 3.472200
C 3.030408 5.550766 3.545894
C 3.951806 5.020515 3.002837
C 4.489863 5.463058 3.019823
C 4.514917 5.066212 3.539055
C 3.956440 5.477629 3.458089
C 4.991513 5.050915 2.988549
C 5.546381 5.501620 2.949028
C 5.555436 5.005393 3.470288
C 5.002675 5.463322 3.529658
C 5.972255 5.028049 2.968110
C 6.453690 5.531751 2.995590
C 6.486874 5.023348 3.503919
C 6.010049 5.473615 3.503235
C 6.987105 5.022083 3.038654
C 7.480682 5.480547 2.977314
C 7.433234 4.955386 3.485128
C 6.980251 5.471440 3.503492
C 0.028523 5.996665 3.025609
C 0.500336 6.432076 3.002728
C 0.517814 5.975035 3.536905
C 0.031496 6.493172 3.525595
C 1.011319 5.936324 3.004804
C 1.564772 6.537375 3.032265
C 1.529877 5.992473 3.565356
C 1.030027 6.484351 3.537403
C 1.996967 5.984519 3.051184
C 2.472976 6.445098 2.945998
C 2.445268 6.037844 3.510006
C 2.048124 6.509508 3.565733
C 2.956778 6.029442 3.007038
C 3.457976 6.513569 2.998779
C 3.567996 5.969462 3.514946
C 3.001814 6.567516 3.496382
C 4.015634 6.025833 3.041020
C 4.514382 6.443478 2.971942
C 4.455367 6.028939 3.515273
C 4.041183 6.509479 3.515877
C 4.987856 6.010378 3.041498
C 5.531709 6.486355 3.049272
C 5.532861 6.009835 3.494589
C 5.041263 6.479859 3.455740
C 5.943169 6.011090 3.003753
C 6.553406 6.452815 3.000842
C 6.470153 5.985839 3.529275
C 6.064842 6.466515 3.451456
C 6.983958 5.944166 2.997818
C 7.455199 6.484581 2.957146
C 7.485056 6.008422 3.420328
C 6.953589 6.539797 3.501941
C 0.006879 6.956108 3.005469
C 0.417113 7.452374 2.985045
C 0.514366 7.030879 3.438234
C 0.046628 7.460890 3.482852
C 0.976625 6.956770 2.941969
C 1.486990 7.465057 3.009607
C 1.493274 6.935043 3.505525
C 0.998933 7.453333 3.465915
C 2.010612 6.958886 2.934221
C 2.569290 7.456286 2.987528
C 2.522512 6.975436 3.456474
C 2.010232 7.464671 3.530587
C 2.966054 6.940717 2.971253
C 3.549140 7.496109 3.002963
C 3.494943 6.987761 3.530615
C 3.039619 7.460246 3.478751
C 3.994503 7.024567 3.017027
C 4.489004 7.455247 3.002170
C 4.485882 6.980389 3.503243
C 4.063290 7.496641 3.554116
C 4.995374 6.997310 2.950991
C 5.456128 7.495004 2.984633
C 5.510202 6.969647 3.451736
C 4.949806 7.490180 3.448623
C 5.981091 7.041475 2.998069
C 6.478419 7.446731 3.018931
C 6.511045 7.024687 3.521973
C 6.005866 7.477086 3.480808
C 6.976258 6.973915 2.993714
C 7.479165 7.480681 2.995275
C 7.446177 6.969250 3.447292
C 6.957229 7.492054 3.509769
C 0.016283 0.016910 4.063062
C 0.540185 0.465430 4.046947
C 0.506185 0.021744 4.545376
C 0.058775 0.490936 4.498300
C 1.035428 0.026310 3.968146
C 1.561989 0.466067 3.953269
C 1.443802 0.021550 4.449687
C 0.980881 0.527375 4.486257
C 2.063878 0.038498 4.017515
C 2.527056 0.496280 3.961725
C 2.505576 0.013249 4.525773
C 2.000042 0.568751 4.437708
C 2.956649 0.019110 3.945082
C 3.536208 0.472027 3.994195
C 3.511492 0.012684 4.465493
C 2.978991 0.495088 4.431615
C 4.034537 0.018212 3.950753
C 4.541817 0.513115 4.054300
C 4.423972 0.004547 4.507052
C 4.009711 0.485443 4.520768
C 5.025077 0.029177 3.965930
C 5.552478 0.566298 4.005326
C 5.486438 0.093345 4.465672
C 5.042710 0.526108 4.540123
C 5.939547 0.014121 3.971254
C 6.518045 0.458355 3.947915
C 6.420090 0.014527 4.460922
C 5.989021 0.528676 4.529462
C 6.971906 0.045120 4.026657
C 7.497499 0.477130 3.955263
C 7.447442 0.055689 4.483084
C 6.993099 0.521216 4.510093
C 0.013383 0.952261 3.954512
C 0.476450 1.506494 3.979376
C 0.488443 1.031454 4.505809
C 0.016508 1.507696 4.497402
C 0.989867 1.035255 3.976364
C 1.567960 1.497830 4.062133
C 1.422033 1.015833 4.492060
C 1.059476 1.499396 4.477404
C 2.008462 1.076446 3.977529
C 2.548226 1.527673 3.983822
C 2.496142 0.997640 4.505823
C 2.031619 1.481631 4.507691
C 2.981549 1.001495 4.038724
C 3.512153 1.532491 3.994946
C 3.467128 0.952840 4.539587
C 3.021209 1.434686 4.519553
C 3.990034 0.932862 3.985774
C 4.525377 1.467575 4.022877
C 4.536673 1.001677 4.491607
C 4.057444 1.534465 4.481614
C 4.963828 0.995009 3.974319
C 5.448452 1.490908 4.039978
C 5.525315 0.962706 4.566035
C 4.949294 1.507236 4.512733
C 6.026095 0.984650 3.962157
C 6.528814 1.463101 4.073385
C 6.515918 0.960273 4.539480
C 5.967006 1.527394 4.464072
C 6.999012 0.972217 3.997539
C 7.493381 1.511804 4.041357
C 7.477178 0.966062 4.536362
C 7.033502 1.522754 4.520731
C 0.000816 1.941879 3.969079
C 0.489703 2.456358 4.047674
C 0.525789 1.965587 4.450280
C 0.033112 2.530575 4.467837
C 0.981871 2.024185 3.984583
C 1.473775 2.544286 3.933463
C 1.511940 1.989374 4.434609
C 1.025590 2.493744 4.497612
C 2.049544 2.027262 3.978473
C 2.423245 2.564970 3.972041
C 2.526591 1.999036 4.502153
C 2.072304 2.515993 4.529413
C 2.965400 2.070630 4.014283
C 3.512495 2.458694 3.981570
C 3.469345 2.045222 4.503842
C 3.047198 2.553933 4.546285
C 3.994010 1.951735 3.959072
C 4.566744 2.478105 3.991571
C 4.532056 2.008038 4.489956
C 4.053132 2.517715 4.464354
C 5.030607 2.038772 4.062895
C 5.521045 2.442777 4.034695
C 5.486016 1.914034 4.519990
C 5.053277 2.501820 4.509253
C 6.022048 1.977595 4.004591
C 6.519036 2.542550 3.987947
C 6.465758 1.977278 4.532464
C 5.994308 2.440165 4.505103
C 7.053663 1.987465 4.041229
C 7.464707 2.470832 4.069676
C 7.488445 2.014800 4.536187
C 6.956327 2.500424 4.502126
C 0.075286 3.023656 3.973010
C 0.517951 3.491535 4.021441
C 0.479615 3.002704 4.483511
C 0.042656 3.565336 4.481935
C 1.001876 2.973892 4.042879
C 1.453231 3.447660 4.008649
C 1.512174 2.976030 4.460620
C 0.990805 3.487994 4.460392
C 1.987331 3.037948 4.020991
C 2.475719 3.579718 4.001551
C 2.525937 2.961828 4.489091
C 1.982228 3.567778 4.490897
C 3.049294 3.045264 3.976644
C 3.518392 3.513947 4.050200
C 3.557693 3.042181 4.513369
C 2.969699 3.520187 4.431416
C 4.064074 3.010250 4.012781
C 4.510038 3.508791 4.031004
C 4.490563 3.005601 4.504459
C 3.996345 3.508227 4.535129
C 4.988609 2.977842 4.050319
C 5.486276 3.503120 3.991587
C 5.542384 2.969220 4.526401
C 5.038152 3.484871 4.524780
C 6.028412 3.036981 4.040181
C 6.461889 3.470819 3.945385
C 6.464248 2.990962 4.557791
C 5.968242 3.486210 4.475527
C 7.012496 2.980792 3.957745
C 7.436393 3.514438 3.961372
C 7.492884 2.968849 4.443044
C 7.015244 3.436072 4.536668
C 0.040183 4.080912 4.011834
C 0.515397 4.503711 3.941209
C 0.513016 4.009419 4.435005
C 0.038876 4.438149 4.528018
C 1.032440 3.941611 4.000817
C 1.446253 4.496174 3.993114
C 1.425107 4.008225 4.507307
C 1.044333 4.519983 4.533640
C 1.992712 4.029054 4.023217
C 2.490417 4.467686 3.979852
C 2.527245 3.984621 4.474439
C 1.968043 4.524698 4.554341
C 2.989678 4.012058 4.019981
C 3.494892 4.478262 3.949445
C 3.504007 3.996315 4.479037
C 2.972925 4.510425 4.504420
C 4.000376 4.047001 3.991574
C 4.487952 4.468190 3.964221
C 4.517253 4.071608 4.500078
C 3.993767 4.468768 4.481056
C 5.070993 3.986132 3.995476
C 5.496204 4.464180 4.077013
C 5.518997 3.983694 4.488902
C 4.995080 4.549477 4.510494
C 5.977578 3.968801 4.006097
C 6.478476 4.535994 4.049702
C 6.471113 4.012470 4.549675
C 6.009962 4.571947 4.502373
C 6.932658 4.000074 4.007368
C 7.462680 4.485371 4.002183
C 7.422529 4.001401 4.491549
C 6.974051 4.509775 4.515228
C 0.006637 5.072319 3.999163
C 0.481632 5.526721 3.999980
C 0.532917 5.005265 4.523256
C 0.057887 5.466032 4.526009
C 0.982459 4.938161 4.026149
C 1.481686 5.474822 3.951086
C 1.462711 5.007214 4.477936
C 1.002782 5.471690 4.468534
C 2.005442 5.000439 3.953565
C 2.439513 5.459599 4.032324
C 2.518843 5.000657 4.452440
C 1.949286 5.518621 4.556695
C 2.978148 4.947439 3.991786
C 3.490938 5.500474 4.007942
C 3.458667 4.966290 4.522098
C 2.972214 5.510487 4.432772
C 3.970108 4.952790 3.973390
C 4.505702 5.488618 4.021912
C 4.479611 4.987813 4.499251
C 4.018259 5.453939 4.462207
C 4.999866 4.934889 3.958925
C 5.455494 5.448521 4.015724
C 5.497791 4.980576 4.435464
C 4.950061 5.487348 4.503900
C 5.977259 5.003847 3.987449
C 6.444004 5.486555 3.987276
C 6.489078 5.012467 4.493515
C 5.985040 5.517815 4.541237
C 6.985208 5.013260 4.031691
C 7.491706 5.515781 4.012323
C 7.445155 4.968515 4.470734
C 6.956069 5.520695 4.499798
C 0.053924 5.981547 4.063645
C 0.448083 6.487851 4.007255
C 0.544243 6.040165 4.461442
C 0.045108 6.555172 4.541184
C 0.975358 5.968524 4.024161
C 1.466717 6.513067 4.045884
C 1.514104 6.007710 4.471857
C 0.965830 6.541478 4.519245
C 2.047489 5.954420 4.047678
C 2.539014 6.503867 3.980107
C 2.529383 5.974661 4.475219
C 2.030645 6.533408 4.539285
C 3.023666 6.004283 4.076887
C 3.523349 6.442582 3.985036
C 3.508801 6.027733 4.518632
C 2.953457 6.458517 4.454991
C 4.043647 5.963555 4.043810
C 4.551205 6.513436 3.972669
C 4.491041 6.031584 4.485317
C 3.999899 6.547723 4.479481
C 4.988214 5.963081 4.074781
C 5.451547 6.476998 3.960681
C 5.567113 5.995644 4.494662
C 4.961130 6.518653 4.479832
C 5.952037 5.959091 3.994324
C 6.441770 6.505139 4.003722
C 6.465911 5.962777 4.480012
C 6.002223 6.465641 4.466425
C 6.998187 5.932321 3.992849
C 7.482783 6.598653 4.022533
C 7.483322 5.954663 4.530601
C 6.984027 6.559239 4.456112
C 0.027707 6.979516 3.912828
C 0.486279 7.495514 3.947094
C 0.475600 7.018787 4.416111
C 0.031040 7.497666 4.518104
C 0.968953 6.960646 4.021795
C 1.534817 7.410371 4.046965
C 1.439600 6.993925 4.483601
C 1.067519 7.484633 4.508370
C 1.991910 6.985904 3.942442
C 2.473471 7.436498 3.983895
C 2.478272 7.043196 4.548469
C 2.022521 7.450593 4.475946
C 2.994569 6.964405 4.000802
C 3.537383 7.484536 3.968404
C 3.474434 7.035605 4.535605
C 2.983474 7.480523 4.497898
C 3.997762 7.032468 3.929593
C 4.551654 7.484007 4.061182
C 4.474744 7.052575 4.494547
C 3.991967 7.485719 4.540224
C 5.040802 6.977431 3.973530
C 5.494441 7.442035 4.006306
C 5.501038 7.055567 4.509611
C 5.007222 7.473997 4.518108
C 5.954760 6.965248 3.941529
C 6.512028 7.465046 3.991502
C 6.471927 6.965369 4.518590
C 6.031023 7.491070 4.444146
C 7.035995 7.008067 3.950400
C 7.495835 7.489250 4.026590
C 7.480323 6.954228 4.512449
C 7.053890 7.487852 4.523716
C 0.059760 0.057331 5.051143
C 0.506589 0.552903 5.015196
C 0.516254 0.067999 5.564587
C 0.043348 0.549873 5.535111
C 0.996700 0.007916 5.011709
C 1.527355 0.501037 4.998708
C 1.522854 0.096554 5.488025
C 1.050933 0.509036 5.531546
C 1.958220 0.036403 4.924262
C 2.507424 0.511639 4.935856
C 2.530083 0.011918 5.421880
C 2.017732 0.458051 5.469065
C 3.066399 0.068684 4.980502
C 3.527232 0.477249 4.918552
C 3.454154 0.013591 5.471738
C 2.952289 0.488232 5.481153
C 3.977389 0.063682 4.993143
C 4.468550 0.507783 4.983521
C 4.524395 0.051891 5.482417
C 4.012287 0.522039 5.448193
C 5.004757 0.000630 5.087761
C 5.485095 0.462469 4.977183
C 5.460851 0.066168 5.543130
C 5.040778 0.544422 5.510602
C 5.967463 0.050657 4.977327
C 6.515919 0.449531 4.955633
C 6.536780 0.033610 5.551691
C 5.963866 0.477072 5.459491
C 7.053643 0.004218 5.037949
C 7.494952 0.491727 4.988151
C 7.459994 0.054719 5.543999
C 7.005052 0.477697 5.451825
C 0.006103 0.949029 5.003550
C 0.464583 1.493396 5.020600
C 0.455932 1.023989 5.472713
C 0.083763 1.525672 5.505210
C 1.017952 0.971596 4.971327
C 1.515780 1.490713 5.035612
C 1.455665 0.988485 5.475586
C 0.944366 1.472203 5.449258
C 2.020630 0.941810 5.015141
C 2.503477 1.488169 4.949614
C 2.542956 1.002178 5.472974
C 2.009869 1.517265 5.555054
C 2.982173 0.946510 4.943070
C 3.462061 1.455935 4.996682
C 3.537167 1.041449 5.501334
C 2.995826 1.486302 5.531083
C 3.920093 0.978334 5.000230
C 4.477838 1.501182 4.969821
C 4.459553 0.950626 5.511686
C 4.022868 1.460555 5.491420
C 5.006252 1.010849 5.012490
C 5.510760 1.553992 5.003852
C 5.484321 1.009916 5.448170
C 5.042207 1.497693 5.463654
C 5.965097 1.013084 5.022294
C 6.530174 1.538370 4.974593
C 6.513963 1.025098 5.448610
C 5.938129 1.477347 5.464875
C 6.978940 1.046220 5.003206
C 7.488827 1.510475 4.975451
C 7.473393 0.985049 5.504407
C 6.992729 1.556156 5.456439
C 0.017815 1.985916 4.945926
C 0.450544 2.498726 4.968697
C 0.468208 1.988837 5.447217
C 0.005475 2.530077 5.518291
C 1.027093 1.954683 5.002439
C 1.540222 2.492209 4.996291
C 1.440298 1.954719 5.492417
C 0.998604 2.508486 5.489183
C 1.992009 1.995687 5.048483
C 2.432245 2.537201 5.023920
C 2.451911 1.956641 5.489947
C 1.990473 2.520103 5.505792
C 2.939429 2.016633 5.036474
C 3.518596 2.440512 4.993231
C 3.472379 1.943590 5.484752
C 3.036859 2.469446 5.431240
C 4.023759 1.979812 4.963769
C 4.455484 2.485876 5.043892
C 4.507516 1.989283 5.422316
C 3.971055 2.446586 5.492236
C 5.023140 1.955404 4.953852
C 5.533025 2.442476 4.958243
C 5.543953 1.956593 5.502477
C 5.012657 2.545048 5.476503
C 5.986242 2.016795 5.029583
C 6.528636 2.532818 5.017904
C 6.494285 1.954510 5.447071
C 6.034080 2.517508 5.483707
C 6.999107 2.008485 4.939122
C 7.463431 2.433199 5.016805
C 7.480218 1.926140 5.479983
C 6.991365 2.446082 5.507744
C 0.011830 3.036595 4.966659
C 0.473733 3.515967 5.009662
C 0.493709 2.980235 5.549363
C 0.007074 3.493377 5.452215
C 0.990746 2.963295 5.026636
C 1.519139 3.469900 5.020782
C 1.510542 2.980094 5.444742
C 0.962082 3.480384 5.498410
C 1.987969 3.022887 5.069131
C 2.493230 3.544349 4.984458
C 2.467848 3.009382 5.486601
C 1.924749 3.506956 5.531289
C 3.021670 3.033941 5.038689
C 3.506165 3.449466 5.004918
C 3.430317 2.972535 5.501735
C 3.014221 3.508557 5.476005
C 4.003836 3.052291 5.003910
C 4.484976 3.541306 5.001555
C 4.525964 2.997839 5.529598
C 4.021548 3.518127 5.509294
C 5.036544 3.045913 5.001405
C 5.517791 3.419533 4.987486
C 5.511222 2.951236 5.462725
C 5.024631 3.485704 5.484232
C 5.995512 2.997352 5.022008
C 6.453267 3.492253 4.998441
C 6.496359 2.970924 5.507355
C 5.976429 3.521349 5.433067
C 6.955705 2.972515 4.946965
C 7.413468 3.530704 4.975441
C 7.492833 2.979724 5.493598
C 7.013454 3.541626 5.534938
C 0.026777 3.982938 4.986794
C 0.503868 4.550442 5.004561
C 0.512978 3.951532 5.476237
C 0.069142 4.542754 5.478058
C 0.948236 3.990953 4.937286
C 1.550779 4.469925 5.016261
C 1.542692 3.991876 5.526657
C 0.939108 4.475553 5.540007
C 1.988798 3.981620 5.040034
C 2.502122 4.488293 4.989132
C 2.466232 3.945230 5.480884
C 2.004230 4.449436 5.490607
C 3.038311 4.030266 5.007094
C 3.555796 4.531022 4.976606
C 3.487259 3.959590 5.514237
C 2.982805 4.529933 5.563812
C 3.964017 4.005191 4.950378
C 4.516596 4.512111 4.990455
C 4.477431 3.975772 5.536180
C 4.010013 4.467784 5.440566
C 4.958717 4.022367 5.008819
C 5.485561 4.531856 4.978356
C 5.556307 3.975971 5.534828
C 5.004571 4.496888 5.539141
C 5.958678 4.011708 4.961544
C 6.524663 4.506075 4.989921
C 6.519375 3.965757 5.438894
C 5.997880 4.490187 5.479715
C 7.051097 4.031777 5.020186
C 7.426726 4.507617 4.978039
C 7.446517 4.044716 5.523662
C 7.058674 4.542289 5.459974
C 0.019450 4.971654 5.002231
C 0.543295 5.501763 4.941073
C 0.526201 4.994077 5.579395
C 0.002773 5.544397 5.507648
C 0.959066 5.042238 4.998413
C 1.422696 5.498767 5.017775
C 1.464548 5.039984 5.517957
C 0.968146 5.454020 5.532347
C 1.987927 5.030389 5.043914
C 2.485715 5.421331 5.008019
C 2.493247 5.030065 5.506026
C 1.948353 5.534571 5.503432
C 3.003633 4.986529 5.003162
C 3.455973 5.539230 4.945438
C 3.484797 4.962590 5.543827
C 2.959142 5.491074 5.466866
C 4.002739 5.015645 4.963560
C 4.541324 5.533453 4.982447
C 4.549595 4.979886 5.459226
C 3.987469 5.555941 5.509883
C 4.966021 5.026988 4.958182
C 5.499015 5.516702 5.030680
C 5.513742 4.998316 5.491647
C 5.029884 5.434255 5.473573
C 6.054963 5.015036 5.013059
C 6.503656 5.463581 4.954755
C 6.480005 5.054205 5.524664
C 6.004653 5.515178 5.477317
C 7.029904 5.048752 4.956369
C 7.432727 5.450774 5.055517
C 7.483973 5.023289 5.530864
C 6.967340 5.439203 5.525122
C 0.032805 6.030689 4.957948
C 0.494066 6.464729 5.050123
C 0.462083 5.990440 5.545653
C 0.037164 6.459167 5.504466
C 0.991120 6.068522 5.037417
C 1.463105 6.452178 4.989261
C 1.472723 5.983045 5.486791
C 0.988196 6.544252 5.473618
C 2.030685 6.031202 4.931412
C 2.503436 6.452542 5.059240
C 2.521089 5.976354 5.495929
C 2.024710 6.501132 5.555069
C 2.958146 5.980979 4.960989
C 3.465641 6.512891 4.928399
C 3.512232 5.992573 5.485248
C 2.998184 6.484341 5.453492
C 4.008454 6.037250 4.968520
C 4.465067 6.503904 5.043479
C 4.516327 5.974498 5.446778
C 4.056249 6.511258 5.527411
C 4.995318 5.974108 5.028971
C 5.455255 6.539982 4.979902
C 5.528695 6.008196 5.504693
C 4.953936 6.504500 5.460343
C 5.909321 6.002643 4.984619
C 6.434302 6.485354 4.961652
C 6.535876 6.036474 5.557395
C 5.983845 6.531610 5.417524
C 7.027107 6.004318 4.997963
C 7.468342 6.460333 5.059837
C 7.482689 5.992232 5.508061
C 6.963363 6.503991 5.434610
C 0.000805 6.971909 5.040349
C 0.541162 7.451694 4.978141
C 0.504035 6.940667 5.510125
C 0.046529 7.494146 5.414507
C 1.050566 6.950891 4.963671
C 1.498731 7.456768 4.988370
C 1.476260 6.984268 5.463987
C 0.998993 7.466560 5.526092
C 2.006706 7.022208 5.022117
C 2.556345 7.465192 4.981152
C 2.447300 7.012130 5.512303
C 1.986977 7.492306 5.465223
C 2.964669 6.948200 4.992025
C 3.428051 7.492790 4.971117
C 3.477491 6.980267 5.484873
C 3.029896 7.461364 5.539839
C 4.016276 6.987050 4.951596
C 4.489900 7.454706 4.985167
C 4.500902 6.984993 5.505223
C 4.018769 7.493963 5.512146
C 4.966141 6.994725 5.031975
C 5.426553 7.473269 5.004194
C 5.485111 7.010005 5.487053
C 4.981753 7.460817 5.480297
C 6.038655 7.052294 5.023337
C 6.474496 7.487903 4.934226
C 6.501283 7.016373 5.532916
C 5.956591 7.428713 5.523971
C 7.023757 7.000334 4.951463
C 7.487791 7.480935 5.007851
C 7.486420 6.964207 5.458761
C 6.979292 7.491692 5.461893
C 0.044924 0.019478 5.931903
C 0.455852 0.526846 6.015486
C 0.464659 0.013649 6.491037
C 0.003485 0.507467 6.529446
C 1.005082 0.008118 6.001005
C 1.460643 0.499969 6.051419
C 1.563103 0.005742 6.551313
C 1.014639 0.575520 6.528699
C 2.037920 0.050189 5.956128
C 2.552084 0.466792 5.967084
C 2.501417 0.040890 6.506674
C 1.972445 0.513645 6.501121
C 2.981285 0.044775 6.075711
C 3.472108 0.451511 5.967277
C 3.450083 0.018311 6.514621
C 2.956132 0.543109 6.436262
C 3.930623 0.026208 6.024788
C 4.529311 0.518248 5.964324
C 4.491753 0.117495 6.473463
C 4.023798 0.520224 6.534877
C 4.965777 0.027546 5.992606
C 5.495148 0.498201 6.058790
C 5.519524 0.001815 6.444408
C 4.999844 0.486643 6.441803
C 5.957733 0.024796 5.966433
C 6.531655 0.495098 6.010614
C 6.513443 0.023764 6.507732
C 5.976726 0.472203 6.483622
C 7.032352 0.037663 6.020583
C 7.499482 0.505463 6.032777
C 7.489005 0.026166 6.481062
C 6.968106 0.479596 6.491032
C 0.033481 1.084659 5.961716
C 0.463833 1.458490 6.050234
C 0.447208 0.981594 6.494591
C 0.017906 1.456856 6.550271
C 1.004279 0.960334 6.035017
C 1.459595 1.491960 6.028209
C 1.541036 1.021960 6.482152
C 1.047320 1.461065 6.525304
C 2.005457 1.030018 5.952846
C 2.550835 1.506320 6.026337
C 2.471583 0.999560 6.437446
C 1.986191 1.484607 6.503040
C 3.010377 1.032922 5.996758
C 3.469139 1.506915 6.027482
C 3.459897 0.948051 6.476923
C 3.002979 1.534007 6.480266
C 3.993005 0.982295 5.993203
C 4.475567 1.462617 5.987403
C 4.533722 0.971023 6.522477
C 4.049135 1.523449 6.527994
C 5.008685 0.997452 6.044443
C 5.473553 1.475524 5.973249
C 5.481858 1.006921 6.480701
C 5.014941 1.502279 6.429484
C 5.993548 1.020722 5.936151
C 6.456860 1.540774 6.048781
C 6.538681 0.938001 6.553459
C 5.961311 1.562321 6.459803
C 6.987452 0.963999 6.052231
C 7.455958 1.509823 5.997640
C 7.495534 1.035525 6.539014
C 6.941201 1.440472 6.458060
C 0.031746 2.035437 5.948718
C 0.530235 2.512452 6.042942
C 0.514920 1.916239 6.513562
C 0.029937 2.435657 6.491357
C 0.954933 1.966957 6.063744
C 1.522469 2.475437 5.956258
C 1.483589 1.984692 6.499128
C 0.973918 2.543500 6.549255
C 2.026519 2.037706 5.988661
C 2.514030 2.528592 5.957630
C 2.480539 2.046174 6.453768
C 1.942988 2.555248 6.486986
C 2.964951 2.051090 5.985787
C 3.469557 2.512736 5.940341
C 3.474715 2.059915 6.538397
C 2.981443 2.550571 6.506248
C 4.014653 1.972200 5.951774
C 4.522330 2.460015 5.995535
C 4.475102 2.016151 6.474112
C 3.990154 2.559915 6.499742
C 5.016298 1.985414 6.044171
C 5.454084 2.469926 5.966978
C 5.450258 1.982816 6.550792
C 4.985529 2.531276 6.568369
C 5.999533 2.015285 5.931306
C 6.516484 2.486233 5.944531
C 6.542288 1.944775 6.492114
C 6.015392 2.485532 6.556415
C 7.036044 2.040248 5.990827
C 7.427453 2.540617 5.979917
C 7.493305 2.023262 6.459953
C 6.939007 2.446246 6.516250
C 0.011847 3.033916 5.924348
C 0.469103 3.516249 5.985796
C 0.499700 2.974527 6.488928
C 0.004414 3.510566 6.477922
C 1.024187 3.022980 5.959297
C 1.486348 3.505349 6.083894
C 1.470335 2.967993 6.543305
C 0.958410 3.481868 6.476028
C 1.984013 3.020352 6.049193
C 2.503110 3.442582 6.058291
C 2.460586 2.967875 6.448967
C 1.996388 3.550100 6.550687
C 2.943947 2.979766 6.030549
C 3.555106 3.484320 5.970703
C 3.467201 2.942552 6.513108
C 2.948023 3.496177 6.524789
C 3.969750 3.005111 5.959254
C 4.523567 3.533590 6.015391
C 4.499297 2.986048 6.552358
C 4.021733 3.431145 6.504530
C 5.013206 2.952249 5.958985
C 5.508486 3.444519 5.952380
C 5.526049 3.033425 6.453709
C 4.976461 3.514033 6.499364
C 6.044134 2.937952 6.010952
C 6.504983 3.444854 5.990586
C 6.553610 2.974447 6.493873
C 6.023365 3.464627 6.518404
C 7.005759 3.015833 5.954966
C 7.453331 3.448593 6.024390
C 7.449712 2.997133 6.527109
C 6.947503 3.490044 6.504380
C 0.042733 3.990291 5.914112
C 0.482565 4.444212 6.036255
C 0.545233 3.975351 6.509313
C 0.033917 4.443213 6.499570
C 0.970812 4.018326 6.002154
C 1.475805 4.546689 5.974373
C 1.517311 3.971742 6.545203
C 0.993401 4.545460 6.511514
C 2.018027 3.953787 6.033275
C 2.508000 4.497726 6.035192
C 2.479098 3.958806 6.493418
C 2.034078 4.461666 6.544235
C 2.959058 4.023403 6.001065
C 3.495564 4.450107 6.021194
C 3.567527 3.989807 6.471258
C 2.991166 4.489905 6.476451
C 3.964827 4.007180 5.967574
C 4.461502 4.525638 5.985478
C 4.504864 3.962674 6.496106
C 3.973498 4.490655 6.463331
C 4.996737 4.002716 6.061366
C 5.509931 4.505453 6.050334
C 5.501878 4.031793 6.533770
C 4.941297 4.542010 6.527391
C 6.014871 4.047321 6.001274
C 6.499508 4.529892 6.052664
C 6.495911 4.030498 6.465955
C 5.973047 4.465815 6.510555
C 6.970562 4.042064 6.031321
C 7.478045 4.461859 6.002455
C 7.448760 3.944544 6.462075
C 7.037599 4.450756 6.505188
C 0.003818 5.020241 6.059973
C 0.453192 5.443466 5.983078
C 0.455486 5.007188 6.527478
C 0.028229 5.534793 6.562340
C 0.991863 4.947343 6.026667
C 1.448154 5.506286 6.015843
C 1.442465 5.007968 6.512001
C 0.968219 5.547768 6.492128
C 2.016208 5.015940 5.998520
C 2.515130 5.529666 5.980235
C 2.436941 5.027544 6.489349
C 1.996466 5.536434 6.513097
C 2.984623 5.025240 5.972674
C 3.479456 5.450254 5.971998
C 3.540434 4.953448 6.528377
C 3.009609 5.507432 6.467605
C 3.998341 4.990904 5.960373
C 4.536109 5.464818 5.947891
C 4.450737 5.021582 6.531815
C 4.049783 5.536404 6.479052
C 4.991260 4.988736 5.961703
C 5.486799 5.486772 6.058273
C 5.532252 4.997319 6.453987
C 5.009477 5.516937 6.432767
C 6.027602 4.994504 6.014341
C 6.538621 5.544658 5.997494
C 6.543785 5.038556 6.523661
C 5.938840 5.491719 6.524700
C 6.996342 4.965092 5.963217
C 7.493180 5.480327 6.053083
C 7.451718 4.973972 6.534185
C 7.031519 5.454107 6.511422
C 0.057450 5.940374 6.050579
C 0.471279 6.527693 6.002698
C 0.501306 6.025365 6.584507
C 0.013484 6.557982 6.519608
C 1.083781 6.002882 5.987070
C 1.541866 6.513476 6.036071
C 1.519716 5.960035 6.529683
C 0.966761 6.497911 6.532818
C 2.007853 5.988899 6.051398
C 2.507852 6.503767 5.934086
C 2.514142 5.991542 6.525150
C 2.020920 6.479476 6.488559
C 2.996357 6.012541 5.963455
C 3.518928 6.515691 5.935752
C 3.470217 5.982166 6.526767
C 2.994082 6.469800 6.528915
C 4.003741 6.017550 6.024524
C 4.490773 6.492935 6.027728
C 4.544249 6.049677 6.473667
C 3.962763 6.435276 6.521212
C 5.037966 6.030908 6.025270
C 5.444958 6.517934 6.009752
C 5.516321 5.983219 6.460054
C 5.033017 6.492316 6.516110
C 6.033183 6.003099 5.959079
C 6.534719 6.569979 5.996163
C 6.557306 6.002726 6.521655
C 5.963024 6.532051 6.494498
C 6.972442 6.030600 6.032881
C 7.425993 6.519990 5.971317
C 7.495118 6.080836 6.494323
C 6.960121 6.509265 6.499756
C 0.036151 7.026901 6.051294
C 0.526642 7.478852 5.958389
C 0.541071 7.012277 6.510093
C 0.006354 7.496826 6.529949
C 0.957011 7.009009 6.025945
C 1.503549 7.480076 6.000760
C 1.498185 7.067712 6.507602
C 1.005497 7.486495 6.496245
C 2.059548 6.977238 6.004967
C 2.509511 7.488517 5.984943
C 2.526087 6.942161 6.511077
C 1.976305 7.435174 6.483514
C 2.985479 6.977597 5.946406
C 3.536982 7.491040 5.967010
C 3.526059 7.013606 6.498212
C 2.940214 7.463694 6.490316
C 3.978720 6.958151 6.003489
C 4.419698 7.438268 5.993560
C 4.464692 6.985640 6.490426
C 4.007521 7.443695 6.532906
C 4.955275 7.044453 6.027472
C 5.458027 7.421735 6.001192
C 5.470417 6.960812 6.474955
C 4.966259 7.471308 6.522819
C 6.046631 7.018569 6.012161
C 6.472862 7.498854 6.045439
C 6.502912 6.980543 6.472301
C 5.966696 7.495384 6.520082
C 6.995936 7.067466 6.015160
C 7.485026 7.480011 6.088325
C 7.432491 6.952721 6.491671
C 6.956162 7.459124 6.493627
C 0.100062 0.072403 6.972203
C 0.524821 0.550046 6.956857
C 0.499214 0.083136 7.494608
C 0.009453 0.436721 7.479574
C 0.994429 0.043779 7.006781
C 1.497555 0.482559 6.972400
C 1.558992 0.030376 7.456999
C 0.978713 0.580999 7.487059
C 2.015669 0.071117 6.991325
C 2.548760 0.509862 7.069893
C 2.435566 0.050056 7.475369
C 2.004416 0.543696 7.427506
C 2.971818 0.064544 6.973405
C 3.432692 0.511285 6.998388
C 3.466990 0.013940 7.429167
C 3.022134 0.546523 7.494713
C 4.017628 0.003748 7.018904
C 4.548853 0.593434 7.033338
C 4.428597 0.131743 7.453352
C 3.931841 0.488385 7.442099
C 4.935235 0.048316 6.961743
C 5.475888 0.558350 7.024281
C 5.535288 0.039866 7.467577
C 4.986704 0.493293 7.457669
C 6.021572 0.011053 7.014047
C 6.477887 0.489757 7.059502
C 6.519148 0.002412 7.417386
C 5.996930 0.533675 7.462675
C 7.000409 0.014932 6.964451
C 7.437781 0.513521 6.965411
C 7.476068 0.026727 7.392090
C 7.052627 0.531155 7.475965
C 0.022281 0.966310 7.049827
C 0.500191 1.559088 7.040768
C 0.506519 1.048534 7.449097
C 0.026220 1.526687 7.391360
C 0.997489 0.916328 7.014022
C 1.520273 1.434212 6.991922
C 1.477038 1.012525 7.462766
C 0.999253 1.467247 7.471743
C 2.024104 1.075908 6.991377
C 2.552064 1.550711 6.965449
C 2.502860 1.001317 7.407770
C 1.954888 1.492255 7.458940
C 3.017183 0.976207 6.940012
C 3.537583 1.511062 6.966343
C 3.466521 1.008039 7.458920
C 2.985952 1.474691 7.496111
C 4.001450 1.020990 6.935222
C 4.502081 1.465181 7.002140
C 4.433235 1.047175 7.463004
C 4.040917 1.534378 7.479589
C 5.012894 1.039590 6.955968
C 5.543300 1.539198 6.937117
C 5.552903 1.006432 7.458063
C 5.035439 1.514117 7.466445
C 6.041011 1.043808 7.022482
C 6.488981 1.504351 7.044463
C 6.465927 0.986493 7.494338
C 6.023342 1.480879 7.496958
C 6.985561 1.038412 6.946344
C 7.481440 1.500283 7.038182
C 7.415656 1.011756 7.483784
C 6.965337 1.549020 7.441573
C 0.029083 1.943181 6.876225
C 0.508398 2.446115 6.958279
C 0.518975 2.031384 7.486052
C 0.060245 2.546956 7.386018
C 0.996788 1.994408 7.063599
C 1.521919 2.562137 7.026403
C 1.475079 1.959380 7.449594
C 0.958029 2.531530 7.494646
C 1.974629 1.991610 7.037728
C 2.513260 2.455177 7.029184
C 2.560616 2.016505 7.498143
C 2.067620 2.461106 7.496230
C 2.996166 2.013009 7.023974
C 3.477483 2.509784 7.032609
C 3.579834 2.004675 7.481488
C 2.978280 2.514613 7.471540
C 3.947281 2.024325 6.994352
C 4.510920 2.474944 6.959577
C 4.466805 2.063225 7.471003
C 3.937440 2.542799 7.488223
C 4.972911 1.999881 7.030950
C 5.514122 2.492170 6.939435
C 5.525779 2.003934 7.460737
C 4.941199 2.507753 7.459806
C 6.020538 1.973763 6.973212
C 6.540595 2.478763 7.032120
C 6.499120 2.022168 7.475806
C 5.934128 2.501743 7.470706
C 6.917612 1.994571 6.992520
C 7.431322 2.516488 6.880547
C 7.445388 2.050299 7.427909
C 6.995990 2.551313 7.466179
C 0.003705 3.029655 6.926818
C 0.501146 3.550253 6.996319
C 0.534617 3.014262 7.484080
C 0.017592 3.450821 7.468264
C 1.013435 2.967971 7.016408
C 1.569161 3.498085 7.013313
C 1.565657 3.045846 7.489347
C 0.944438 3.516593 7.459821
C 1.966904 3.042113 6.945668
C 2.507006 3.520897 7.006756
C 2.503318 3.026587 7.487537
C 2.027682 3.567398 7.449817
C 2.979244 3.021042 6.978107
C 3.505693 3.497068 7.013430
C 3.519898 3.062594 7.483893
C 2.970417 3.506645 7.486200
C 4.023242 3.059541 6.986393
C 4.471273 3.574299 6.985740
C 4.514159 3.021761 7.430367
C 3.982039 3.523955 7.456634
C 4.985135 3.017133 6.990828
C 5.558152 3.477866 7.018840
C 5.548869 2.993177 7.473498
C 5.014172 3.523382 7.472558
C 6.050074 2.948726 7.001267
C 6.434051 3.529212 6.980651
C 6.474471 2.920253 7.489561
C 6.008262 3.602269 7.490609
C 6.983315 2.969547 6.970455
C 7.413955 3.560208 6.942643
C 7.463758 2.996841 7.459519
C 7.025352 3.471177 7.476609
C 0.071825 4.022209 6.972603
C 0.478032 4.542123 7.029102
C 0.452200 4.063041 7.453725
C 0.032830 4.554842 7.493217
C 0.993006 4.019355 7.053618
C 1.452524 4.461098 7.007250
C 1.461631 4.002035 7.496042
C 0.969199 4.506251 7.417106
C 1.936323 3.984877 7.041370
C 2.435371 4.537331 7.020331
C 2.477902 4.043276 7.438307
C 1.945101 4.576898 7.486619
C 3.015703 3.999568 6.949732
C 3.477983 4.477271 7.025123
C 3.450022 3.971337 7.445497
C 3.002977 4.453608 7.492373
C 3.952674 4.013053 6.952730
C 4.537869 4.502128 7.032813
C 4.525888 4.022198 7.467670
C 4.075813 4.505860 7.486228
C 4.989559 4.031235 7.013264
C 5.559446 4.467749 6.996113
C 5.501361 3.938102 7.454154
C 5.065803 4.438696 7.476514
C 6.048353 4.036471 6.992597
C 6.546670 4.491867 6.973927
C 6.532585 3.974694 7.428583
C 5.973696 4.548271 7.446799
C 7.014185 4.021802 7.002702
C 7.453692 4.542458 7.022342
C 7.420330 4.027044 7.493766
C 6.929034 4.532208 7.495492
C 0.057751 5.037462 7.009746
C 0.484923 5.539571 7.034148
C 0.589449 4.991756 7.458517
C 0.009015 5.508198 7.445752
C 0.965466 5.025728 6.979267
C 1.447301 5.468582 6.971754
C 1.476744 5.033359 7.491147
C 1.031803 5.495048 7.463097
C 2.046452 5.034556 7.006794
C 2.510187 5.489793 6.972537
C 2.427526 4.991875 7.490471
C 1.973063 5.453282 7.477561
C 3.008322 4.998903 6.977460
C 3.413132 5.527841 6.992944
C 3.482382 5.029731 7.431386
C 3.044012 5.489055 7.494867
C 3.985407 5.063218 6.974612
C 4.464048 5.546615 7.029565
C 4.499593 5.074148 7.482678
C 4.009632 5.487680 7.488325
C 4.957380 5.007573 7.054042
C 5.459084 5.539227 7.003191
C 5.469694 5.049118 7.473549
C 4.936480 5.557546 7.462339
C 6.040252 4.975783 6.999568
C 6.463713 5.488759 7.006738
C 6.460510 4.856713 7.470807
C 5.980407 5.504259 7.458598
C 6.967893 5.012324 7.012804
C 7.478584 5.570019 6.942766
C 7.473577 5.051722 7.486337
C 6.994000 5.506494 7.382460
C 0.012596 6.018144 6.967131
C 0.485031 6.514510 6.928080
C 0.549010 6.030523 7.471942
C 0.036902 6.456801 7.460440
C 0.990317 6.011243 6.957927
C 1.443949 6.487532 6.984970
C 1.511803 5.967372 7.457220
C 0.915507 6.535302 7.494003
C 2.042303 6.031491 6.960301
C 2.496411 6.517666 7.002498
C 2.476501 6.021930 7.478017
C 2.039313 6.514926 7.485466
C 2.923648 6.035819 7.013892
C 3.461967 6.465957 7.031084
C 3.460047 6.004379 7.498735
C 2.977032 6.417631 7.494953
C 4.027771 5.967631 6.953842
C 4.511360 6.487670 7.003114
C 4.460206 6.002202 7.488357
C 3.977198 6.489437 7.447025
C 5.025403 6.016187 7.001567
C 5.531237 6.457909 7.047313
C 5.456164 6.002074 7.492580
C 5.030355 6.482932 7.451337
C 6.011099 6.026608 7.037641
C 6.485919 6.536138 6.959580
C 6.502939 5.943725 7.497733
C 6.041200 6.481881 7.489871
C 7.033279 5.985303 7.029771
C 7.484549 6.505183 6.993725
C 7.466974 6.015406 7.497350
C 7.016068 6.513866 7.469406
C 0.085708 7.031331 7.008699
C 0.560760 7.489158 6.990990
C 0.568706 7.025036 7.450232
C 0.063572 7.499228 7.465930
C 0.988125 6.943887 7.013756
C 1.438934 7.491688 6.977471
C 1.481551 6.969218 7.479465
C 1.076567 7.470918 7.459552
C 1.972712 6.967313 7.056681
C 2.578244 7.464894 7.009923
C 2.540710 6.946195 7.491857
C 2.050526 7.428579 7.442593
C 2.972965 6.961450 6.981428
C 3.539964 7.456498 6.989769
C 3.583187 7.010146 7.447942
C 2.921542 7.484738 7.485316
C 4.062390 6.984043 6.978526
C 4.444197 7.444242 7.063145
C 4.459901 6.931855 7.476925
C 3.918184 7.499917 7.483885
C 4.964961 7.055825 7.025095
C 5.443326 7.477235 6.970740
C 5.472612 6.980786 7.482219
C 5.055784 7.465372 7.494570
C 6.052773 7.010445 6.997534
C 6.589176 7.455755 6.975064
C 6.415360 7.004258 7.495756
C 5.942672 7.490344 7.468677
C 7.003277 6.961485 6.971851
C 7.460245 7.495968 7.016433
C 7.435753 6.998025 7.452296
C 6.929102 7.483664 7.444791
2048
Frame 4/10
C 0.071171 0.079723 0.084280
C 0.511685 0.463708 0.005910
C 0.475853 0.024843 0.539893
C 0.013182 0.589677 0.541495
C 0.946915 0.007070 0.012432
C 1.420503 0.570686 0.090098
C 1.492367 0.044955 0.487827
C 1.026380 0.490511 0.572507
C 1.963415 0.003183 0.001829
C 2.537465 0.483316 0.051534
C 2.584803 0.046171 0.533518
C 2.040868 0.466894 0.557645
C 3.102721 0.029565 0.104432
C 3.426601 0.520955 0.038188
C 3.598946 0.093562 0.446945
C 3.022649 0.521517 0.615278
C 4.163203 0.001640 0.007857
C 4.424642 0.577021 0.033154
C 4.543755 0.043500 0.551832
C 4.040843 0.468174 0.564543
C 5.089170 0.058021 0.000579
C 5.440853 0.595126 0.069188
C 5.565179 0.030904 0.496400
C 4.997361 0.436208 0.466414
C 5.910334 0.100616 0.015947
C 6.488137 0.573964 0.021721
C 6.489705 0.016373 0.540880
C 6.017984 0.497867 0.493827
C 7.110407 0.006986 0.023637
C 7.445016 0.581029 0.106867
C 7.375189 0.035216 0.556098
C 6.951587 0.527592 0.492832
C 0.074527 0.913912 0.072008
C 0.589036 1.554457 0.010649
C 0.467633 1.050890 0.496189
C 0.091097 1.489569 0.398886
C 1.006619 0.989991 0.009395
C 1.506460 1.534466 0.036226
C 1.573496 1.108525 0.518219
C 0.993626 1.513055 0.579740
C 1.945135 1.054104 0.011302
C 2.567938 1.537939 0.011280
C 2.538807 0.942651 0.545705
C 2.047159 1.485897 0.403154
C 2.947614 0.940451 0.003046
C 3.412378 1.550897 0.149205
C 3.510440 0.886006 0.484881
C 2.947016 1.454893 0.452433
C 3.938739 1.059468 0.112713
C 4.486533 1.467310 0.000225
C 4.593463 1.004027 0.476763
C 3.947174 1.539384 0.457906
C 5.032403 1.112840 0.027136
C 5.470771 1.549220 0.057125
C 5.580525 1.037290 0.490512
C 5.034879 1.493141 0.497482
C 5.953589 0.935554 0.059730
C 6.475289 1.527348 0.093932
C 6.447400 1.041421 0.405320
C 6.026101 1.550378 0.505524
C 6.934302 0.990188 0.048284
C 7.470738 1.550816 0.006671
C 7.403327 1.037735 0.496429
C 6.930875 1.576710 0.525117
C 0.079389 2.106358 0.013778
C 0.532770 2.557552 0.017106
C 0.464808 1.968779 0.428811
C 0.051022 2.398834 0.523373
C 0.971659 2.052141 0.036382
C 1.498687 2.481859 0.105681
C 1.560486 2.021269 0.477738
C 0.924907 2.434333 0.526287
C 2.039353 2.040076 0.087872
C 2.438942 2.485396 0.009035
C 2.552352 2.032418 0.631691
C 2.030898 2.600702 0.569439
C 2.943567 2.008983 0.091259
C 3.539491 2.592371 0.013284
C 3.391848 2.034857 0.504796
C 3.083066 2.576192 0.492845
C 4.040747 1.949537 0.037536
C 4.462397 2.459766 0.033332
C 4.417359 1.946278 0.539005
C 3.972089 2.556748 0.494309
C 5.065381 2.004673 0.047288
C 5.367851 2.508418 0.033106
C 5.546783 2.031428 0.517503
C 5.048628 2.609328 0.494746
C 5.958416 2.065405 0.041725
C 6.513013 2.493487 0.041264
C 6.540751 2.040998 0.597909
C 5.967071 2.503822 0.537028
C 6.874183 1.971093 0.017552
C 7.475241 2.474565 0.065556
C 7.418857 1.954064 0.492822
C 7.013550 2.440703 0.458716
C 0.117397 3.035089 0.047595
C 0.531402 3.645202 0.044318
C 0.513813 3.097087 0.520299
C 0.042065 3.386747 0.578909
C 0.981547 2.987694 0.047220
C 1.445610 3.580246 0.016526
C 1.457503 3.051842 0.484536
C 0.981100 3.461440 0.413546
C 1.936616 2.902068 0.032725
C 2.473000 3.607463 0.047568
C 2.558176 2.964589 0.465394
C 2.049278 3.469824 0.507505
C 2.975962 2.933320 0.006984
C 3.401314 3.525775 0.019083
C 3.419160 3.048216 0.534919
C 3.016312 3.531725 0.529487
C 3.976034 3.057433 0.017037
C 4.617552 3.509485 0.045082
C 4.554655 3.048279 0.435595
C 4.064914 3.559337 0.528334
C 5.090071 3.075536 0.092805
C 5.551592 3.547068 0.010342
C 5.593144 2.992161 0.541069
C 5.041488 3.547050 0.502246
C 5.890100 2.984721 0.000790
C 6.550625 3.432244 0.112394
C 6.389222 2.940598 0.469827
C 6.061273 3.417730 0.471011
C 7.033040 3.040721 0.007825
C 7.460806 3.565083 0.079480
C 7.446737 2.932768 0.472643
C 7.039713 3.483172 0.529995
C 0.046751 3.915581 0.105514
C 0.433250 4.477476 0.011413
C 0.566761 4.061228 0.495895
C 0.092305 4.480259 0.516044
C 1.007993 4.031305 0.058467
C 1.506141 4.390037 0.061999
C 1.432916 3.945221 0.488169
C 0.955758 4.525558 0.453829
C 1.993911 4.022708 0.109010
C 2.574826 4.518315 0.066646
C 2.470515 4.120936 0.508559
C 1.942367 4.574258 0.481568
C 2.940408 4.041157 0.022831
C 3.484309 4.480749 0.005578
C 3.472201 4.004904 0.400603
C 3.028781 4.420914 0.493982
C 3.969460 4.094407 0.015303
C 4.488349 4.497331 0.005653
C 4.582765 3.987313 0.501734
C 4.062175 4.556844 0.509348
C 4.982437 4.011850 0.038681
C 5.505479 4.470578 0.103506
C 5.518114 3.927586 0.490143
C 4.942401 4.565308 0.461745
C 6.026338 3.948900 0.085962
C 6.554299 4.514475 0.036998
C 6.445187 4.084211 0.488369
C 5.988504 4.490459 0.420575
C 6.911006 4.036596 0.057131
C 7.423799 4.570114 0.001887
C 7.435450 4.066462 0.444516
C 6.965340 4.586566 0.489902
C 0.016140 4.965794 0.138719
C 0.474334 5.566485 0.002745
C 0.561905 5.047822 0.591225
C 0.025343 5.500149 0.564939
C 0.961686 5.041081 0.050428
C 1.391041 5.569460 0.055971
C 1.528871 5.099173 0.458670
C 0.935338 5.518345 0.452738
C 2.070408 5.112770 0.031598
C 2.562577 5.526093 0.078070
C 2.538461 5.056759 0.473326
C 1.999061 5.472917 0.520473
C 2.984870 4.982901 0.090092
C 3.450910 5.426986 0.051418
C 3.465975 5.041894 0.550742
C 3.007832 5.491073 0.569409
C 3.951372 4.999770 0.104280
C 4.558436 5.556768 0.024889
C 4.522950 5.013851 0.568940
C 3.911691 5.484885 0.542291
C 5.042593 4.945059 0.036722
C 5.528188 5.518459 0.023900
C 5.507339 5.022880 0.388721
C 5.023787 5.481580 0.444921
C 6.039422 4.925974 0.002827
C 6.483272 5.402884 0.058663
C 6.479196 4.900896 0.499505
C 5.873355 5.512548 0.537778
C 6.971995 5.060348 0.014986
C 7.448366 5.562050 0.041913
C 7.434332 4.930544 0.573911
C 7.015166 5.536089 0.490829
C 0.001932 5.904687 0.067803
C 0.464791 6.491843 0.054177
C 0.540014 6.005087 0.487663
C 0.028370 6.424664 0.472089
C 0.939018 6.029786 0.030104
C 1.419286 6.414378 0.100548
C 1.617641 5.998015 0.463676
C 0.987717 6.439325 0.578821
C 1.996910 5.905816 0.019771
C 2.539679 6.473999 0.018960
C 2.535750 5.998450 0.455445
C 2.039196 6.509227 0.524700
C 3.070120 6.081394 0.047862
C 3.546789 6.388240 0.027672
C 3.432344 5.976208 0.479273
C 3.091601 6.513400 0.493591
C 4.017651 6.021031 0.118458
C 4.514507 6.562603 0.011485
C 4.541093 5.948648 0.515497
C 3.926882 6.534372 0.417956
C 4.998797 6.021559 0.007457
C 5.429652 6.550331 0.036781
C 5.386530 5.964877 0.538599
C 5.027348 6.451694 0.468555
C 6.068698 6.011984 0.027404
C 6.413312 6.563057 0.045374
C 6.544358 5.972037 0.443335
C 5.926611 6.502299 0.521462
C 7.038589 6.079415 0.023835
C 7.485414 6.604888 0.054329
C 7.432753 6.016759 0.617306
C 6.907477 6.501962 0.421890
C 0.099375 6.998303 0.000375
C 0.622760 7.478051 0.012596
C 0.445063 6.956279 0.469442
C 0.007501 7.486808 0.477331
C 0.963614 6.875584 0.024471
C 1.472909 7.319618 0.011054
C 1.557627 7.041755 0.545552
C 1.091586 7.428822 0.551198
C 2.090042 6.948086 0.093014
C 2.454573 7.423157 0.134962
C 2.423100 7.031284 0.603371
C 1.970889 7.449577 0.430663
C 3.127598 6.971886 0.030297
C 3.550620 7.449454 0.039128
C 3.445991 7.010184 0.520486
C 2.971708 7.497400 0.361663
C 4.100717 7.014107 0.059610
C 4.605704 7.494419 0.074616
C 4.453783 6.928750 0.513118
C 3.981061 7.471295 0.564798
C 4.985866 6.955212 0.098468
C 5.444424 7.476825 0.013375
C 5.562874 6.970983 0.448384
C 5.090737 7.459838 0.514944
C 5.923273 7.088640 0.038158
C 6.518859 7.473498 0.044001
C 6.566532 6.988176 0.516772
C 5.938277 7.486316 0.549253
C 7.001110 6.985735 0.013258
C 7.324760 7.429816 0.101566
C 7.384927 6.867108 0.514086
C 7.016937 7.438385 0.632274
C 0.007268 0.083938 0.946039
C 0.429829 0.509052 1.026090
C 0.472939 0.011494 1.510725
C 0.002657 0.477075 1.481787
C 1.023556 0.020068 1.007334
C 1.571869 0.507440 0.953517
C 1.537191 0.019589 1.579904
C 0.912160 0.545409 1.469324
C 2.061781 0.070268 1.050039
C 2.542671 0.424237 1.017688
C 2.542024 0.027210 1.544813
C 2.024404 0.603697 1.550317
C 3.034132 0.033400 0.978547
C 3.589553 0.571553 1.016985
C 3.584610 0.082656 1.463932
C 2.942278 0.513304 1.510956
C 3.925680 0.067061 0.983107
C 4.563608 0.416785 1.026156
C 4.371603 0.029978 1.530019
C 4.013903 0.583142 1.602508
C 5.090097 0.028535 0.918589
C 5.584376 0.465506 0.975424
C 5.434152 0.018954 1.493716
C 4.975851 0.429205 1.500336
C 5.975109 0.054831 1.114295
C 6.581827 0.475573 0.968555
C 6.529910 0.015069 1.612804
C 5.954163 0.617244 1.481655
C 6.937804 0.001393 1.108933
C 7.496960 0.432407 0.993537
C 7.376177 0.119370 1.418696
C 6.920962 0.477565 1.570473
C 0.052276 1.026815 0.963852
C 0.536168 1.502543 1.019672
C 0.455633 0.975846 1.425166
C 0.050299 1.431573 1.419571
C 0.962160 0.955312 0.949570
C 1.449713 1.481743 1.042196
C 1.472505 0.996869 1.573691
C 0.926015 1.503758 1.524319
C 1.894958 1.006691 0.976718
C 2.565887 1.527110 1.032450
C 2.506193 0.929694 1.425323
C 2.002256 1.446576 1.445403
C 2.984259 1.045307 0.978330
C 3.488862 1.478634 0.976700
C 3.562775 0.952441 1.527884
C 3.009621 1.477545 1.592675
C 4.007184 1.037150 1.026831
C 4.542783 1.529667 0.979281
C 4.493647 0.971999 1.490236
C 4.036923 1.528382 1.395893
C 4.911442 1.060955 1.023409
C 5.571047 1.525246 0.986425
C 5.573697 1.088150 1.574524
C 5.075810 1.472002 1.410295
C 6.053845 0.927483 0.996359
C 6.498134 1.566355 0.989834
C 6.486829 0.915264 1.478144
C 5.936247 1.542588 1.499712
C 7.063419 0.955891 0.996584
C 7.434707 1.528866 1.048767
C 7.461268 0.898955 1.514648
C 6.998033 1.571525 1.488409
C 0.050732 1.978844 1.107364
C 0.493664 2.403193 0.969699
C 0.536651 2.005524 1.569561
C 0.006843 2.477819 1.515571
C 1.050173 2.004592 0.979303
C 1.464339 2.510928 0.964426
C 1.484078 1.940877 1.544671
C 1.079220 2.472920 1.456529
C 2.052080 1.924546 0.967713
C 2.472777 2.505979 1.013437
C 2.440026 1.996081 1.480810
C 2.069510 2.499902 1.529191
C 3.077280 2.013044 1.022147
C 3.474336 2.473460 0.911837
C 3.594904 1.950178 1.522897
C 3.052040 2.416694 1.503816
C 3.988835 2.088033 0.951008
C 4.439736 2.509968 0.906715
C 4.422465 1.978169 1.477460
C 3.994272 2.514053 1.510845
C 4.960444 1.960926 1.063377
C 5.505561 2.565681 0.986121
C 5.453012 1.945418 1.432757
C 5.038175 2.396018 1.487345
C 5.912566 2.043598 1.007001
C 6.608134 2.527443 0.971854
C 6.540134 2.048001 1.523100
C 6.064014 2.467425 1.524553
C 6.962017 1.953658 1.013523
C 7.484707 2.597319 0.967371
C 7.472301 1.989445 1.587912
C 6.895729 2.551286 1.525740
C 0.044455 3.098933 1.047751
C 0.578250 3.438364 1.063599
C 0.533654 2.987886 1.581404
C 0.022900 3.603230 1.498231
C 1.033842 2.979215 0.961131
C 1.458034 3.488904 0.948178
C 1.463360 2.938658 1.421577
C 1.005732 3.389865 1.561807
C 1.991561 3.020846 1.063686
C 2.542991 3.566060 0.918808
C 2.497664 2.994878 1.477180
C 2.076166 3.479282 1.509422
C 2.970179 2.955190 1.104325
C 3.407711 3.435620 1.063253
C 3.513187 2.930377 1.457201
C 2.912579 3.563143 1.523175
C 3.964103 2.995526 0.960140
C 4.561567 3.524939 1.058117
C 4.469785 3.075126 1.424517
C 4.012986 3.532731 1.584059
C 5.002102 3.023673 0.994540
C 5.448793 3.547262 1.034260
C 5.491441 3.056758 1.482150
C 5.080609 3.555593 1.507462
C 5.966387 3.029888 1.031771
C 6.531830 3.397205 0.936902
C 6.365883 2.980891 1.481409
C 5.973490 3.457410 1.516252
C 6.981766 2.992433 0.872433
C 7.490362 3.419415 0.950619
C 7.420231 3.005112 1.490150
C 6.923402 3.563193 1.528119
C 0.037476 3.985608 0.917622
C 0.518062 4.567239 0.915201
C 0.584698 3.994069 1.554356
C 0.030999 4.519868 1.405843
C 1.080094 3.977159 1.054987
C 1.502721 4.484574 1.078391
C 1.530646 3.959648 1.512424
C 0.997292 4.566790 1.512015
C 2.037398 3.901583 0.962040
C 2.476333 4.578574 0.922018
C 2.462668 3.954236 1.460942
C 2.015266 4.540503 1.500658
C 2.951897 3.972853 1.048489
C 3.407936 4.430989 1.038545
C 3.535312 3.943698 1.542388
C 3.021074 4.460233 1.578438
C 3.984567 4.060284 1.046653
C 4.563649 4.483715 1.021631
C 4.409808 3.939134 1.455928
C 3.890780 4.453352 1.497985
C 5.028073 4.019497 1.050246
C 5.517180 4.389568 0.998752
C 5.449265 4.080343 1.499359
C 5.096088 4.561356 1.519167
C 5.944840 3.975299 1.108013
C 6.491485 4.435396 1.067058
C 6.441103 3.906206 1.553898
C 6.073559 4.495923 1.498575
C 6.938796 3.995519 1.019101
C 7.458183 4.414873 0.918548
C 7.429126 3.966380 1.539810
C 6.968382 4.412514 1.490462
C 0.052584 4.953538 0.946280
C 0.488597 5.583690 0.939685
C 0.499351 5.086779 1.431069
C 0.089257 5.475048 1.569412
C 0.978286 4.920152 0.991494
C 1.558127 5.581309 1.072793
C 1.464990 4.989108 1.466184
C 1.025999 5.519584 1.402584
C 2.063321 4.976939 1.065273
C 2.443099 5.566480 0.981300
C 2.526399 4.990639 1.573780
C 2.075002 5.486848 1.453586
C 3.006010 5.057797 1.049944
C 3.466890 5.505063 1.024969
C 3.469866 5.038067 1.473724
C 3.008128 5.435803 1.518716
C 3.913834 5.074999 1.003673
C 4.473068 5.495487 0.932543
C 4.555431 4.996816 1.566709
C 4.046969 5.488430 1.455921
C 5.059067 4.985351 1.065957
C 5.411434 5.449716 0.961319
C 5.529136 5.119874 1.429478
C 4.934451 5.514178 1.414769
C 5.980389 5.032626 1.083393
C 6.495699 5.566470 0.918904
C 6.493615 5.019964 1.410348
C 5.948218 5.548513 1.503272
C 7.084649 5.017721 1.031107
C 7.461812 5.498058 1.019386
C 7.424821 4.967996 1.600039
C 7.057591 5.467633 1.511721
C 0.027623 6.144719 0.968601
C 0.503723 6.468642 0.925860
C 0.470249 5.933440 1.501896
C 0.010058 6.446825 1.448788
C 0.979847 5.996082 1.063613
C 1.477266 6.449814 0.960446
C 1.461378 6.057877 1.423971
C 0.949598 6.447634 1.539951
C 1.988267 6.009752 0.934641
C 2.484865 6.572604 0.969977
C 2.483092 6.039403 1.420733
C 2.019629 6.504976 1.454273
C 2.914322 5.941671 0.978814
C 3.448321 6.443877 0.994892
C 3.571306 5.973834 1.501640
C 3.029961 6.439877 1.593751
C 4.002796 5.906962 0.991821
C 4.418270 6.520263 1.016839
C 4.564198 5.998202 1.505768
C 3.943783 6.470929 1.428022
C 4.976833 6.047367 0.988720
C 5.447418 6.487887 1.042466
C 5.486046 5.947078 1.461550
C 4.942533 6.531293 1.497702
C 5.993487 6.007797 0.926358
C 6.449471 6.448316 1.061950
C 6.476356 5.959379 1.540576
C 5.951818 6.490464 1.489454
C 6.904997 5.920611 1.043956
C 7.484884 6.568243 0.994605
C 7.465451 5.939690 1.564399
C 7.063891 6.463579 1.492530
C 0.120287 6.997602 1.026746
C 0.510511 7.410556 0.869675
C 0.540332 6.983993 1.493627
C 0.084486 7.483269 1.437012
C 0.946976 7.047571 0.997286
C 1.482564 7.493006 1.130572
C 1.520666 7.002854 1.413016
C 0.920472 7.490876 1.486988
C 1.954800 6.880466 0.985023
C 2.542018 7.483219 1.002269
C 2.528428 6.959751 1.505161
C 1.989639 7.448139 1.566930
C 2.986477 7.033903 0.951737
C 3.451393 7.476112 0.959215
C 3.522417 6.931738 1.455402
C 2.969000 7.407061 1.467519
C 4.094647 7.011714 1.043269
C 4.567442 7.487946 1.052030
C 4.610258 7.005573 1.437446
C 4.049889 7.468101 1.489880
C 5.059973 7.058002 1.011160
C 5.530035 7.472249 1.033113
C 5.424579 6.971657 1.541467
C 4.991907 7.490452 1.530549
C 6.003168 7.053248 1.052268
C 6.536830 7.478450 1.013865
C 6.527957 7.038054 1.441602
C 6.054250 7.495035 1.477631
C 6.985969 6.892732 1.067521
C 7.372030 7.392845 1.103243
C 7.411291 6.946140 1.564108
C 6.974873 7.451016 1.644311
C 0.017288 0.054031 2.115799
C 0.578322 0.448068 1.988974
C 0.494002 0.053130 2.459564
C 0.024215 0.530589 2.443722
C 1.031498 0.046113 1.920419
C 1.464920 0.482313 1.944604
C 1.514103 0.083469 2.531569
C 0.946989 0.597034 2.436597
C 2.077761 0.024511 1.982770
C 2.428552 0.516193 1.993219
C 2.460023 0.027925 2.505539
C 1.949158 0.534886 2.591741
C 2.981458 0.016813 2.105593
C 3.443053 0.456024 1.975148
C 3.525072 0.037765 2.402007
C 2.968895 0.553873 2.541120
C 4.015288 0.112437 2.071115
C 4.466378 0.466285 1.922753
C 4.525721 0.017074 2.473035
C 3.953278 0.510239 2.539355
C 5.063151 0.013677 2.030699
C 5.555726 0.480182 2.050941
C 5.518066 0.006195 2.483827
C 5.022622 0.436152 2.495422
C 5.955677 0.052095 1.954436
C 6.420957 0.491082 1.932755
C 6.431457 0.064552 2.414341
C 5.963905 0.421820 2.522297
C 6.977582 0.035036 2.087697
C 7.379745 0.519757 2.023470
C 7.451977 0.053169 2.351304
C 6.936123 0.569711 2.596040
C 0.039173 1.052721 1.889329
C 0.400584 1.518348 1.982284
C 0.457644 0.953102 2.522570
C 0.060242 1.413573 2.473654
C 0.939995 1.047467 2.023581
C 1.416405 1.491328 1.955405
C 1.447336 0.952882 2.443359
C 0.965940 1.480817 2.566678
C 1.976172 1.116872 2.000237
C 2.541218 1.575348 2.066423
C 2.386038 0.971549 2.481888
C 2.036574 1.487182 2.528695
C 3.059636 0.947440 1.993573
C 3.484429 1.464610 2.035437
C 3.539389 0.948676 2.435695
C 2.983451 1.452792 2.412114
C 3.931598 1.022168 1.986977
C 4.399126 1.497830 1.983383
C 4.557338 1.040872 2.532336
C 4.050608 1.575648 2.542143
C 5.040593 1.079068 2.009485
C 5.413764 1.562574 2.039348
C 5.500008 0.902638 2.488344
C 5.027358 1.521019 2.499151
C 6.049891 1.044880 2.029434
C 6.537397 1.508030 1.975629
C 6.441254 0.971928 2.610516
C 6.049457 1.446571 2.501317
C 6.918642 0.982956 1.919785
C 7.478918 1.426045 1.926911
C 7.480957 0.962333 2.481475
C 7.038764 1.560777 2.580930
C 0.007292 2.024047 1.950166
C 0.523747 2.492514 1.917909
C 0.458305 1.951577 2.528522
C 0.090015 2.437701 2.537845
C 1.100656 1.987826 2.031450
C 1.517920 2.584709 2.013949
C 1.491307 1.887350 2.451253
C 0.939429 2.509516 2.489321
C 2.071133 1.957254 1.984836
C 2.526738 2.408367 2.000848
C 2.507810 1.978242 2.627623
C 1.968486 2.447875 2.467564
C 2.985759 1.949509 1.971065
C 3.510674 2.509303 1.945088
C 3.517837 1.936933 2.509823
C 2.941168 2.447039 2.506206
C 4.021246 2.037304 1.977919
C 4.441142 2.506651 2.013789
C 4.547869 1.979538 2.562738
C 3.961389 2.428121 2.475153
C 4.966821 1.924233 1.917793
C 5.471345 2.461299 1.994569
C 5.548470 1.985242 2.459633
C 5.020256 2.418474 2.447881
C 6.077979 2.034483 1.996436
C 6.450697 2.538368 2.024021
C 6.495891 2.046134 2.512111
C 6.026673 2.432945 2.501958
C 6.954134 1.929009 2.099927
C 7.498127 2.472399 2.030977
C 7.473053 1.991394 2.518895
C 7.005739 2.538359 2.607024
C 0.032858 2.909092 2.067858
C 0.550004 3.471623 2.077227
C 0.450840 3.022904 2.447566
C 0.000094 3.452544 2.466968
C 0.950988 3.008224 2.096405
C 1.460273 3.476311 2.007788
C 1.529772 2.960847 2.491275
C 0.920772 3.523030 2.566387
C 2.018183 3.000208 1.922488
C 2.528012 3.431280 1.959361
C 2.530077 2.973516 2.567329
C 1.901428 3.507316 2.535411
C 2.996464 3.099088 2.033139
C 3.555283 3.517602 2.035686
C 3.451412 3.055481 2.529005
C 3.022632 3.516373 2.519213
C 4.079350 2.985758 1.953611
C 4.498243 3.540834 1.953251
C 4.477232 3.023234 2.431651
C 4.040906 3.480965 2.392727
C 4.892877 2.976548 1.971783
C 5.520749 3.406371 2.021110
C 5.539513 2.849841 2.527300
C 4.958701 3.453695 2.514320
C 6.009236 2.964998 2.070634
C 6.507283 3.506112 2.069183
C 6.476655 3.043959 2.549893
C 5.982591 3.438077 2.410014
C 7.036602 3.076994 1.969094
C 7.498208 3.476888 1.886434
C 7.454753 3.000848 2.454984
C 7.036685 3.504179 2.525408
C 0.019361 3.983717 2.067644
C 0.501668 4.427052 2.032167
C 0.511885 3.949683 2.391186
C 0.084459 4.427618 2.520257
C 0.983907 3.962864 2.031446
C 1.504640 4.449020 2.068022
C 1.559651 3.964567 2.434207
C 1.094360 4.504109 2.542436
C 1.957872 3.977218 1.953776
C 2.542553 4.439938 1.942324
C 2.509256 4.113078 2.435834
C 2.056118 4.524601 2.499833
C 3.012288 3.986317 2.088901
C 3.474083 4.505431 2.091289
C 3.552839 4.044011 2.514578
C 2.966288 4.405505 2.540297
C 4.024526 4.056874 1.930721
C 4.481165 4.451778 1.965322
C 4.460110 3.917399 2.471681
C 3.984316 4.487693 2.515173
C 5.052712 3.931981 1.979605
C 5.529581 4.542254 2.010689
C 5.428796 4.053768 2.581815
C 4.973216 4.522459 2.448073
C 6.002242 3.960922 1.966976
C 6.464699 4.407676 1.929208
C 6.504189 3.955769 2.513500
C 6.028533 4.494952 2.590135
C 7.018359 4.012268 1.989273
C 7.415483 4.519716 2.033845
C 7.494413 3.904126 2.447668
C 6.890071 4.531969 2.531708
C 0.019531 4.978372 1.897708
C 0.468383 5.439129 2.058553
C 0.457701 5.060972 2.547599
C 0.043468 5.605307 2.546144
C 1.005748 5.006894 1.994494
C 1.473888 5.511457 1.937873
C 1.502670 5.016958 2.425529
C 1.027456 5.491006 2.455438
C 1.997518 5.049556 2.072949
C 2.550584 5.524388 1.994824
C 2.447502 4.994885 2.530767
C 1.937967 5.473576 2.515991
C 3.018405 4.994286 1.962318
C 3.469121 5.607496 2.005709
C 3.487828 5.018071 2.534276
C 3.021698 5.414066 2.521557
C 3.929344 4.986465 2.081785
C 4.490347 5.508769 2.064607
C 4.440613 5.041183 2.522965
C 3.987788 5.471494 2.448798
C 5.068893 4.979707 2.081495
C 5.567539 5.446535 1.930376
C 5.478998 5.027574 2.542293
C 4.943529 5.481551 2.524738
C 6.056281 4.900494 2.009831
C 6.473781 5.439222 2.060052
C 6.500485 4.986399 2.605472
C 6.062546 5.450904 2.524026
C 6.895438 4.927532 2.069767
C 7.431263 5.400324 2.055092
C 7.430808 4.896656 2.594313
C 7.086356 5.529667 2.490298
C 0.085577 5.966785 2.002902
C 0.416098 6.458737 2.024534
C 0.465773 6.058215 2.473882
C 0.055597 6.501960 2.544715
C 1.024980 5.998408 2.068130
C 1.454554 6.516479 1.992366
C 1.510898 6.018294 2.464848
C 0.983540 6.533337 2.376246
C 2.063156 6.068684 1.990495
C 2.540441 6.517602 2.058828
C 2.524520 5.989929 2.465881
C 2.009404 6.531421 2.415125
C 2.993634 6.064299 2.077533
C 3.473696 6.533517 2.077507
C 3.547984 6.042788 2.440501
C 2.918705 6.451206 2.528648
C 3.980577 5.935853 2.045787
C 4.502430 6.493213 2.052941
C 4.509102 5.990787 2.514999
C 3.910942 6.477218 2.544954
C 5.052262 5.943498 1.919433
C 5.450849 6.499743 2.033755
C 5.433810 5.996012 2.571065
C 4.995258 6.458899 2.469347
C 5.948728 5.958281 1.956857
C 6.498243 6.448263 2.076317
C 6.592468 5.920696 2.496928
C 5.985664 6.495792 2.602350
C 6.991663 5.969036 2.024111
C 7.420977 6.468526 2.002401
C 7.475103 6.057929 2.456460
C 6.964151 6.510846 2.446049
C 0.026396 7.050368 1.898815
C 0.495793 7.436032 1.919988
C 0.514996 7.039014 2.595803
C 0.092898 7.391637 2.467085
C 1.007323 7.000495 2.103607
C 1.579182 7.453351 2.030608
C 1.473638 6.953281 2.462195
C 1.023923 7.495531 2.567757
C 2.030860 6.972533 1.909266
C 2.480947 7.448513 2.010792
C 2.561812 7.048460 2.478017
C 2.013001 7.480749 2.497515
C 2.920488 6.971132 1.974859
C 3.459192 7.421281 2.077584
C 3.570157 7.068063 2.523076
C 3.103671 7.459366 2.548145
C 3.922455 7.039465 1.981439
C 4.450983 7.469519 1.954656
C 4.460434 6.960659 2.483107
C 3.990043 7.481755 2.430537
C 4.965860 6.958356 1.946120
C 5.477952 7.425885 2.076177
C 5.463663 7.018763 2.530443
C 4.946419 7.391040 2.446411
C 5.981905 6.950822 2.026737
C 6.389193 7.443533 1.993405
C 6.464365 6.964985 2.528314
C 5.892129 7.487676 2.512044
C 6.976985 6.977731 2.021492
C 7.463966 7.437045 1.948922
C 7.488085 7.061816 2.513951
C 6.968392 7.412406 2.574758
C 0.062342 0.003944 2.988003
C 0.459380 0.481188 2.934523
C 0.584594 0.050703 3.554827
C 0.080229 0.515039 3.477501
C 1.033397 0.100463 2.968912
C 1.472385 0.579314 2.948512
C 1.430616 0.084937 3.447585
C 0.954883 0.499633 3.434468
C 1.996196 0.035041 2.953385
C 2.520930 0.468219 2.909010
C 2.439285 0.011531 3.450815
C 2.056851 0.534133 3.521350
C 3.060502 0.056213 2.932992
C 3.471238 0.546088 2.917262
C 3.493378 0.035157 3.504230
C 3.046017 0.492572 3.547136
C 3.940530 0.003546 2.895896
C 4.447726 0.529406 3.060822
C 4.455548 0.047495 3.364398
C 3.964887 0.494114 3.374424
C 4.963383 0.002483 3.043275
C 5.460972 0.508812 3.000717
C 5.497491 0.069137 3.462513
C 4.997954 0.576332 3.456842
C 5.957907 0.001187 3.030553
C 6.530019 0.428418 2.982996
C 6.600932 0.016834 3.490624
C 5.921243 0.570777 3.528813
C 7.050372 0.073900 2.897434
C 7.480115 0.437913 2.998703
C 7.450011 0.004846 3.540147
C 7.050735 0.467353 3.508109
C 0.001255 1.075246 3.113192
C 0.454604 1.415187 2.946280
C 0.469449 1.018644 3.456142
C 0.066919 1.558891 3.485235
C 1.020405 0.987286 2.921223
C 1.557988 1.483390 2.935538
C 1.588502 0.987830 3.479096
C 1.073436 1.479866 3.538898
C 2.059527 0.951420 2.957478
C 2.515614 1.431085 2.986649
C 2.543532 0.982838 3.492269
C 2.080973 1.480542 3.429571
C 2.985800 0.906394 3.069940
C 3.532938 1.461614 2.953934
C 3.469300 0.976302 3.547746
C 3.007657 1.531621 3.506682
C 4.013146 1.022023 3.097062
C 4.498969 1.522099 2.962435
C 4.597139 1.039771 3.493973
C 3.898143 1.449710 3.465486
C 5.054255 1.123411 3.053430
C 5.529076 1.442439 2.911259
C 5.514716 1.076445 3.497443
C 5.003589 1.467034 3.579253
C 5.952214 0.949143 2.999068
C 6.593526 1.494268 3.004666
C 6.551947 0.938055 3.495350
C 6.101277 1.466680 3.542706
C 6.999369 1.023281 2.879807
C 7.497643 1.383686 2.994652
C 7.469193 0.968019 3.558398
C 6.999839 1.542481 3.510217
C 0.006294 2.076707 3.060614
C 0.573648 2.555945 3.014883
C 0.495618 2.021569 3.437462
C 0.013798 2.598683 3.536599
C 0.920041 1.986372 2.997462
C 1.575034 2.538016 3.076210
C 1.570812 2.021302 3.460052
C 0.947268 2.441702 3.482103
C 2.013036 1.941280 2.987599
C 2.534718 2.526260 3.009583
C 2.518891 2.026650 3.452109
C 2.055559 2.558593 3.461666
C 3.010360 1.937571 3.046620
C 3.493414 2.544314 2.987716
C 3.448116 1.975043 3.557145
C 3.003621 2.538960 3.590362
C 3.932030 2.054315 2.966817
C 4.375425 2.498230 3.050818
C 4.587873 2.091513 3.485130
C 3.995306 2.523113 3.605202
C 5.063127 1.977400 2.974880
C 5.547827 2.467433 3.067964
C 5.419578 1.971927 3.503630
C 5.053209 2.503263 3.420750
C 6.024822 1.993153 3.057141
C 6.372606 2.496823 3.024421
C 6.549715 2.024697 3.453631
C 5.962458 2.444976 3.597332
C 6.944951 2.065335 2.929979
C 7.468151 2.462060 2.903950
C 7.496192 2.022144 3.584943
C 7.000984 2.521989 3.497159
C 0.015216 3.044253 3.060266
C 0.522007 3.552910 3.101430
C 0.467981 3.096902 3.485260
C 0.050312 3.547458 3.556953
C 0.935585 3.051357 3.014120
C 1.629771 3.454003 2.988181
C 1.508515 3.013324 3.380197
C 0.988048 3.449553 3.530463
C 2.017068 2.976569 2.908627
C 2.463037 3.532248 2.930723
C 2.450949 3.021768 3.522952
C 1.969360 3.439987 3.469319
C 3.022918 3.058800 2.973105
C 3.539313 3.396669 3.041436
C 3.538167 2.959295 3.488135
C 2.954791 3.486753 3.565978
C 4.059777 2.985819 3.079662
C 4.521200 3.504876 2.965028
C 4.537997 3.017859 3.536536
C 3.960791 3.460277 3.523349
C 5.004197 3.011685 3.044415
C 5.515177 3.571834 3.033420
C 5.541773 2.962075 3.461931
C 5.027888 3.498292 3.410647
C 5.945304 2.931501 2.982335
C 6.437233 3.575602 2.962435
C 6.419735 2.967947 3.571790
C 6.044511 3.525454 3.470155
C 7.001465 3.077040 3.039950
C 7.493762 3.461593 3.045306
C 7.456669 2.890760 3.412105
C 6.973655 3.506592 3.477105
C 0.021418 3.959773 2.938675
C 0.527374 4.458442 2.963713
C 0.601101 3.949127 3.546779
C 0.000083 4.586142 3.546538
C 1.091211 4.022396 3.025346
C 1.568028 4.444837 2.948919
C 1.555301 4.000085 3.532554
C 0.997258 4.426454 3.532300
C 2.001222 3.990621 2.912370
C 2.505721 4.469013 2.922181
C 2.510089 3.947840 3.516167
C 1.990927 4.404273 3.456176
C 2.982707 4.039955 3.010973
C 3.437270 4.477541 2.986935
C 3.568597 4.080590 3.452277
C 3.041420 4.492301 3.468965
C 4.005230 3.986847 3.025438
C 4.429621 4.560259 2.981521
C 4.453192 3.992946 3.532484
C 4.003763 4.512203 3.456461
C 4.921684 3.990733 2.968144
C 5.430142 4.552519 2.963539
C 5.584588 3.926325 3.521257
C 5.024982 4.412340 3.505134
C 5.916807 4.085452 3.052975
C 6.486157 4.428691 2.964938
C 6.512125 3.931176 3.438775
C 6.048973 4.421879 3.481905
C 6.983917 3.978594 3.010380
C 7.487071 4.434263 2.863991
C 7.437272 4.027673 3.445991
C 6.945426 4.477198 3.594430
C 0.045964 4.966104 3.085446
C 0.512162 5.557780 2.964143
C 0.510962 4.986105 3.513925
C 0.040090 5.566201 3.558517
C 0.903661 5.023892 3.002766
C 1.539670 5.553139 3.018205
C 1.503547 5.065549 3.453829
C 0.981532 5.431331 3.436880
C 1.899740 4.998989 3.002229
C 2.547700 5.560419 3.039573
C 2.584549 5.044601 3.567047
C 1.995046 5.513947 3.471975
C 3.044138 4.952772 2.938114
C 3.466987 5.564886 3.088356
C 3.396432 4.984870 3.458300
C 3.045611 5.576150 3.568841
C 3.927709 5.030773 3.004255
C 4.484795 5.444588 3.029734
C 4.522375 5.099317 3.558583
C 3.934661 5.466443 3.437133
C 4.987270 5.076372 2.982823
C 5.569572 5.502431 2.923541
C 5.583155 5.008090 3.455433
C 5.004013 5.444983 3.544487
C 5.958382 5.042074 2.952165
C 6.430534 5.547626 2.993384
C 6.480310 5.035023 3.505878
C 6.015073 5.460423 3.504853
C 6.980658 5.033125 3.057982
C 7.471022 5.470821 2.965971
C 7.399851 4.933079 3.477692
C 6.970377 5.457160 3.505237
C 0.042785 5.994998 3.038413
C 0.500504 6.398115 3.004091
C 0.526721 5.962553 3.555358
C 0.047244 6.489758 3.538393
C 1.016978 5.904486 3.007207
C 1.597158 6.556063 3.048397
C 1.544816 5.988710 3.598034
C 1.045040 6.476526 3.556105
C 1.995450 5.976779 3.076775
C 2.459465 6.417646 2.918997
C 2.417902 6.056766 3.515008
C 2.072187 6.514261 3.598599
C 2.935168 6.044164 3.010556
C 3.436965 6.520354 2.998168
C 3.601994 5.954194 3.522419
C 3.002721 6.601275 3.494574
C 4.023450 6.038749 3.061530
C 4.521572 6.415218 2.957914
C 4.433051 6.043408 3.522909
C 4.061775 6.514219 3.523815
C 4.981784 6.015567 3.062247
C 5.547563 6.479532 3.073908
C 5.549292 6.014753 3.491883
C 5.061894 6.469788 3.433610
C 5.914754 6.016635 3.005629
C 6.580108 6.429223 3.001263
C 6.455229 5.978758 3.543912
C 6.097263 6.449773 3.427183
C 6.975937 5.916249 2.996727
C 7.432799 6.476871 2.935719
C 7.477584 6.012634 3.380493
C 6.930383 6.559695 3.502911
C 0.010318 6.934162 3.008203
C 0.375669 7.428561 2.977567
C 0.521549 7.046319 3.407351
C 0.069941 7.441335 3.474278
C 0.964937 6.935155 2.912953
C 1.480485 7.447585 3.014410
C 1.489911 6.902565 3.508287
C 0.998399 7.429999 3.448873
C 2.015918 6.938328 2.901331
C 2.603935 7.434428 2.981293
C 2.533768 6.963154 3.434711
C 2.015348 7.447006 3.545881
C 2.949081 6.911076 2.956879
C 3.573710 7.494164 3.004445
C 3.492414 6.981642 3.545923
C 3.059429 7.440369 3.468127
C 3.991755 7.036851 3.025541
C 4.483505 7.432871 3.003255
C 4.478823 6.970583 3.504864
C 4.094936 7.494961 3.581174
C 4.993062 6.995964 2.926487
C 5.434193 7.492506 2.976949
C 5.515303 6.954471 3.427604
C 4.924709 7.485269 3.422934
C 5.971637 7.062213 2.997103
C 6.467628 7.420096 3.028397
C 6.516568 7.037031 3.532959
C 6.008800 7.465628 3.471211
C 6.964386 6.960873 2.990570
C 7.468748 7.471021 2.992912
C 7.419265 6.953875 3.420937
C 6.935844 7.488081 3.514654
C 0.024424 0.025366 4.094594
C 0.560277 0.448145 4.070420
C 0.509278 0.032617 4.568064
C 0.088162 0.486404 4.497451
C 1.053142 0.039465 3.952219
C 1.592983 0.449101 3.929904
C 1.415703 0.032325 4.424530
C 0.971321 0.541062 4.479386
C 2.095817 0.057746 4.026272
C 2.540584 0.494420 3.942587
C 2.508364 0.019873 4.538660
C 2.000064 0.603127 4.406561
C 2.934974 0.028665 3.917624
C 3.554312 0.458041 3.991293
C 3.517239 0.019026 4.448239
C 2.968487 0.492632 4.397422
C 4.051805 0.027319 3.926129
C 4.562726 0.519673 4.081450
C 4.385958 0.006821 4.510577
C 4.014567 0.478165 4.531151
C 5.037615 0.043765 3.948895
C 5.578717 0.599447 4.007989
C 5.479657 0.140017 4.448507
C 5.064065 0.539162 4.560185
C 5.909320 0.021182 3.956881
C 6.527068 0.437532 3.921873
C 6.380136 0.021790 4.441383
C 5.983531 0.543014 4.544193
C 6.957859 0.067680 4.039986
C 7.496249 0.465694 3.932894
C 7.421163 0.083533 4.474627
C 6.989648 0.531824 4.515140
C 0.020074 0.928391 3.931768
C 0.464675 1.509741 3.969064
C 0.482665 1.047181 4.508713
C 0.024762 1.511544 4.496104
C 0.984800 1.052883 3.964545
C 1.601939 1.496745 4.093200
C 1.383050 1.023749 4.488091
C 1.089214 1.499093 4.466106
C 2.012692 1.114669 3.966294
C 2.572339 1.541509 3.975733
C 2.494212 0.996461 4.508735
C 2.047428 1.472447 4.511537
C 2.972323 1.002243 4.058086
C 3.518229 1.548736 3.992419
C 3.450692 0.929261 4.559381
C 3.031814 1.402029 4.529329
C 3.985050 0.899293 3.978660
C 4.538065 1.451363 4.034315
C 4.555010 1.002515 4.487411
C 4.086166 1.551697 4.472422
C 4.945741 0.992513 3.961479
C 5.422678 1.486362 4.059966
C 5.537972 0.944059 4.599052
C 4.923941 1.510854 4.519099
C 6.039143 0.976975 3.943236
C 6.543221 1.444651 4.110078
C 6.523876 0.940410 4.559220
C 5.950509 1.541091 4.446109
C 6.998518 0.958325 3.996308
C 7.490072 1.517705 4.062035
C 7.465767 0.949093 4.554543
C 7.050252 1.534131 4.531097
C 0.001224 1.912818 3.953619
C 0.484554 2.434537 4.071511
C 0.538684 1.948380 4.425420
C 0.049668 2.545863 4.451755
C 0.972807 2.036278 3.976874
C 1.460662 2.566428 3.900194
C 1.517910 1.984062 4.401913
C 1.038385 2.490616 4.496417
C 2.074317 2.040892 3.967709
C 2.384867 2.597455 3.958061
C 2.539886 1.998554 4.503229
C 2.108455 2.523990 4.544119
C 2.948101 2.105945 4.021424
C 3.518743 2.438041 3.972355
C 3.454017 2.067832 4.505764
C 3.070797 2.580899 4.569428
C 3.991014 1.927603 3.938608
C 4.600116 2.467157 3.987356
C 4.548083 2.012056 4.484934
C 4.079698 2.526572 4.446531
C 5.045911 2.058157 4.094342
C 5.531568 2.414166 4.052042
C 5.479024 1.871050 4.529986
C 5.079915 2.502731 4.513880
C 6.033072 1.966393 4.006886
C 6.528553 2.563826 3.981921
C 6.448637 1.965917 4.548696
C 5.991462 2.410248 4.507654
C 7.080494 1.981198 4.061844
C 7.447060 2.456247 4.104514
C 7.482668 2.022201 4.554280
C 6.934490 2.500636 4.503189
C 0.112929 3.035483 3.959515
C 0.526927 3.487302 4.032162
C 0.469423 3.004055 4.475267
C 0.063984 3.598004 4.472902
C 1.002814 2.960838 4.064318
C 1.429846 3.421491 4.012973
C 1.518262 2.964044 4.440930
C 0.986208 3.481992 4.440588
C 1.980997 3.056921 4.031486
C 2.463579 3.619577 4.002327
C 2.538906 2.942742 4.483636
C 1.973342 3.601667 4.486346
C 3.073940 3.067896 3.964966
C 3.527589 3.520920 4.075299
C 3.586540 3.063271 4.520053
C 2.954549 3.530280 4.397124
C 4.096111 3.015375 4.019172
C 4.515057 3.513187 4.046507
C 4.485845 3.008401 4.506689
C 3.994518 3.512340 4.552694
C 4.982914 2.966763 4.075478
C 5.479413 3.504680 3.987380
C 5.563576 2.953831 4.539601
C 5.057228 3.477306 4.537170
C 6.042618 3.055471 4.060272
C 6.442834 3.456228 3.918077
C 6.446372 2.986444 4.586687
C 5.952364 3.479314 4.463291
C 7.018744 2.971188 3.936618
C 7.404590 3.521657 3.942058
C 7.489326 2.953273 4.414566
C 7.022867 3.404108 4.555002
C 0.060275 4.121367 4.017751
C 0.523096 4.505566 3.911814
C 0.519524 4.014128 4.402507
C 0.058314 4.407224 4.542027
C 1.048659 3.912416 4.001225
C 1.419380 4.494260 3.989671
C 1.387660 4.012337 4.510961
C 1.066499 4.529975 4.550460
C 1.989068 4.043581 4.034825
C 2.485626 4.451528 3.969778
C 2.540868 3.976932 4.461658
C 1.952064 4.537047 4.581511
C 2.984518 4.018088 4.029972
C 3.492338 4.467393 3.924167
C 3.506010 3.994473 4.468556
C 2.959387 4.515638 4.506630
C 4.000564 4.070501 3.987361
C 4.481928 4.452285 3.946331
C 4.525880 4.107412 4.500117
C 3.990651 4.453152 4.471584
C 5.106489 3.979198 3.993213
C 5.494306 4.446270 4.115520
C 5.528496 3.975541 4.483354
C 4.992620 4.574215 4.515741
C 5.966366 3.953201 4.009145
C 6.467714 4.553990 4.074553
C 6.456669 4.018705 4.574512
C 6.014943 4.607920 4.503560
C 6.898987 4.000111 4.011051
C 7.444020 4.478056 4.003274
C 7.383794 4.002101 4.487324
C 6.961076 4.514662 4.522842
C 0.009956 5.108479 3.998744
C 0.472449 5.540081 3.999971
C 0.549376 5.007897 4.534885
C 0.086830 5.449048 4.539014
C 0.973688 4.907242 4.039223
C 1.472528 5.462233 3.926629
C 1.444067 5.010821 4.466904
C 1.004173 5.457534 4.452802
C 2.008163 5.000658 3.930347
C 2.409270 5.439398 4.048487
C 2.528264 5.000986 4.428661
C 1.923929 5.527931 4.585042
C 2.967222 4.921159 3.987679
C 3.486407 5.500710 4.011913
C 3.438000 4.949435 4.533147
C 2.958321 5.515731 4.399157
C 3.955162 4.929184 3.960086
C 4.508553 5.482926 4.032867
C 4.469417 4.981719 4.498877
C 4.027389 5.430908 4.443310
C 4.999798 4.902333 3.938387
C 5.433242 5.422781 4.023587
C 5.496687 4.970864 4.403196
C 4.925091 5.481022 4.505851
C 5.965889 5.005771 3.981174
C 6.416006 5.479833 3.980914
C 6.483616 5.018700 4.490273
C 5.977560 5.526722 4.561855
C 6.977812 5.019891 4.047537
C 7.487560 5.523671 4.018485
C 7.417732 4.952773 4.456101
C 6.934104 5.531043 4.499697
C 0.080886 5.972321 4.095468
C 0.422124 6.481776 4.010883
C 0.566365 6.060247 4.442163
C 0.067663 6.582758 4.561776
C 0.963037 5.952786 4.036242
C 1.450075 6.519600 4.068826
C 1.521157 6.011565 4.457785
C 0.948745 6.562216 4.528867
C 2.071234 5.931630 4.071516
C 2.558521 6.505801 3.970160
C 2.544075 5.961991 4.462828
C 2.045968 6.550112 4.558928
C 3.035499 6.006425 4.115330
C 3.535024 6.413872 3.977553
C 3.513201 6.041599 4.527949
C 2.930185 6.437775 4.432486
C 4.065471 5.945333 4.065715
C 4.576808 6.520154 3.959004
C 4.486562 6.047376 4.477976
C 3.999848 6.571585 4.469222
C 4.982321 5.944622 4.112172
C 5.427321 6.465497 3.941022
C 5.600670 5.993466 4.491994
C 4.941695 6.527980 4.469748
C 5.928056 5.938637 3.991487
C 6.412655 6.507708 4.005583
C 6.448867 5.944165 4.470018
C 6.003334 6.448461 4.449637
C 6.997280 5.898481 3.989274
C 7.474175 6.647980 4.033800
C 7.474984 5.931995 4.545902
C 6.976040 6.588858 4.434169
C 0.041561 6.969275 3.869241
C 0.479419 7.493271 3.920641
C 0.463399 7.028180 4.374167
C 0.046560 7.496499 4.527156
C 0.953430 6.940968 4.032692
C 1.552225 7.365556 4.070448
C 1.409400 6.990888 4.475402
C 1.101278 7.476950 4.512555
C 1.987865 6.978855 3.913663
C 2.460207 7.404746 3.975843
C 2.467409 7.064793 4.572703
C 2.033781 7.425889 4.463919
C 2.991854 6.946608 4.001203
C 3.556075 7.476804 3.952606
C 3.461651 7.053407 4.553407
C 2.975211 7.470784 4.496847
C 3.996643 7.048701 3.894390
C 4.577481 7.476011 4.091773
C 4.462115 7.078863 4.491820
C 3.987951 7.478578 4.560335
C 5.061202 6.966146 3.960295
C 5.491662 7.413053 4.009459
C 5.501558 7.083351 4.514417
C 5.010832 7.460996 4.527161
C 5.932140 6.947872 3.912293
C 6.518042 7.447569 3.987253
C 6.457891 6.948054 4.527884
C 6.046534 7.486605 4.416220
C 7.053992 7.012101 3.925600
C 7.493752 7.483875 4.039885
C 7.470485 6.931341 4.518673
C 7.080836 7.481777 4.535575
C 0.089640 0.085996 5.076715
C 0.509883 0.579355 5.022793
C 0.524381 0.101999 5.596881
C 0.065023 0.574809 5.552667
C 0.995050 0.011874 5.017563
C 1.541032 0.501555 4.998062
C 1.534281 0.144830 5.482038
C 1.076399 0.513555 5.547319
C 1.937330 0.054605 4.886394
C 2.511135 0.517458 4.903783
C 2.545125 0.017877 5.382820
C 2.026598 0.437077 5.453598
C 3.099598 0.103027 4.970753
C 3.540847 0.465874 4.877828
C 3.431231 0.020387 5.457606
C 2.928433 0.482349 5.471730
C 3.966084 0.095523 4.989715
C 4.452825 0.511675 4.975282
C 4.536592 0.077836 5.473625
C 4.018431 0.533059 5.422289
C 5.007135 0.000946 5.131641
C 5.477642 0.443703 4.965774
C 5.441277 0.099252 5.564695
C 5.061167 0.566633 5.515903
C 5.951194 0.075985 4.965990
C 6.523879 0.424296 4.933450
C 6.555170 0.050415 5.577536
C 5.945799 0.465607 5.439236
C 7.080465 0.006327 5.056923
C 7.492427 0.487591 4.982227
C 7.439991 0.082079 5.565999
C 7.007579 0.466545 5.427738
C 0.009154 0.923544 5.005325
C 0.446875 1.490094 5.030900
C 0.433898 1.035983 5.459069
C 0.125645 1.538508 5.507815
C 1.026928 0.957394 4.956991
C 1.523670 1.486069 5.053418
C 1.433498 0.982728 5.463380
C 0.916549 1.458305 5.423887
C 2.030945 0.912716 5.022711
C 2.505215 1.482254 4.924421
C 2.564433 1.003267 5.459460
C 2.014803 1.525897 5.582581
C 2.973259 0.919766 4.914606
C 3.443092 1.433903 4.995023
C 3.555751 1.062173 5.502001
C 2.993739 1.479452 5.546625
C 3.880139 0.967501 5.000345
C 4.466757 1.501774 4.954732
C 4.439330 0.925940 5.517530
C 4.034303 1.440832 5.487130
C 5.009379 1.016273 5.018736
C 5.516140 1.580988 5.005778
C 5.476481 1.014875 5.422256
C 5.063310 1.496540 5.445482
C 5.947646 1.019626 5.033440
C 6.545261 1.557556 4.961890
C 6.520945 1.037647 5.422915
C 5.907194 1.466021 5.447313
C 6.968410 1.069330 5.004808
C 7.483241 1.515712 4.963176
C 7.460089 0.977573 5.506610
C 6.989093 1.584234 5.434659
C 0.026723 1.978874 4.918889
C 0.425815 2.498088 4.953045
C 0.452312 1.983256 5.420825
C 0.008213 2.545115 5.527436
C 1.040639 1.932024 5.003659
C 1.560334 2.488313 4.994437
C 1.410447 1.932079 5.488625
C 0.997906 2.512729 5.483774
C 1.988014 1.993530 5.072724
C 2.398368 2.555801 5.035880
C 2.427866 1.934961 5.484921
C 1.985710 2.530154 5.508688
C 2.909143 2.024950 5.054711
C 3.527894 2.410767 4.989847
C 3.458568 1.915386 5.477128
C 3.055289 2.454169 5.396860
C 4.035639 1.969718 4.945654
C 4.433225 2.478814 5.065838
C 4.511274 1.983924 5.383474
C 3.956582 2.419878 5.488354
C 5.034711 1.933106 4.930778
C 5.549537 2.413713 4.937365
C 5.565929 1.934889 5.503715
C 5.018986 2.567572 5.464754
C 5.979364 2.025193 5.044375
C 6.542953 2.549228 5.026856
C 6.491427 1.931765 5.420607
C 6.051121 2.526262 5.475560
C 6.998660 2.012727 4.908683
C 7.445147 2.399798 5.025208
C 7.470327 1.889210 5.469974
C 6.987047 2.419123 5.511616
C 0.017744 3.054893 4.949989
C 0.460600 3.523951 5.014493
C 0.490564 2.970352 5.574044
C 0.010611 3.490066 5.428323
C 0.986119 2.944943 5.039954
C 1.528709 3.454851 5.031173
C 1.515813 2.970142 5.417113
C 0.943123 3.470576 5.497616
C 1.981953 3.034331 5.103697
C 2.489846 3.566523 4.976687
C 2.451772 3.014073 5.479902
C 1.887124 3.510434 5.546933
C 3.032505 3.050912 5.058033
C 3.509247 3.424199 5.007377
C 3.395475 2.958802 5.502602
C 3.021332 3.512836 5.464008
C 4.005755 3.078436 5.005864
C 4.477465 3.561959 5.002332
C 4.538947 2.996759 5.544397
C 4.032323 3.527190 5.513942
C 5.054815 3.068869 5.002107
C 5.526687 3.379299 4.981229
C 5.516833 2.926855 5.444087
C 5.036946 3.478556 5.476348
C 5.993268 2.996027 5.033012
C 6.429901 3.488380 4.997662
C 6.494539 2.956386 5.511032
C 5.964643 3.532024 5.399601
C 6.933558 2.958772 4.920447
C 7.370202 3.546056 4.963162
C 7.489250 2.969587 5.490398
C 7.020180 3.562439 5.552408
C 0.040166 3.974407 4.980190
C 0.505802 4.575663 5.006841
C 0.519467 3.927298 5.464356
C 0.103713 4.564130 5.467087
C 0.922354 3.986429 4.905929
C 1.576168 4.454888 5.024391
C 1.564037 3.987813 5.539986
C 0.908661 4.463330 5.560011
C 1.983197 3.972429 5.060051
C 2.503183 4.482439 4.983698
C 2.449349 3.917846 5.471327
C 2.006345 4.424155 5.485910
C 3.057467 4.045400 5.010641
C 3.583694 4.546533 4.964909
C 3.480888 3.939385 5.521355
C 2.974208 4.544899 5.595718
C 3.946025 4.007786 4.925567
C 4.524893 4.518167 4.985682
C 4.466147 3.963658 5.554270
C 4.015019 4.451676 5.410849
C 4.938076 4.033550 5.013228
C 5.478341 4.547784 4.967534
C 5.584461 3.963956 5.552242
C 5.006856 4.495332 5.558711
C 5.938017 4.017562 4.942317
C 6.536995 4.509113 4.984882
C 6.529062 3.948636 5.408341
C 5.996820 4.485280 5.469572
C 7.076646 4.047666 5.030279
C 7.390089 4.511426 4.967058
C 7.419776 4.067074 5.535493
C 7.088011 4.563434 5.439961
C 0.029175 4.957480 5.003346
C 0.564943 5.502645 4.911609
C 0.539302 4.991116 5.619093
C 0.004159 5.566595 5.511472
C 0.938599 5.063357 4.997619
C 1.384044 5.498150 5.026662
C 1.446822 5.059976 5.526936
C 0.952219 5.431030 5.548520
C 1.981891 5.045583 5.065872
C 2.478572 5.381996 5.012028
C 2.489870 5.045098 5.509039
C 1.922530 5.551856 5.505148
C 3.005450 4.979793 5.004743
C 3.433959 5.558845 4.918157
C 3.477196 4.943884 5.565741
C 2.938714 5.486611 5.450299
C 4.004109 5.023467 4.945339
C 4.561986 5.550180 4.973670
C 4.574392 4.969830 5.438839
C 3.981203 5.583911 5.514824
C 4.949031 5.040482 4.937274
C 5.498523 5.525052 5.046020
C 5.520613 4.997474 5.487471
C 5.044825 5.401382 5.460360
C 6.082445 5.022554 5.019588
C 6.505484 5.445372 4.932132
C 6.470007 5.081308 5.536996
C 6.006979 5.522768 5.465975
C 7.044857 5.073128 4.934553
C 7.399090 5.426161 5.083275
C 7.475960 5.034933 5.546297
C 6.951009 5.408804 5.537684
C 0.049207 6.046033 4.936922
C 0.491099 6.447093 5.075185
C 0.443124 5.985661 5.568479
C 0.055747 6.438751 5.506699
C 0.986680 6.102783 5.056125
C 1.444658 6.428267 4.983892
C 1.459084 5.974568 5.480187
C 0.982294 6.566378 5.460427
C 2.046028 6.046802 4.897119
C 2.505154 6.428814 5.088861
C 2.531633 5.964531 5.493894
C 2.037065 6.501698 5.582603
C 2.937219 5.971468 4.941484
C 3.448462 6.519336 4.892598
C 3.518349 5.988859 5.477872
C 2.997277 6.476511 5.430238
C 4.012681 6.055875 4.952780
C 4.447601 6.505855 5.065219
C 4.524490 5.961748 5.420168
C 4.084374 6.516887 5.541116
C 4.992978 5.961162 5.043456
C 5.432882 6.559973 4.969853
C 5.543042 6.012293 5.507040
C 4.930903 6.506750 5.440514
C 5.863982 6.003964 4.976928
C 6.401454 6.478030 4.942478
C 6.553814 6.054711 5.586092
C 5.975767 6.547415 5.376286
C 7.040661 6.006476 4.996945
C 7.452513 6.440499 5.089756
C 7.474033 5.988348 5.512092
C 6.945045 6.505987 5.401915
C 0.001207 6.957864 5.060523
C 0.561743 7.427542 4.967211
C 0.506053 6.911000 5.515188
C 0.069794 7.491219 5.371760
C 1.075849 6.926337 4.945507
C 1.498097 7.435151 4.982556
C 1.464391 6.976402 5.445981
C 0.998489 7.449840 5.539138
C 2.010059 7.033313 5.033175
C 2.584518 7.447789 4.971728
C 2.420950 7.018196 5.518454
C 1.980465 7.488460 5.447835
C 2.947003 6.922300 4.988038
C 3.392077 7.489185 4.956676
C 3.466237 6.970400 5.477310
C 3.044844 7.442047 5.559759
C 4.024414 6.980575 4.927394
C 4.484850 7.432058 4.977751
C 4.501354 6.977489 5.507834
C 4.028154 7.490945 5.518219
C 4.949211 6.992088 5.047963
C 5.389829 7.459904 5.006291
C 5.477667 7.015007 5.480580
C 4.972630 7.441226 5.470445
C 6.057982 7.078441 5.035006
C 6.461744 7.481855 4.901338
C 6.501924 7.024560 5.549374
C 5.934886 7.393070 5.535957
C 7.035635 7.000501 4.927194
C 7.481687 7.471403 5.011776
C 7.479630 6.946310 5.438142
C 6.968938 7.487537 5.442840
C 0.067386 0.029218 5.897854
C 0.433777 0.540269 6.023230
C 0.446988 0.020474 6.486555
C 0.005228 0.511201 6.544169
C 1.007622 0.012177 6.001508
C 1.440965 0.499953 6.077129
C 1.594655 0.008612 6.576970
C 1.021958 0.613280 6.543048
C 2.056881 0.075284 5.934192
C 2.578125 0.450188 5.950627
C 2.502125 0.061334 6.510011
C 1.958667 0.520468 6.501682
C 2.971928 0.067162 6.113567
C 3.458162 0.427266 5.950915
C 3.425125 0.027467 6.521932
C 2.934198 0.564663 6.404393
C 3.895935 0.039312 6.037183
C 4.543967 0.527372 5.946486
C 4.487630 0.176243 6.460194
C 4.035697 0.530336 6.552316
C 4.948665 0.041320 5.988909
C 5.492721 0.497301 6.088185
C 5.529286 0.002723 6.416612
C 4.999766 0.479965 6.412704
C 5.936599 0.037194 5.949649
C 6.547483 0.492646 6.015920
C 6.520164 0.035645 6.511598
C 5.965089 0.458305 6.475434
C 7.048527 0.056495 6.030875
C 7.499224 0.508194 6.049166
C 7.483507 0.039250 6.471593
C 6.952159 0.469394 6.486547
C 0.050221 1.126989 5.942574
C 0.445749 1.437735 6.075351
C 0.420811 0.972391 6.491887
C 0.026859 1.435284 6.575406
C 1.006418 0.940501 6.052526
C 1.439393 1.487940 6.042314
C 1.561553 1.032940 6.473227
C 1.070980 1.441598 6.537956
C 2.008185 1.045027 5.929269
C 2.576252 1.509479 6.039506
C 2.457374 0.999340 6.406169
C 1.979286 1.476910 6.504560
C 3.015565 1.049384 5.995137
C 3.453708 1.510373 6.041223
C 3.439846 0.922076 6.465385
C 3.004468 1.551011 6.470398
C 3.989508 0.973443 5.989805
C 4.463351 1.443926 5.981104
C 4.550584 0.956534 6.533715
C 4.073703 1.535174 6.541991
C 5.013027 0.996178 6.066664
C 5.460330 1.463286 5.959874
C 5.472788 1.010381 6.471052
C 5.022411 1.503418 6.394226
C 5.990322 1.031082 5.904226
C 6.435290 1.561161 6.073172
C 6.558021 0.907001 6.580188
C 5.941967 1.593482 6.439705
C 6.981178 0.945999 6.078347
C 7.433937 1.514734 5.996460
C 7.493301 1.053288 6.558520
C 6.911801 1.410708 6.437090
C 0.047619 2.053155 5.923078
C 0.545353 2.518679 6.064413
C 0.522380 1.874359 6.520343
C 0.044906 2.403486 6.487035
C 0.932399 1.950436 6.095616
C 1.533704 2.463155 5.934388
C 1.475383 1.977038 6.498692
C 0.960877 2.565250 6.573883
C 2.039779 2.056559 5.982991
C 2.521045 2.542888 5.936445
C 2.470809 2.069261 6.430652
C 1.914483 2.582873 6.480479
C 2.947427 2.076634 5.978681
C 3.454336 2.519104 5.910512
C 3.462073 2.089873 6.557595
C 2.972164 2.575857 6.509372
C 4.021979 1.958300 5.927660
C 4.533495 2.440023 5.993302
C 4.462653 2.024226 6.461167
C 3.985232 2.589873 6.499613
C 5.024447 1.978121 6.066256
C 5.431125 2.454890 5.950467
C 5.425386 1.974223 6.576188
C 4.978294 2.546914 6.602554
C 5.999300 2.022927 5.896959
C 6.524726 2.479350 5.916796
C 6.563432 1.917163 6.488171
C 6.023087 2.478298 6.584623
C 7.054066 2.060371 5.986240
C 7.391180 2.560926 5.969876
C 7.489957 2.034893 6.439929
C 6.908510 2.419369 6.524375
C 0.017771 3.050874 5.886523
C 0.453655 3.524374 5.978694
C 0.499550 2.961791 6.483391
C 0.006621 3.515849 6.466883
C 1.036281 3.034470 5.938945
C 1.479523 3.508024 6.125841
C 1.455503 2.951989 6.564957
C 0.937615 3.472803 6.464042
C 1.976019 3.030528 6.073790
C 2.504665 3.413872 6.087437
C 2.440879 2.951812 6.423450
C 1.994581 3.575150 6.576031
C 2.915920 2.969649 6.045823
C 3.582660 3.476481 5.956055
C 3.450801 2.913828 6.519662
C 2.922035 3.494266 6.537183
C 3.954625 3.007666 5.938881
C 4.535350 3.550385 6.023087
C 4.498946 2.979073 6.578538
C 4.032599 3.396717 6.506795
C 5.019809 2.928373 5.938478
C 5.512729 3.416779 5.928570
C 5.539074 3.050138 6.430563
C 4.964691 3.521050 6.499046
C 6.066202 2.906928 6.016428
C 6.507475 3.417281 5.985880
C 6.580416 2.961670 6.490809
C 6.035047 3.446940 6.527606
C 7.008638 3.023750 5.932449
C 7.429996 3.422889 6.036586
C 7.424568 2.995699 6.540664
C 6.921255 3.485065 6.506571
C 0.064099 3.985436 5.871169
C 0.473848 4.416318 6.054383
C 0.567850 3.963026 6.513970
C 0.050876 4.414819 6.499355
C 0.956219 4.027489 6.003230
C 1.463707 4.570034 5.961560
C 1.525967 3.957613 6.567805
C 0.990102 4.568190 6.517270
C 2.027040 3.930680 6.049913
C 2.511999 4.496589 6.052788
C 2.468648 3.938209 6.490127
C 2.051117 4.442498 6.566353
C 2.938587 4.035105 6.001597
C 3.493345 4.425161 6.031791
C 3.601291 3.984711 6.456887
C 2.986748 4.484857 6.464676
C 3.947240 4.010770 5.951361
C 4.442253 4.538457 5.978218
C 4.507296 3.944011 6.494158
C 3.960248 4.485983 6.444997
C 4.995105 4.004074 6.092049
C 5.514896 4.508179 6.075500
C 5.502817 4.047690 6.550655
C 4.911946 4.563015 6.541086
C 6.022306 4.070981 6.001911
C 6.499262 4.544839 6.078997
C 6.493866 4.045747 6.448932
C 5.959570 4.448722 6.515832
C 6.955843 4.063095 6.046982
C 7.467068 4.442789 6.003682
C 7.423141 3.916815 6.443112
C 7.056398 4.426133 6.507782
C 0.005726 5.030361 6.089959
C 0.429788 5.415199 5.974617
C 0.433230 5.010782 6.541218
C 0.042343 5.552189 6.593511
C 0.987795 4.921014 6.040001
C 1.422231 5.509429 6.023764
C 1.413697 5.011952 6.518002
C 0.952328 5.571653 6.488191
C 2.024312 5.023910 5.997779
C 2.522695 5.544499 5.970353
C 2.405411 5.041315 6.484024
C 1.994699 5.554651 6.519645
C 2.976934 5.037860 5.959011
C 3.469183 5.425382 5.957997
C 3.560650 4.930172 6.542565
C 3.014413 5.511147 6.451408
C 3.997512 4.986356 5.940559
C 4.554164 5.447228 5.921837
C 4.426106 5.032373 6.547723
C 4.074675 5.554605 6.468578
C 4.986890 4.983104 5.942554
C 5.480199 5.480159 6.087409
C 5.548378 4.995978 6.430981
C 5.014216 5.525406 6.399150
C 6.041403 4.991756 6.021511
C 6.557931 5.566988 5.996240
C 6.565678 5.057834 6.535492
C 5.908259 5.487578 6.537050
C 6.994513 4.947637 5.944825
C 7.489769 5.470490 6.079624
C 7.427576 4.960958 6.551278
C 7.047279 5.431160 6.517133
C 0.086175 5.910561 6.075869
C 0.456918 6.541539 6.004047
C 0.501959 6.038047 6.626761
C 0.020226 6.586973 6.529412
C 1.125671 6.004323 5.980605
C 1.562799 6.520214 6.054107
C 1.529573 5.940053 6.544524
C 0.950142 6.496867 6.549227
C 2.011780 5.983349 6.077097
C 2.511778 6.505650 5.901130
C 2.521212 5.987313 6.537725
C 2.031379 6.469215 6.482839
C 2.994535 6.018811 5.945183
C 3.528392 6.523537 5.903628
C 3.455326 5.973249 6.540150
C 2.991123 6.454700 6.543372
C 4.005611 6.026326 6.036786
C 4.486160 6.489403 6.041592
C 4.566374 6.074516 6.460500
C 3.944145 6.402914 6.531818
C 5.056949 6.046361 6.037905
C 5.417437 6.526901 6.014628
C 5.524481 5.974828 6.440081
C 5.049526 6.488474 6.524165
C 6.049774 6.004648 5.938619
C 6.552078 6.604968 5.994245
C 6.585959 6.004089 6.532483
C 5.944535 6.548076 6.491747
C 6.958663 6.045900 6.049322
C 7.388989 6.529984 5.956975
C 7.492677 6.121253 6.491484
C 6.940182 6.513898 6.499634
C 0.054227 7.040352 6.076941
C 0.539963 7.468277 5.937583
C 0.561606 7.018416 6.515139
C 0.009531 7.495239 6.544924
C 0.935516 7.013513 6.038918
C 1.505324 7.470113 6.001139
C 1.497278 7.101567 6.511403
C 1.008246 7.479743 6.494367
C 2.089322 6.965857 6.007451
C 2.514266 7.482775 5.977414
C 2.539131 6.913242 6.516615
C 1.964458 7.402761 6.475271
C 2.978218 6.966395 5.919608
C 3.555473 7.486559 5.950515
C 3.539089 7.020408 6.497318
C 2.910321 7.445541 6.485474
C 3.968080 6.937227 6.005233
C 4.379547 7.407401 5.990340
C 4.447038 6.978460 6.485639
C 4.011281 7.415542 6.549360
C 4.932913 7.066680 6.041208
C 5.437040 7.382603 6.001788
C 5.455626 6.941218 6.462432
C 4.949389 7.456962 6.534229
C 6.069946 7.027854 6.018241
C 6.459293 7.498281 6.068158
C 6.504368 6.970815 6.458452
C 5.950044 7.493076 6.530124
C 6.993903 7.101199 6.022740
C 7.477538 7.470016 6.132488
C 7.398736 6.929082 6.487507
C 6.934243 7.438687 6.490441
C 0.150092 0.108604 6.958304
C 0.537231 0.575069 6.935285
C 0.498821 0.124703 7.491912
C 0.014179 0.405082 7.469361
C 0.991644 0.065668 7.010171
C 1.496332 0.473838 6.958599
C 1.588488 0.045564 7.435498
C 0.968070 0.621499 7.480589
C 2.023503 0.106675 6.986988
C 2.573140 0.514793 7.104840
C 2.403349 0.075084 7.463053
C 2.006624 0.565544 7.391259
C 2.957727 0.096817 6.960107
C 3.399038 0.516928 6.997582
C 3.450485 0.020911 7.393751
C 3.033201 0.569785 7.492069
C 4.026443 0.005622 7.028356
C 4.573279 0.640150 7.050008
C 4.392896 0.197615 7.430028
C 3.897761 0.482578 7.413148
C 4.902853 0.072473 6.942615
C 5.463832 0.587525 7.036421
C 5.552932 0.059800 7.451366
C 4.980056 0.489940 7.436503
C 6.032358 0.016579 7.021071
C 6.466830 0.484636 7.089253
C 6.528721 0.003618 7.376078
C 5.995396 0.550512 7.444012
C 7.000613 0.022398 6.946676
C 7.406671 0.520282 6.948116
C 7.464102 0.040091 7.338135
C 7.078940 0.546733 7.463947
C 0.033422 0.949465 7.074741
C 0.500287 1.588633 7.061152
C 0.509779 1.072802 7.423646
C 0.039330 1.540030 7.337039
C 0.996234 0.874492 7.021033
C 1.530409 1.401318 6.987883
C 1.465557 1.018787 7.444149
C 0.998880 1.450871 7.457615
C 2.036155 1.113861 6.987066
C 2.578096 1.576067 6.948173
C 2.504289 1.001976 7.361656
C 1.932333 1.488383 7.438410
C 3.025775 0.964311 6.910018
C 3.556375 1.516593 6.949514
C 3.449782 1.012059 7.438380
C 2.978928 1.462037 7.494167
C 4.002176 1.031485 6.902834
C 4.503121 1.447771 7.003210
C 4.399852 1.070762 7.444506
C 4.061375 1.551567 7.469384
C 5.019341 1.059386 6.933951
C 5.564951 1.558797 6.905675
C 5.579354 1.009648 7.437094
C 5.053159 1.521176 7.449668
C 6.061516 1.065711 7.033724
C 6.483472 1.506526 7.066695
C 6.448890 0.979740 7.491507
C 6.035013 1.471319 7.495437
C 6.978341 1.057619 6.919516
C 7.472161 1.500425 7.057274
C 7.373484 1.017635 7.475676
C 6.948006 1.573530 7.412359
C 0.043624 1.914771 6.814338
C 0.512597 2.419172 6.937418
C 0.528463 2.047076 7.479078
C 0.090368 2.570433 7.329028
C 0.995182 1.991613 7.095399
C 1.532878 2.593206 7.039604
C 1.462618 1.939070 7.424390
C 0.937043 2.547296 7.491969
C 1.961944 1.987415 7.056592
C 2.519891 2.432766 7.043776
C 2.590925 2.024758 7.497215
C 2.101431 2.441658 7.494345
C 2.994249 2.019513 7.035961
C 3.466224 2.514676 7.048914
C 3.619751 2.007013 7.472232
C 2.967420 2.521920 7.457309
C 3.920921 2.036488 6.991528
C 4.516380 2.462416 6.939366
C 4.450208 2.094838 7.456505
C 3.906160 2.564198 7.482334
C 4.959367 1.999821 7.046425
C 5.521183 2.488255 6.909152
C 5.538668 2.005900 7.441106
C 4.911799 2.511629 7.439709
C 6.030806 1.960644 6.959818
C 6.560892 2.468144 7.048179
C 6.498680 2.033252 7.463708
C 5.901192 2.502615 7.456060
C 6.876418 1.991857 6.988780
C 7.396983 2.524732 6.820821
C 7.418082 2.075449 7.391864
C 6.993985 2.576970 7.449269
C 0.005558 3.044482 6.890227
C 0.501719 3.575380 6.994478
C 0.551925 3.021394 7.476120
C 0.026389 3.426231 7.452396
C 1.020152 2.951957 7.024612
C 1.603742 3.497127 7.019969
C 1.598486 3.068769 7.484020
C 0.916656 3.524890 7.439731
C 1.950356 3.063170 6.918501
C 2.510510 3.531345 7.010134
C 2.504978 3.039880 7.481306
C 2.041522 3.601096 7.424726
C 2.968866 3.031562 6.967161
C 3.508540 3.495602 7.020145
C 3.529848 3.093891 7.475840
C 2.955625 3.509967 7.479300
C 4.034863 3.089312 6.979590
C 4.456909 3.611448 6.978609
C 4.521239 3.032642 7.395551
C 3.973059 3.535932 7.434951
C 4.977703 3.025700 6.986242
C 5.587228 3.466799 7.028259
C 5.573303 2.989765 7.460248
C 5.021258 3.535074 7.458838
C 6.075112 2.923089 7.001900
C 6.401076 3.543819 6.970976
C 6.461706 2.880380 7.484342
C 6.012394 3.653404 7.485914
C 6.974972 2.954320 6.955683
C 7.370933 3.590312 6.913965
C 7.445637 2.995262 7.439278
C 7.038028 3.456766 7.464914
C 0.107737 4.033314 6.958905
C 0.467048 4.563184 7.043652
C 0.428300 4.094561 7.430588
C 0.049245 4.582263 7.489825
C 0.989509 4.029032 7.080426
C 1.428787 4.441648 7.010875
C 1.442447 4.003052 7.494063
C 0.953798 4.509377 7.375660
C 1.904485 3.977316 7.062055
C 2.403057 4.555996 7.030497
C 2.466852 4.064914 7.407461
C 1.917652 4.615347 7.479929
C 3.023554 3.999352 6.924598
C 3.466975 4.465907 7.037685
C 3.425034 3.957005 7.418245
C 3.004466 4.430412 7.488559
C 3.929012 4.019580 6.929095
C 4.556803 4.503193 7.049219
C 4.538833 4.033298 7.451506
C 4.113720 4.508790 7.479342
C 4.984338 4.046853 7.019896
C 5.589170 4.451623 6.994169
C 5.502042 3.907153 7.431230
C 5.098705 4.408044 7.464771
C 6.072530 4.054706 6.988896
C 6.570004 4.487800 6.960890
C 6.548877 3.962041 7.392874
C 5.960544 4.572406 7.420199
C 7.021278 4.032704 7.004053
C 7.430538 4.563686 7.033513
C 7.380495 4.040566 7.490649
C 6.893550 4.548313 7.493239
C 0.086626 5.056193 7.014620
C 0.477385 5.559356 7.051221
C 0.634174 4.987634 7.437776
C 0.013522 5.512296 7.418627
C 0.948200 5.038592 6.968901
C 1.420951 5.452873 6.957631
C 1.465115 5.050039 7.486720
C 1.047705 5.492572 7.444645
C 2.069678 5.051834 7.010191
C 2.515280 5.484690 6.958806
C 2.391290 4.987812 7.485706
C 1.959594 5.429923 7.466342
C 3.012484 4.998354 6.966190
C 3.369699 5.541761 6.989415
C 3.473573 5.044597 7.397079
C 3.066018 5.483583 7.492301
C 3.978110 5.094828 6.961918
C 4.446072 5.569922 7.044348
C 4.499389 5.111222 7.474017
C 4.014447 5.481520 7.482488
C 4.936070 5.011360 7.081063
C 5.438627 5.558841 7.004787
C 5.454541 5.073677 7.460324
C 4.904719 5.586319 7.443509
C 6.060378 4.963674 6.999351
C 6.445569 5.483139 7.010107
C 6.440766 4.785069 7.456211
C 5.970610 5.506389 7.437897
C 6.951840 5.018485 7.019206
C 7.467876 5.605029 6.914149
C 7.460366 5.077583 7.479506
C 6.991000 5.509740 7.323690
C 0.018894 6.027216 6.950696
C 0.477546 6.521765 6.892120
C 0.573515 6.045785 7.457912
C 0.055353 6.435202 7.440660
C 0.985476 6.016864 6.936891
C 1.415924 6.481298 6.977455
C 1.517705 5.951058 7.435831
C 0.873260 6.552953 7.491005
C 2.063455 6.047236 6.940452
C 2.494617 6.526499 7.003747
C 2.464752 6.032895 7.467026
C 2.058970 6.522388 7.478199
C 2.885471 6.053729 7.020838
C 3.442951 6.448936 7.046626
C 3.440070 6.006569 7.498103
C 2.965548 6.376446 7.492430
C 4.041656 5.951446 6.930763
C 4.517040 6.481505 7.004670
C 4.440309 6.003303 7.482535
C 3.965797 6.484155 7.420537
C 5.038104 6.024280 7.002351
C 5.546855 6.436863 7.070970
C 5.434247 6.003111 7.488870
C 5.045532 6.474398 7.427005
C 6.016649 6.039911 7.056461
C 6.478878 6.554207 6.939370
C 6.504408 5.915587 7.496599
C 6.061801 6.472822 7.484807
C 7.049918 5.977954 7.044656
C 7.476824 6.507775 6.990588
C 7.450461 6.023109 7.496025
C 7.024102 6.520799 7.454109
C 0.128562 7.046997 7.013048
C 0.591141 7.483737 6.986486
C 0.603060 7.037553 7.425347
C 0.095358 7.498842 7.448895
C 0.982188 6.915831 7.020634
C 1.408402 7.487532 6.966207
C 1.472326 6.953827 7.469197
C 1.114851 7.456376 7.439328
C 1.959068 6.950970 7.085022
C 2.617366 7.447340 7.014884
C 2.561066 6.919293 7.487785
C 2.075789 7.392869 7.413890
C 2.959448 6.942175 6.972142
C 3.559947 7.434746 6.984654
C 3.624781 7.015218 7.421912
C 2.882313 7.477107 7.477975
C 4.093586 6.976065 6.967789
C 4.416295 7.416363 7.094718
C 4.439851 6.897782 7.465387
C 3.877277 7.499876 7.475828
C 4.947441 7.083737 7.037643
C 5.414988 7.465853 6.956111
C 5.458918 6.971179 7.473328
C 5.083675 7.448058 7.491854
C 6.079160 7.015668 6.996301
C 6.633765 7.433633 6.962596
C 6.373040 7.006387 7.493634
C 5.914008 7.485516 7.453015
C 7.004916 6.942227 6.957776
C 7.440368 7.493952 7.024650
C 7.403630 6.997038 7.428444
C 6.893652 7.475496 7.417186
2048
Frame 5/10
C 0.094895 0.106297 0.112373
C 0.515580 0.451611 0.007880
C 0.467804 0.033124 0.553190
C 0.017576 0.619570 0.555326
C 0.929220 0.009427 0.016575
C 1.394004 0.594248 0.120130
C 1.489823 0.059940 0.483770
C 1.035173 0.487348 0.596677
C 1.951219 0.004244 0.002439
C 2.549953 0.477754 0.068713
C 2.613071 0.061562 0.544690
C 2.054490 0.455858 0.576860
C 3.136961 0.039421 0.139243
C 3.402135 0.527940 0.050918
C 3.631928 0.124750 0.429260
C 3.030199 0.528689 0.653704
C 4.217604 0.002186 0.010476
C 4.399523 0.602694 0.044206
C 4.558340 0.058000 0.569110
C 4.054457 0.457566 0.586057
C 5.118894 0.077362 0.000773
C 5.421137 0.626834 0.092250
C 5.586906 0.041205 0.495200
C 4.996482 0.414944 0.455219
C 5.880445 0.134155 0.021262
C 6.484183 0.598619 0.028962
C 6.486273 0.021831 0.554507
C 6.023979 0.497155 0.491769
C 7.147210 0.009315 0.031515
C 7.426688 0.608039 0.142490
C 7.333585 0.046955 0.574797
C 6.935450 0.536790 0.490442
C 0.099369 0.885216 0.096010
C 0.618714 1.572610 0.014199
C 0.456844 1.067854 0.494919
C 0.121462 1.486092 0.365181
C 1.008826 0.986654 0.012527
C 1.508614 1.545955 0.048301
C 1.597995 1.144701 0.524292
C 0.991501 1.517406 0.606320
C 1.926847 1.072138 0.015069
C 2.590583 1.550585 0.015039
C 2.551742 0.923535 0.560941
C 2.062878 1.481196 0.370871
C 2.930152 0.920602 0.004062
C 3.383170 1.567863 0.198940
C 3.513920 0.848008 0.479841
C 2.929355 1.439857 0.436577
C 3.918319 1.079290 0.150285
C 4.482043 1.456413 0.000300
C 4.624617 1.005369 0.469018
C 3.929565 1.552512 0.443874
C 5.043204 1.150453 0.036182
C 5.461028 1.565627 0.076167
C 5.607366 1.049720 0.487350
C 5.046506 1.490854 0.496642
C 5.938119 0.914072 0.079641
C 6.467052 1.536465 0.125243
C 6.429866 1.055227 0.373760
C 6.034802 1.567171 0.507365
C 6.912403 0.986917 0.064379
C 7.460984 1.567755 0.008895
C 7.371102 1.050314 0.495239
C 6.907834 1.602280 0.533490
C 0.105852 2.141811 0.018370
C 0.543694 2.576736 0.022808
C 0.453078 1.958372 0.405081
C 0.068029 2.365112 0.531164
C 0.962212 2.069522 0.048510
C 1.498249 2.475811 0.140909
C 1.580648 2.028359 0.470317
C 0.899876 2.412445 0.535049
C 2.052471 2.053435 0.117162
C 2.418589 2.480528 0.012046
C 2.569802 2.043224 0.675589
C 2.041198 2.634269 0.592585
C 2.924756 2.011977 0.121679
C 3.552654 2.623161 0.017712
C 3.355798 2.046476 0.506395
C 3.110755 2.601589 0.490460
C 4.054329 1.932716 0.050048
C 4.449862 2.446354 0.044442
C 4.389812 1.928370 0.552007
C 3.962786 2.575664 0.492412
C 5.087174 2.006231 0.063051
C 5.323801 2.511223 0.044141
C 5.562378 2.041904 0.523338
C 5.064837 2.645771 0.492994
C 5.944555 2.087207 0.055634
C 6.517350 2.491316 0.055018
C 6.554335 2.054664 0.630545
C 5.956094 2.505096 0.549371
C 6.832244 1.961458 0.023402
C 7.466988 2.466086 0.087408
C 7.391810 1.938752 0.490429
C 7.018066 2.420937 0.444954
C 0.156529 3.046786 0.063461
C 0.541869 3.693603 0.059090
C 0.518418 3.129450 0.527066
C 0.056086 3.348996 0.605212
C 0.975396 2.983591 0.062960
C 1.427480 3.606994 0.022035
C 1.443338 3.069123 0.479382
C 0.974800 3.448587 0.384728
C 1.915488 2.869425 0.043633
C 2.464000 3.643284 0.063424
C 2.577569 2.952786 0.453859
C 2.065704 3.459765 0.510007
C 2.967950 2.911094 0.009312
C 3.368418 3.534366 0.025444
C 3.392213 3.064288 0.546559
C 3.021750 3.542299 0.539316
C 3.968045 3.076577 0.022716
C 4.656736 3.512647 0.060109
C 4.572874 3.064372 0.414127
C 4.086552 3.579115 0.537779
C 5.120095 3.100715 0.123741
C 5.568789 3.562757 0.013789
C 5.624192 2.989548 0.554758
C 5.055317 3.562734 0.502994
C 5.853466 2.979627 0.001053
C 6.567500 3.409659 0.149858
C 6.352296 2.920797 0.459769
C 6.081697 3.390306 0.461348
C 7.044054 3.054295 0.010433
C 7.447742 3.586778 0.105974
C 7.428982 2.910358 0.463524
C 7.052951 3.477562 0.539993
C 0.062334 3.887442 0.140686
C 0.410999 4.469968 0.015218
C 0.589014 4.081637 0.494527
C 0.123073 4.473679 0.521392
C 1.010657 4.041741 0.077955
C 1.508188 4.353382 0.082665
C 1.410554 3.926961 0.484226
C 0.941011 4.534077 0.438438
C 1.991882 4.030278 0.145347
C 2.599768 4.524420 0.088861
C 2.460686 4.161248 0.511412
C 1.923156 4.599011 0.475425
C 2.920545 4.054876 0.030441
C 3.479079 4.474331 0.007438
C 3.462935 4.006538 0.367471
C 3.038375 4.394552 0.491976
C 3.959280 4.125876 0.020404
C 4.484465 4.496442 0.007537
C 4.610353 3.983084 0.502312
C 4.082901 4.575793 0.512465
C 4.976583 4.015800 0.051574
C 5.507305 4.460771 0.138008
C 5.524151 3.903448 0.486857
C 4.923201 4.587077 0.448993
C 6.035118 3.931867 0.114617
C 6.572399 4.519299 0.049330
C 6.426916 4.112281 0.484492
C 5.984672 4.487279 0.394100
C 6.881341 4.048795 0.076175
C 7.398398 4.593486 0.002516
C 7.413933 4.088616 0.426021
C 6.953787 4.615422 0.486536
C 0.021520 4.954392 0.184959
C 0.465778 5.588647 0.003660
C 0.582540 5.063763 0.621633
C 0.033791 5.500199 0.586585
C 0.948915 5.054774 0.067237
C 1.354722 5.592613 0.074628
C 1.538495 5.132231 0.444893
C 0.913784 5.524460 0.436984
C 2.093878 5.150360 0.042131
C 2.583435 5.534790 0.104093
C 2.551281 5.075679 0.464434
C 1.998748 5.463889 0.527298
C 2.979827 4.977202 0.120123
C 3.434546 5.402648 0.068557
C 3.454633 5.055859 0.567657
C 3.010443 5.488097 0.592545
C 3.935163 4.999694 0.139040
C 4.577915 5.575691 0.033186
C 4.530600 5.018468 0.591920
C 3.882255 5.479847 0.556388
C 5.056791 4.926745 0.048962
C 5.537583 5.524613 0.031866
C 5.509786 5.030507 0.351628
C 5.031716 5.475440 0.426562
C 6.052563 4.901299 0.003770
C 6.477696 5.370511 0.078217
C 6.472262 4.867861 0.499341
C 5.831140 5.516731 0.550371
C 6.962661 5.080464 0.019982
C 7.431155 5.582733 0.055884
C 7.412443 4.907392 0.598548
C 7.020221 5.548119 0.487772
C 0.002576 5.872916 0.090404
C 0.453055 6.489124 0.072236
C 0.553352 6.006783 0.483551
C 0.037826 6.399552 0.462785
C 0.918691 6.039715 0.040139
C 1.392381 6.385838 0.134064
C 1.656855 5.997354 0.451568
C 0.983623 6.419101 0.605095
C 1.995880 5.874421 0.026362
C 2.552905 6.465332 0.025280
C 2.547667 5.997933 0.440594
C 2.052261 6.512303 0.532933
C 3.093493 6.108526 0.063816
C 3.562385 6.350986 0.036896
C 3.409791 5.968277 0.472363
C 3.122135 6.517867 0.491454
C 4.023534 6.028041 0.157944
C 4.519343 6.583471 0.015313
C 4.554791 5.931530 0.520662
C 3.902509 6.545830 0.390608
C 4.998396 6.028746 0.009943
C 5.406203 6.567108 0.049041
C 5.348707 5.953170 0.551465
C 5.036464 6.435592 0.458073
C 6.091597 6.015979 0.036539
C 6.384416 6.584076 0.060499
C 6.559144 5.962716 0.424447
C 5.902148 6.503065 0.528615
C 7.051452 6.105887 0.031781
C 7.480552 6.639850 0.072439
C 7.410337 6.022345 0.656409
C 6.876636 6.502616 0.395853
C 0.132500 6.997738 0.000500
C 0.663680 7.470734 0.016794
C 0.426751 6.941705 0.459256
C 0.010001 7.482410 0.469774
C 0.951485 6.834112 0.032629
C 1.463878 7.259490 0.014739
C 1.576835 7.055674 0.560735
C 1.122115 7.405097 0.568264
C 2.120056 6.930782 0.124019
C 2.439431 7.397543 0.179949
C 2.397466 7.041712 0.637829
C 1.961185 7.432769 0.407551
C 3.170131 6.962515 0.040396
C 3.567494 7.432606 0.052171
C 3.427988 7.013579 0.527315
C 2.962277 7.496534 0.315551
C 4.134289 7.018809 0.079480
C 4.640939 7.492559 0.099488
C 4.438377 6.905000 0.517491
C 3.974748 7.461727 0.586397
C 4.981155 6.940283 0.131290
C 5.425899 7.469100 0.017834
C 5.583833 6.961311 0.431179
C 5.120983 7.446450 0.519925
C 5.897698 7.118186 0.050877
C 6.525145 7.464664 0.058668
C 6.588709 6.984234 0.522362
C 5.917703 7.481755 0.565671
C 7.001480 6.980980 0.017677
C 7.266346 7.406421 0.135421
C 7.346569 6.822810 0.518782
C 7.022582 7.417846 0.676365
C 0.009691 0.111917 0.928052
C 0.406439 0.512070 1.034787
C 0.463919 0.015326 1.514300
C 0.003542 0.469434 1.475715
C 1.031407 0.026758 1.009779
C 1.595825 0.509920 0.938023
C 1.549588 0.026119 1.606539
C 0.882880 0.560546 1.459098
C 2.082374 0.093690 1.066719
C 2.556895 0.398983 1.023585
C 2.556032 0.036280 1.559751
C 2.032539 0.638263 1.567090
C 3.045510 0.044534 0.971397
C 3.619404 0.595404 1.022647
C 3.612813 0.110208 1.451910
C 2.923037 0.517738 1.514608
C 3.900906 0.089414 0.977476
C 4.584810 0.389047 1.034875
C 4.328803 0.039971 1.540025
C 4.018538 0.610856 1.636677
C 5.120129 0.038047 0.891452
C 5.612501 0.454008 0.967232
C 5.412203 0.025272 1.491621
C 4.967802 0.405606 1.500448
C 5.966812 0.073108 1.152393
C 6.609102 0.467430 0.958074
C 6.539881 0.020093 1.650406
C 5.938884 0.656325 1.475541
C 6.917072 0.001858 1.145244
C 7.495947 0.409876 0.991383
C 7.334902 0.159160 1.391595
C 6.894616 0.470086 1.593964
C 0.069701 1.035754 0.951803
C 0.548224 1.503391 1.026229
C 0.440844 0.967794 1.400221
C 0.067065 1.408765 1.392761
C 0.949547 0.940416 0.932759
C 1.432950 1.475657 1.056261
C 1.463340 0.995825 1.598255
C 0.901354 1.505010 1.532425
C 1.859944 1.008922 0.968958
C 2.587850 1.536147 1.043267
C 2.508258 0.906259 1.400430
C 2.003008 1.428768 1.427204
C 2.979012 1.060410 0.971107
C 3.485149 1.471512 0.968933
C 3.583700 0.936588 1.537179
C 3.012828 1.470060 1.623567
C 4.009579 1.049534 1.035775
C 4.557044 1.539556 0.972375
C 4.491529 0.962665 1.486981
C 4.049231 1.537842 1.361191
C 4.881922 1.081274 1.031212
C 5.594729 1.533661 0.981900
C 5.598262 1.117533 1.599366
C 5.101080 1.462669 1.380394
C 6.071793 0.903311 0.995145
C 6.497512 1.588474 0.986445
C 6.482439 0.887019 1.470858
C 5.914996 1.556784 1.499616
C 7.084558 0.941188 0.995445
C 7.412942 1.538488 1.065023
C 7.448358 0.865273 1.519530
C 6.997378 1.595366 1.484546
C 0.067643 1.971792 1.143152
C 0.491552 2.370924 0.959598
C 0.548868 2.007366 1.592748
C 0.009124 2.470426 1.520762
C 1.066898 2.006123 0.972405
C 1.452452 2.514571 0.952568
C 1.478770 1.921169 1.559561
C 1.105627 2.463893 1.442038
C 2.069440 1.899394 0.956950
C 2.463703 2.507972 1.017916
C 2.420035 1.994774 1.474413
C 2.092681 2.499870 1.538921
C 3.103040 2.017392 1.029530
C 3.465781 2.464613 0.882449
C 3.626539 1.933570 1.530530
C 3.069387 2.388925 1.505088
C 3.985114 2.117377 0.934677
C 4.419648 2.513291 0.875619
C 4.396619 1.970892 1.469947
C 3.992363 2.518737 1.514460
C 4.947259 1.947902 1.084503
C 5.507415 2.587574 0.981494
C 5.437349 1.927224 1.410343
C 5.050900 2.361357 1.483127
C 5.883422 2.058130 1.009334
C 6.644179 2.536591 0.962471
C 6.553513 2.064001 1.530800
C 6.085351 2.456566 1.532737
C 6.949356 1.938211 1.018030
C 7.479610 2.629758 0.956494
C 7.463068 1.985927 1.617216
C 6.860972 2.568381 1.534319
C 0.059274 3.131911 1.063668
C 0.604333 3.417818 1.084798
C 0.544872 2.983848 1.608538
C 0.030533 3.637640 1.497641
C 1.045123 2.972287 0.948174
C 1.444045 3.485206 0.930904
C 1.451146 2.918211 1.395435
C 1.007643 3.353153 1.582410
C 1.988748 3.027795 1.084915
C 2.557321 3.588080 0.891744
C 2.496886 2.993171 1.469574
C 2.101554 3.472376 1.512563
C 2.960239 2.940253 1.139099
C 3.376948 3.414161 1.084337
C 3.517583 2.907170 1.442935
C 2.883439 3.584190 1.530901
C 3.952138 2.994035 0.946854
C 4.582089 3.533252 1.077490
C 4.459713 3.100168 1.399357
C 4.017315 3.543642 1.612078
C 5.002803 3.031564 0.992720
C 5.431724 3.563017 1.045680
C 5.488588 3.075677 1.476200
C 5.107478 3.574124 1.509950
C 5.955183 3.039851 1.042362
C 6.542440 3.362940 0.915870
C 6.321178 2.974522 1.475212
C 5.964654 3.443213 1.521670
C 6.975687 2.989911 0.829911
C 7.487149 3.392554 0.934159
C 7.393641 3.006816 1.486867
C 6.897869 3.584257 1.537491
C 0.049968 3.980810 0.890163
C 0.524083 4.589653 0.886935
C 0.612931 3.992092 1.572474
C 0.041332 4.526491 1.374457
C 1.106793 3.969546 1.073316
C 1.503628 4.479432 1.104522
C 1.540861 3.946197 1.516565
C 0.996390 4.589053 1.516020
C 2.049864 3.868777 0.949387
C 2.468445 4.604766 0.896024
C 2.450224 3.938981 1.447923
C 2.020355 4.554003 1.500877
C 2.935863 3.963803 1.064652
C 3.377248 4.407985 1.051393
C 3.547083 3.924931 1.556517
C 3.028099 4.446977 1.604585
C 3.979422 4.080379 1.062204
C 4.584866 4.478287 1.028842
C 4.379744 3.918846 1.441237
C 3.854374 4.437803 1.497313
C 5.037431 4.025997 1.066995
C 5.522907 4.352757 0.998335
C 5.432353 4.107124 1.499146
C 5.128117 4.581808 1.525556
C 5.926453 3.967066 1.144017
C 6.488647 4.413861 1.089411
C 6.421471 3.874941 1.571864
C 6.098079 4.494565 1.498100
C 6.918395 3.994025 1.025468
C 7.444244 4.386497 0.891398
C 7.405501 3.955173 1.553080
C 6.957843 4.383352 1.487282
C 0.070111 4.938050 0.928373
C 0.484796 5.611587 0.919580
C 0.499134 5.115705 1.408091
C 0.119009 5.466730 1.592549
C 0.971047 4.893536 0.988659
C 1.577503 5.608412 1.097057
C 1.453320 4.985478 1.454912
C 1.034665 5.526113 1.370112
C 2.084428 4.969252 1.087030
C 2.424132 5.588640 0.975067
C 2.535199 4.987519 1.598373
C 2.100002 5.482464 1.438114
C 3.008014 5.077063 1.066592
C 3.455854 5.506750 1.033292
C 3.459821 5.050756 1.464965
C 3.010837 5.414404 1.524955
C 3.885111 5.099998 1.004898
C 4.464091 5.493983 0.910058
C 4.573908 4.995755 1.588945
C 4.062626 5.484573 1.441228
C 5.078757 4.980469 1.087943
C 5.381912 5.432954 0.948425
C 5.538848 5.159832 1.405970
C 4.912601 5.518904 1.386359
C 5.973852 5.043501 1.111190
C 6.494265 5.588627 0.891872
C 6.491487 5.026619 1.380463
C 5.930957 5.564684 1.504363
C 7.112865 5.023628 1.041476
C 7.449083 5.497410 1.025848
C 7.399762 4.957328 1.633385
C 7.076788 5.456844 1.515628
C 0.036831 6.192959 0.958134
C 0.504965 6.458189 0.901146
C 0.460332 5.911253 1.502528
C 0.013411 6.429100 1.431717
C 0.973130 5.994776 1.084817
C 1.469688 6.433085 0.947262
C 1.448505 6.077169 1.398627
C 0.932798 6.430178 1.553268
C 1.984356 6.013002 0.912855
C 2.479820 6.596805 0.959969
C 2.477456 6.052537 1.394311
C 2.026172 6.506635 1.439030
C 2.885763 5.922229 0.971752
C 3.431094 6.425169 0.993189
C 3.595075 5.965111 1.502187
C 3.039948 6.419836 1.625002
C 4.003728 5.875950 0.989094
C 4.391027 6.527017 1.022452
C 4.585597 5.997603 1.507691
C 3.925044 6.461238 1.404030
C 4.969111 6.063156 0.984960
C 5.429891 6.483849 1.056621
C 5.481395 5.929437 1.448734
C 4.923377 6.541724 1.496936
C 5.991317 6.010396 0.901810
C 6.432628 6.431088 1.082601
C 6.468474 5.945838 1.554101
C 5.935758 6.487285 1.485939
C 6.873330 5.894147 1.058607
C 7.479845 6.590991 0.992807
C 7.453934 5.919587 1.585865
C 7.085188 6.451439 1.490039
C 0.160382 6.996802 1.035661
C 0.514015 7.380742 0.826233
C 0.553775 6.978658 1.491503
C 0.112648 7.477691 1.416015
C 0.929301 7.063428 0.996381
C 1.476753 7.490675 1.174095
C 1.527555 7.003805 1.384022
C 0.893963 7.487835 1.482651
C 1.939733 6.840621 0.980030
C 2.556024 7.477625 1.003025
C 2.537904 6.946335 1.506882
C 1.986185 7.430852 1.589240
C 2.981969 7.045204 0.935649
C 3.435191 7.468149 0.945621
C 3.529890 6.908984 1.440535
C 2.958667 7.376082 1.456692
C 4.126196 7.015618 1.057692
C 4.589923 7.483928 1.069373
C 4.647010 7.007431 1.416595
C 4.066519 7.457468 1.486507
C 5.079965 7.077335 1.014880
C 5.540046 7.462999 1.044150
C 5.399438 6.962210 1.555290
C 4.989209 7.487269 1.540732
C 6.004224 7.070997 1.069691
C 6.549107 7.471266 1.018486
C 6.537275 7.050739 1.422136
C 6.072333 7.493380 1.470175
C 6.981292 6.856976 1.090028
C 7.329373 7.357126 1.137658
C 7.381721 6.928187 1.585477
C 6.966497 7.434688 1.692415
C 0.023051 0.072041 2.154399
C 0.604429 0.430757 1.985299
C 0.492003 0.070839 2.446085
C 0.032286 0.540785 2.424963
C 1.041997 0.061484 1.893892
C 1.453227 0.476417 1.926139
C 1.518804 0.111292 2.542092
C 0.929319 0.629379 2.415463
C 2.103682 0.032681 1.977026
C 2.404736 0.521591 1.990959
C 2.446698 0.037233 2.507385
C 1.932211 0.546515 2.622321
C 2.975277 0.022418 2.140790
C 3.424071 0.441366 1.966864
C 3.533429 0.050353 2.369343
C 2.958527 0.571831 2.554826
C 4.020384 0.149916 2.094820
C 4.455170 0.455047 1.897005
C 4.534295 0.022766 2.464047
C 3.937703 0.513652 2.552474
C 5.084202 0.018235 2.040932
C 5.574301 0.473576 2.067921
C 5.524088 0.008261 2.478437
C 5.030163 0.414869 2.493895
C 5.940903 0.069460 1.939247
C 6.394609 0.488110 1.910340
C 6.408609 0.086069 2.385789
C 5.951873 0.395760 2.529729
C 6.970110 0.046714 2.116929
C 7.339660 0.526342 2.031294
C 7.435969 0.070892 2.301738
C 6.914830 0.592948 2.628053
C 0.052231 1.070295 1.852439
C 0.367446 1.524464 1.976378
C 0.443525 0.937470 2.530093
C 0.080323 1.384763 2.464872
C 0.919993 1.063290 2.031441
C 1.388541 1.488438 1.940540
C 1.429782 0.937176 2.424479
C 0.954587 1.474422 2.588904
C 1.968229 1.155830 2.000316
C 2.554958 1.600464 2.088564
C 2.348050 0.962065 2.475851
C 2.048765 1.482909 2.538259
C 3.079514 0.929921 1.991430
C 3.479238 1.452813 2.047249
C 3.552518 0.931568 2.414260
C 2.977935 1.437056 2.382819
C 3.908798 1.029557 1.982636
C 4.365501 1.497107 1.977843
C 4.576450 1.054497 2.543115
C 4.067477 1.600864 2.556190
C 5.054124 1.105425 2.012647
C 5.385018 1.583433 2.052464
C 5.500011 0.870184 2.484459
C 5.036478 1.528026 2.498868
C 6.066521 1.059840 2.039246
C 6.549863 1.510707 1.967505
C 6.421672 0.962571 2.647354
C 6.065943 1.428762 2.501755
C 6.891523 0.977275 1.893046
C 7.471890 1.401394 1.902547
C 7.474609 0.949777 2.475300
C 7.051685 1.581037 2.607907
C 0.009723 2.032063 1.933554
C 0.531663 2.490019 1.890546
C 0.444407 1.935436 2.538029
C 0.120021 2.416935 2.550459
C 1.134207 1.983768 2.041934
C 1.523893 2.612945 2.018598
C 1.488409 1.849800 2.435004
C 0.919239 2.512688 2.485761
C 2.094845 1.943006 1.979782
C 2.535651 2.377823 2.001130
C 2.510414 1.970989 2.670165
C 1.957982 2.430501 2.456752
C 2.981012 1.932678 1.961419
C 3.514232 2.512404 1.926785
C 3.523782 1.915910 2.513098
C 2.921557 2.429385 2.508274
C 4.028328 2.049739 1.970558
C 4.421522 2.508869 2.018385
C 4.563826 1.972717 2.583651
C 3.948519 2.404161 2.466870
C 4.955762 1.898977 1.890390
C 5.461793 2.448399 1.992758
C 5.564627 1.980323 2.446177
C 5.027008 2.391298 2.430507
C 6.103972 2.045977 1.995248
C 6.434262 2.551158 2.032028
C 6.494522 2.061512 2.516148
C 6.035564 2.410594 2.502611
C 6.938846 1.905346 2.133236
C 7.497502 2.463199 2.041303
C 7.464070 1.988525 2.525193
C 7.007652 2.551145 2.642698
C 0.043811 2.878790 2.090477
C 0.566672 3.462164 2.102969
C 0.434453 3.030539 2.430088
C 0.000125 3.436726 2.455957
C 0.934650 3.010965 2.128539
C 1.447030 3.468414 2.010385
C 1.539696 2.947795 2.488366
C 0.894362 3.530706 2.588517
C 2.024243 3.000277 1.896651
C 2.537349 3.408374 1.945815
C 2.540103 2.964688 2.589772
C 1.868571 3.509755 2.547214
C 2.995286 3.132118 2.044186
C 3.573711 3.523469 2.047581
C 3.435216 3.073975 2.538673
C 3.030175 3.521831 2.525617
C 4.105800 2.981011 1.938148
C 4.497658 3.554446 1.937668
C 4.469643 3.030979 2.408867
C 4.054541 3.474620 2.356969
C 4.857170 2.968730 1.962377
C 5.527665 3.375162 2.028146
C 5.552683 2.799788 2.536400
C 4.944935 3.438261 2.519093
C 6.012314 2.953331 2.094179
C 6.509711 3.508149 2.092244
C 6.468873 3.058611 2.566524
C 5.976788 3.417437 2.380019
C 7.048803 3.102659 1.958792
C 7.497611 3.469184 1.848578
C 7.439671 3.001130 2.439978
C 7.048913 3.505572 2.533878
C 0.025815 3.978289 2.090192
C 0.502225 4.402736 2.042890
C 0.515846 3.932910 2.354914
C 0.112611 4.403491 2.527009
C 0.978543 3.950485 2.041928
C 1.506187 4.432027 2.090695
C 1.579534 3.952756 2.412275
C 1.125814 4.505478 2.556581
C 1.943829 3.969623 1.938368
C 2.556738 4.419917 1.923099
C 2.512341 4.150771 2.414446
C 2.074824 4.532802 2.499777
C 3.016384 3.981756 2.118535
C 3.465443 4.507242 2.121719
C 3.570452 4.058682 2.519437
C 2.955051 4.374007 2.553729
C 4.032701 4.075832 1.907629
C 4.474887 4.435704 1.953763
C 4.446813 3.889865 2.462242
C 3.979088 4.483591 2.520231
C 5.070282 3.909308 1.972806
C 5.539441 4.556339 2.014251
C 5.405061 4.071691 2.609086
C 4.964288 4.529946 2.430764
C 6.002989 3.947896 1.955968
C 6.452932 4.376901 1.905610
C 6.505585 3.941025 2.518000
C 6.038044 4.493270 2.620180
C 7.024478 4.016358 1.985697
C 7.387311 4.526288 2.045127
C 7.492550 3.872167 2.430224
C 6.853428 4.542625 2.542277
C 0.026041 4.971162 1.863611
C 0.457844 5.418838 2.078070
C 0.443602 5.081297 2.563465
C 0.057958 5.640410 2.561525
C 1.007664 5.009193 1.992659
C 1.465184 5.515276 1.917164
C 1.503559 5.022611 2.400705
C 1.036608 5.488009 2.440584
C 1.996691 5.066075 2.097265
C 2.567445 5.532517 1.993099
C 2.430002 4.993180 2.541022
C 1.917290 5.464769 2.521321
C 3.024540 4.992381 1.949758
C 3.458828 5.643328 2.007612
C 3.483770 5.024094 2.545702
C 3.028931 5.385421 2.528743
C 3.905792 4.981954 2.109047
C 4.487130 5.511692 2.086142
C 4.420818 5.054911 2.530620
C 3.983717 5.461992 2.431730
C 5.091858 4.972943 2.108660
C 5.590052 5.428714 1.907168
C 5.471998 5.036766 2.556391
C 4.924705 5.475401 2.532984
C 6.075042 4.867326 2.013108
C 6.465042 5.418963 2.080070
C 6.500646 4.981865 2.640629
C 6.083395 5.434539 2.532035
C 6.860584 4.903377 2.093022
C 7.408351 5.367099 2.073457
C 7.407744 4.862208 2.625751
C 7.115141 5.539556 2.487065
C 0.114103 5.955713 2.003869
C 0.388131 6.444982 2.032712
C 0.454364 6.077620 2.465176
C 0.074129 6.502613 2.559620
C 1.033307 5.997877 2.090840
C 1.439406 6.521973 1.989822
C 1.514531 6.024392 2.453130
C 0.978053 6.544449 2.334994
C 2.084209 6.091579 1.987326
C 2.553922 6.523469 2.078438
C 2.532693 5.986572 2.454508
C 2.012538 6.541895 2.386833
C 2.991512 6.085731 2.103378
C 3.464928 6.544689 2.103342
C 3.563979 6.057050 2.420668
C 2.891606 6.434941 2.538198
C 3.974102 5.914471 2.061049
C 4.503240 6.490950 2.070588
C 4.512136 5.987717 2.519998
C 3.881256 6.469624 2.559939
C 5.069683 5.924664 1.892577
C 5.434465 6.499657 2.045006
C 5.411747 5.994682 2.594754
C 4.993678 6.445198 2.459129
C 5.931637 5.944374 1.942476
C 6.497657 6.431017 2.101756
C 6.623291 5.894262 2.495903
C 5.980886 6.494390 2.636466
C 6.988884 5.958714 2.032148
C 7.394636 6.458035 2.003202
C 7.466804 6.077239 2.441947
C 6.952201 6.514461 2.428066
C 0.035194 7.067158 1.865086
C 0.494390 7.414709 1.893318
C 0.519995 7.052019 2.627738
C 0.123864 7.355516 2.456113
C 1.009764 7.000660 2.138142
C 1.605576 7.437802 2.040810
C 1.464850 6.937709 2.449593
C 1.031898 7.494042 2.590343
C 2.041146 6.963377 1.879022
C 2.474596 7.431351 2.014389
C 2.582416 7.064614 2.470690
C 2.017335 7.474332 2.496687
C 2.893984 6.961510 1.966478
C 3.445589 7.395042 2.103445
C 3.593542 7.090751 2.530768
C 3.138228 7.445822 2.564193
C 3.896607 7.052620 1.975252
C 4.434645 7.459359 1.939542
C 4.447245 6.947545 2.477476
C 3.986724 7.475673 2.407383
C 4.954480 6.944475 1.928160
C 5.470603 7.401180 2.101570
C 5.451550 7.025018 2.540590
C 4.928558 7.354720 2.428547
C 5.975873 6.934429 2.035649
C 6.352257 7.424710 1.991206
C 6.452486 6.953314 2.537752
C 5.856172 7.483568 2.516059
C 6.969313 6.970308 2.028657
C 7.451954 7.416060 1.931896
C 7.484114 7.082421 2.518601
C 6.957856 7.383208 2.599677
C 0.083123 0.005259 2.984004
C 0.445840 0.474917 2.912698
C 0.612793 0.067604 3.573103
C 0.106973 0.520052 3.470002
C 1.044530 0.133951 2.958549
C 1.463180 0.605751 2.931349
C 1.407488 0.113249 3.430113
C 0.939844 0.499511 3.412624
C 1.994928 0.046721 2.937846
C 2.527907 0.457625 2.878680
C 2.419046 0.015374 3.434420
C 2.075802 0.545511 3.528467
C 3.080670 0.074951 2.910656
C 3.461650 0.561450 2.889682
C 3.491171 0.046876 3.505640
C 3.061356 0.490097 3.562848
C 3.920707 0.004729 2.861194
C 4.430301 0.539209 3.081096
C 4.440731 0.063327 3.319198
C 3.953183 0.492153 3.332565
C 4.951177 0.003311 3.057700
C 5.447963 0.511750 3.000955
C 5.496654 0.092183 3.450018
C 4.997272 0.601776 3.442455
C 5.943876 0.001582 3.040738
C 6.540025 0.404558 2.977328
C 6.634576 0.022446 3.487498
C 5.894991 0.594369 3.538417
C 7.067163 0.098533 2.863245
C 7.473487 0.417218 2.998271
C 7.433349 0.006462 3.553530
C 7.067647 0.456470 3.510812
C 0.001673 1.100328 3.150923
C 0.439472 1.386915 2.928373
C 0.459265 1.024859 3.441523
C 0.089225 1.578521 3.480313
C 1.027207 0.983048 2.894964
C 1.577317 1.477853 2.914051
C 1.618003 0.983773 3.472128
C 1.097914 1.473155 3.551865
C 2.079369 0.935227 2.943303
C 2.520818 1.408113 2.982199
C 2.558042 0.977117 3.489692
C 2.107964 1.474056 3.406094
C 2.981066 0.875192 3.093254
C 3.543917 1.448819 2.938578
C 3.459067 0.968403 3.563661
C 3.010209 1.542162 3.508910
C 4.017528 1.029364 3.129416
C 4.498625 1.529466 2.949913
C 4.629518 1.053028 3.491964
C 3.864190 1.432947 3.453981
C 5.072340 1.164548 3.071239
C 5.538768 1.423252 2.881679
C 5.519622 1.101926 3.496591
C 5.004785 1.456046 3.605671
C 5.936286 0.932191 2.998757
C 6.624702 1.492357 3.006222
C 6.569263 0.917407 3.493799
C 6.135035 1.455574 3.556941
C 6.999159 1.031041 2.839743
C 7.496858 1.344915 2.992869
C 7.458923 0.957359 3.577864
C 6.999785 1.556641 3.513623
C 0.008392 2.102276 3.080819
C 0.598198 2.574593 3.019844
C 0.494157 2.028759 3.416617
C 0.018397 2.631577 3.548799
C 0.893389 1.981830 2.996616
C 1.600045 2.550688 3.101613
C 1.594415 2.028402 3.446736
C 0.929691 2.422269 3.476137
C 2.017382 1.921707 2.983466
C 2.546291 2.535014 3.012778
C 2.525188 2.035534 3.436145
C 2.074079 2.578125 3.448888
C 3.013813 1.916761 3.062159
C 3.491219 2.559086 2.983622
C 3.430821 1.966724 3.576193
C 3.004829 2.551947 3.620483
C 3.909374 2.072420 2.955756
C 4.333900 2.497640 3.067758
C 4.617163 2.122018 3.480173
C 3.993741 2.530818 3.640269
C 5.084169 1.969867 2.966507
C 5.563770 2.456578 3.090619
C 5.392771 1.962570 3.504840
C 5.070945 2.504351 3.394333
C 6.033096 1.990870 3.076188
C 6.330142 2.495763 3.032562
C 6.566286 2.032929 3.438174
C 5.949944 2.426635 3.629776
C 6.926602 2.087113 2.906638
C 7.457534 2.449413 2.871934
C 7.494923 2.029526 3.613257
C 7.001312 2.529319 3.496213
C 0.020289 3.059004 3.080355
C 0.529343 3.570547 3.135240
C 0.457307 3.129202 3.480346
C 0.067083 3.563277 3.575937
C 0.914113 3.068475 3.018826
C 1.673028 3.438671 2.984241
C 1.511354 3.017766 3.340263
C 0.984064 3.432737 3.540618
C 2.022757 2.968759 2.878169
C 2.450716 3.542997 2.907631
C 2.434599 3.029024 3.530603
C 1.959147 3.419982 3.459092
C 3.030557 3.078400 2.964140
C 3.552417 3.362225 3.055247
C 3.550889 2.945727 3.484180
C 2.939722 3.482337 3.587971
C 4.079703 2.981092 3.106216
C 4.528266 3.506501 2.953371
C 4.550662 3.023812 3.548715
C 3.947721 3.447036 3.531132
C 5.005596 3.015580 3.059220
C 5.520235 3.595779 3.044560
C 5.555697 2.949433 3.449241
C 5.037184 3.497723 3.380862
C 5.927072 2.908668 2.976447
C 6.416310 3.600802 2.949914
C 6.392979 2.957263 3.595721
C 6.059348 3.533939 3.460206
C 7.001953 3.102720 3.053267
C 7.491682 3.448791 3.060408
C 7.442225 2.854347 3.382806
C 6.964873 3.508789 3.469473
C 0.028557 3.946364 2.918233
C 0.536498 4.444590 2.951617
C 0.634801 3.932169 3.562372
C 0.000111 4.614856 3.562051
C 1.121615 4.029861 3.033794
C 1.590703 4.426449 2.931892
C 1.573735 4.000113 3.543405
C 0.996344 4.401938 3.543067
C 2.001629 3.987494 2.883160
C 2.507627 4.458684 2.896242
C 2.513452 3.930453 3.521556
C 1.987903 4.372364 3.441568
C 2.976943 4.053273 3.014631
C 3.416360 4.470054 2.982580
C 3.591462 4.107453 3.436370
C 3.055227 4.489734 3.458621
C 4.006973 3.982463 3.033917
C 4.406162 4.580346 2.975361
C 4.437590 3.990595 3.543312
C 4.005018 4.516271 3.441948
C 4.895578 3.987644 2.957525
C 5.406856 4.570026 2.951385
C 5.612783 3.901766 3.528343
C 5.033309 4.383120 3.506845
C 5.889077 4.113936 3.070634
C 6.481543 4.404921 2.953251
C 6.516167 3.908235 3.418366
C 6.065297 4.395839 3.475874
C 6.978555 3.971458 3.013839
C 7.482762 4.412350 2.818655
C 7.416363 4.036898 3.427988
C 6.927234 4.469597 3.625906
C 0.061285 4.954806 3.113928
C 0.516216 5.577041 2.952190
C 0.514616 4.981474 3.518567
C 0.053453 5.588268 3.578023
C 0.871547 5.031856 3.003688
C 1.552894 5.570852 3.024274
C 1.504729 5.087398 3.438438
C 0.975376 5.408442 3.415840
C 1.866320 4.998653 3.002973
C 2.563600 5.580559 3.052764
C 2.612732 5.059468 3.589396
C 1.993395 5.518596 3.462633
C 3.058850 4.937029 2.917485
C 3.455982 5.586515 3.117807
C 3.361909 4.979827 3.444400
C 3.060815 5.601533 3.591788
C 3.903612 5.041031 3.005673
C 4.479727 5.426117 3.039646
C 4.529833 5.132423 3.578111
C 3.912881 5.455257 3.416177
C 4.983027 5.101829 2.977098
C 5.592762 5.503241 2.898055
C 5.610873 5.010787 3.440577
C 5.005350 5.426644 3.559316
C 5.944509 5.056099 2.936221
C 6.407379 5.563501 2.991179
C 6.473747 5.046697 3.507837
C 6.020097 5.447231 3.506471
C 6.974210 5.044167 3.077309
C 7.461363 5.461094 2.954628
C 7.366468 4.910772 3.470256
C 6.960502 5.442879 3.506983
C 0.057046 5.993331 3.051217
C 0.500672 6.364153 3.005455
C 0.535629 5.950071 3.573811
C 0.062993 6.486344 3.551190
C 1.022637 5.872648 3.009609
C 1.629545 6.574750 3.064530
C 1.559755 5.984947 3.630713
C 1.060053 6.468701 3.574807
C 1.993934 5.969039 3.102367
C 2.445953 6.390195 2.891996
C 2.390535 6.075689 3.520011
C 2.096249 6.519015 3.631465
C 2.913557 6.058885 3.014075
C 3.415953 6.527138 2.997557
C 3.635993 5.938925 3.529892
C 3.003628 6.635033 3.492765
C 4.031267 6.051665 3.082040
C 4.528763 6.386957 2.943885
C 4.410735 6.057877 3.530546
C 4.082367 6.518959 3.531754
C 4.975712 6.020756 3.082996
C 5.563418 6.472710 3.098544
C 5.565722 6.019670 3.489178
C 5.082525 6.459718 3.411480
C 5.886338 6.022180 3.007505
C 6.606811 6.405630 3.001684
C 6.440306 5.971677 3.558549
C 6.129684 6.433030 3.402911
C 6.967916 5.888333 2.995636
C 7.410399 6.469161 2.914292
C 7.470111 6.016845 3.340657
C 6.907177 6.579594 3.503881
C 0.013758 6.912216 3.010938
C 0.334225 7.404748 2.970089
C 0.528731 7.061759 3.376468
C 0.093255 7.421780 3.465704
C 0.953249 6.913540 2.883938
C 1.473980 7.430113 3.019213
C 1.486548 6.870086 3.511049
C 0.997865 7.406665 3.431831
C 2.021224 6.917771 2.868441
C 2.638581 7.412571 2.975057
C 2.545023 6.950871 3.412949
C 2.020465 7.429342 3.561175
C 2.932109 6.881434 2.942506
C 3.598280 7.492219 3.005927
C 3.489885 6.975523 3.561231
C 3.079238 7.420492 3.457503
C 3.989007 7.049134 3.034055
C 4.478007 7.410494 3.004340
C 4.471765 6.960777 3.506486
C 4.126581 7.493282 3.608232
C 4.990749 6.994619 2.901982
C 5.412257 7.490007 2.969265
C 5.520405 6.939295 3.403472
C 4.899612 7.480359 3.397245
C 5.962182 7.082950 2.996137
C 6.456838 7.393461 3.037863
C 6.522090 7.049374 3.543945
C 6.011733 7.454171 3.461615
C 6.952515 6.947831 2.987427
C 7.458331 7.461362 2.990549
C 7.392354 6.938500 3.394583
C 6.914459 7.484108 3.519538
C 0.032565 0.033821 4.126125
C 0.580369 0.430860 4.093894
C 0.512371 0.043489 4.590753
C 0.117549 0.481873 4.496601
C 1.070856 0.052619 3.936292
C 1.623977 0.432135 3.906539
C 1.387604 0.043100 4.399373
C 0.961762 0.554750 4.472515
C 2.127756 0.076995 4.035030
C 2.554112 0.492560 3.923450
C 2.511152 0.026497 4.551547
C 2.000085 0.637502 4.375415
C 2.913298 0.038221 3.890165
C 3.572416 0.444055 3.988390
C 3.522985 0.025368 4.430986
C 2.957983 0.490176 4.363230
C 4.069073 0.036425 3.901506
C 4.583634 0.526231 4.108601
C 4.347944 0.009095 4.514103
C 4.019422 0.470887 4.541535
C 5.050154 0.058353 3.931860
C 5.604956 0.632596 4.010652
C 5.472877 0.186689 4.431343
C 5.085420 0.552217 4.580246
C 5.879093 0.028242 3.942508
C 6.536091 0.416710 3.895830
C 6.340181 0.029054 4.421844
C 5.978041 0.557352 4.558924
C 6.943811 0.090239 4.053315
C 7.494999 0.454259 3.910526
C 7.394884 0.111377 4.466169
C 6.986197 0.542432 4.520186
C 0.026766 0.904522 3.909024
C 0.452900 1.512989 3.958752
C 0.476886 1.062907 4.511618
C 0.033016 1.515392 4.494805
C 0.979734 1.070511 3.952727
C 1.635919 1.495659 4.124266
C 1.344066 1.031665 4.484121
C 1.118952 1.498791 4.454808
C 2.016923 1.152892 3.955058
C 2.596452 1.555345 3.967644
C 2.492283 0.995281 4.511647
C 2.063237 1.463263 4.515383
C 2.963097 1.002991 4.077448
C 3.524306 1.564981 3.989892
C 3.434255 0.905681 4.579175
C 3.042418 1.369372 4.539106
C 3.980067 0.865724 3.971547
C 4.550753 1.435151 4.045754
C 4.573346 1.003354 4.483214
C 4.114888 1.568930 4.463229
C 4.927655 0.990018 3.948638
C 5.396904 1.481816 4.079955
C 5.550629 0.925412 4.632070
C 4.898587 1.514472 4.525465
C 6.052191 0.969300 3.924314
C 6.557628 1.426201 4.146770
C 6.531835 0.920546 4.578960
C 5.934011 1.554788 4.428145
C 6.998024 0.944434 3.995077
C 7.486762 1.523607 4.082714
C 7.454356 0.932124 4.572723
C 7.067003 1.545508 4.541463
C 0.001633 1.883758 3.938158
C 0.479405 2.412717 4.095348
C 0.551579 1.931173 4.400560
C 0.066224 2.561151 4.435673
C 0.963742 2.048370 3.969165
C 1.447549 2.588571 3.866926
C 1.523880 1.978749 4.369217
C 1.051180 2.487488 4.495223
C 2.099089 2.054523 3.956946
C 2.346490 2.629940 3.944082
C 2.553181 1.998073 4.504305
C 2.144607 2.531987 4.558825
C 2.930801 2.141259 4.028566
C 3.524990 2.417387 3.963140
C 3.438689 2.090443 4.507685
C 3.094396 2.607866 4.592571
C 3.988019 1.903470 3.918145
C 4.633488 2.456209 3.983142
C 4.564111 2.016075 4.479912
C 4.106264 2.535429 4.428708
C 5.061215 2.077543 4.125790
C 5.542091 2.385555 4.069390
C 5.472032 1.828067 4.539981
C 5.106553 2.503641 4.518506
C 6.044095 1.955190 4.009181
C 6.538071 2.585101 3.975895
C 6.431515 1.954557 4.564929
C 5.988616 2.380330 4.510206
C 7.107325 1.974930 4.082458
C 7.429413 2.441663 4.139352
C 7.476891 2.029601 4.572374
C 6.912654 2.500848 4.504252
C 0.150573 3.047311 3.946020
C 0.535902 3.483070 4.042882
C 0.459231 3.005407 4.467022
C 0.085312 3.630671 4.463870
C 1.003752 2.947783 4.085758
C 1.406462 3.395321 4.017298
C 1.524349 2.952059 4.421240
C 0.981610 3.475989 4.420784
C 1.974662 3.075895 4.041981
C 2.451438 3.659436 4.003102
C 2.551874 2.923656 4.478182
C 1.964456 3.635556 4.481794
C 3.098587 3.090528 3.953288
C 3.536785 3.527894 4.100399
C 3.615386 3.084362 4.526737
C 2.939398 3.540373 4.362831
C 4.128147 3.020500 4.025563
C 4.520076 3.517582 4.062009
C 4.481127 3.011201 4.508919
C 3.992691 3.516454 4.570259
C 4.977218 2.955684 4.100637
C 5.472551 3.506240 3.983173
C 5.584768 2.938441 4.552802
C 5.076304 3.469741 4.549559
C 6.056824 3.073962 4.080363
C 6.423779 3.441637 3.890769
C 6.428496 2.981925 4.615582
C 5.936485 3.472419 4.451055
C 7.024993 2.961584 3.915490
C 7.372787 3.528876 3.922744
C 7.485768 2.937698 4.386087
C 7.030489 3.372144 4.573335
C 0.080367 4.161823 4.023668
C 0.530794 4.507421 3.882419
C 0.526033 4.018838 4.370010
C 0.077752 4.376299 4.556036
C 1.064879 3.883222 4.001633
C 1.392506 4.492347 3.986228
C 1.350214 4.016449 4.514614
C 1.088665 4.539967 4.567280
C 1.985424 4.058107 4.046434
C 2.480834 4.435371 3.959704
C 2.554490 3.969243 4.448878
C 1.936086 4.549396 4.608681
C 2.979357 4.024117 4.039962
C 3.489784 4.456524 3.898889
C 3.508013 3.992630 4.458075
C 2.945849 4.520851 4.508840
C 4.000753 4.094002 3.983148
C 4.475904 4.436380 3.928442
C 4.534506 4.143216 4.500156
C 3.987535 4.437536 4.462112
C 5.141985 3.972265 3.990951
C 5.492408 4.428360 4.154027
C 5.537995 3.967388 4.477805
C 4.990160 4.598953 4.520988
C 5.955155 3.937601 4.012194
C 6.456952 4.571987 4.099404
C 6.442225 4.024940 4.599350
C 6.019924 4.643893 4.504747
C 6.865316 4.000148 4.014735
C 7.425361 4.470742 4.004365
C 7.345059 4.002802 4.483098
C 6.948101 4.519550 4.530456
C 0.013274 5.144638 3.998325
C 0.463265 5.553441 3.999961
C 0.565834 5.010530 4.546513
C 0.115773 5.432063 4.552018
C 0.964918 4.876322 4.052298
C 1.463371 5.449644 3.902172
C 1.425423 5.014429 4.455872
C 1.005563 5.443379 4.437069
C 2.010884 5.000877 3.907129
C 2.379027 5.419197 4.064649
C 2.537686 5.001315 4.404881
C 1.898572 5.537241 4.613389
C 2.956297 4.894879 3.983571
C 3.481876 5.500947 4.015884
C 3.417333 4.932580 4.544196
C 2.944428 5.520975 4.365543
C 3.940216 4.905579 3.946781
C 4.511404 5.477235 4.043823
C 4.459222 4.975626 4.498503
C 4.036519 5.407878 4.424414
C 4.999731 4.869777 3.917850
C 5.410989 5.397042 4.031449
C 5.495582 4.961153 4.370928
C 4.900121 5.474696 4.507801
C 5.954519 5.007694 3.974898
C 6.388009 5.473111 3.974551
C 6.478155 5.024934 4.487031
C 5.970080 5.535630 4.582474
C 6.970415 5.026521 4.063383
C 7.483413 5.531561 4.024646
C 7.390309 4.937030 4.441468
C 6.912139 5.541390 4.499595
C 0.107848 5.963094 4.127290
C 0.396166 6.475702 4.014510
C 0.588486 6.080330 4.422884
C 0.090217 6.610345 4.582368
C 0.950716 5.937048 4.048322
C 1.433434 6.526134 4.091769
C 1.528209 6.015420 4.443714
C 0.931660 6.582955 4.538490
C 2.094979 5.908840 4.095355
C 2.578028 6.507735 3.960213
C 2.558766 5.949322 4.450437
C 2.061290 6.566817 4.578570
C 3.047333 6.008566 4.153774
C 3.546699 6.385163 3.970071
C 3.517602 6.055466 4.537265
C 2.906914 6.417034 4.409981
C 4.087295 5.927111 4.087619
C 4.602410 6.526872 3.945339
C 4.482083 6.063168 4.470634
C 3.999798 6.595446 4.458963
C 4.976427 5.926162 4.149563
C 5.403095 6.453996 3.921363
C 5.634227 5.991287 4.489325
C 4.922260 6.537307 4.459664
C 5.904074 5.918183 3.988649
C 6.383540 6.510278 4.007444
C 6.431822 5.925553 4.460024
C 6.004445 6.431282 4.432849
C 6.996373 5.864641 3.985698
C 7.465566 6.697306 4.045066
C 7.466645 5.909326 4.561202
C 6.968053 6.618478 4.412225
C 0.055415 6.959033 3.825655
C 0.472559 7.491028 3.894188
C 0.451199 7.037574 4.332223
C 0.062080 7.495332 4.536208
C 0.937907 6.921291 4.043590
C 1.569634 7.320741 4.093930
C 1.379200 6.987851 4.467202
C 1.135038 7.469266 4.516739
C 1.983820 6.971807 3.884884
C 2.446943 7.372995 3.967791
C 2.456545 7.086391 4.596938
C 2.045041 7.401186 4.451892
C 2.989139 6.928810 4.001603
C 3.574767 7.469073 3.936808
C 3.448868 7.071210 4.571209
C 2.966948 7.461045 4.495796
C 3.995524 7.064935 3.859186
C 4.603307 7.468014 4.122364
C 4.449487 7.105150 4.489093
C 3.983935 7.471438 4.580447
C 5.081603 6.954862 3.947060
C 5.488883 7.384070 4.012612
C 5.502077 7.111134 4.519223
C 5.014443 7.447994 4.536215
C 5.909520 6.930496 3.883057
C 6.524056 7.430092 3.983004
C 6.443854 6.930739 4.537179
C 6.062046 7.482139 4.388293
C 7.071989 7.016135 3.900801
C 7.491670 7.478499 4.053180
C 7.460647 6.908455 4.524898
C 7.107781 7.475703 4.547433
C 0.119520 0.114661 5.102286
C 0.513178 0.605807 5.030391
C 0.532509 0.135998 5.629174
C 0.086697 0.599745 5.570223
C 0.993400 0.015833 5.023417
C 1.554710 0.502074 4.997416
C 1.545708 0.193107 5.476051
C 1.101866 0.518073 5.563092
C 1.916440 0.072806 4.848525
C 2.514847 0.523278 4.871711
C 2.560166 0.023836 5.343760
C 2.035464 0.416102 5.438130
C 3.132798 0.137369 4.961004
C 3.554463 0.454499 4.837104
C 3.408308 0.027183 5.443475
C 2.904577 0.476465 5.462306
C 3.954779 0.127364 4.986286
C 4.437100 0.515566 4.967043
C 4.548789 0.103781 5.464834
C 4.024575 0.544078 5.396385
C 5.009513 0.001261 5.175521
C 5.470189 0.424937 4.954366
C 5.421703 0.132336 5.586260
C 5.081556 0.588844 5.521204
C 5.934925 0.101313 4.954653
C 6.531838 0.399062 4.911267
C 6.573560 0.067220 5.603381
C 5.927732 0.454143 5.418981
C 7.107286 0.008435 5.075897
C 7.489903 0.483455 4.976302
C 7.419987 0.109438 5.587998
C 7.010105 0.455394 5.403650
C 0.012206 0.898059 5.007100
C 0.429167 1.486792 5.041200
C 0.411865 1.047978 5.445426
C 0.167526 1.551345 5.510420
C 1.035904 0.943192 4.942655
C 1.531560 1.481426 5.071224
C 1.411331 0.976971 5.451173
C 0.888731 1.444407 5.398515
C 2.041260 0.883621 5.030281
C 2.506954 1.476338 4.899228
C 2.585911 1.004356 5.445947
C 2.019738 1.534530 5.610108
C 2.964345 0.893021 4.886141
C 3.424122 1.411870 4.993364
C 3.574334 1.082897 5.502668
C 2.991651 1.472603 5.562166
C 3.840185 0.956668 5.000460
C 4.455676 1.502365 4.939642
C 4.419106 0.901253 5.523373
C 4.045737 1.421110 5.482840
C 5.012505 1.021698 5.024981
C 5.521520 1.607984 5.007704
C 5.468642 1.019833 5.396341
C 5.084414 1.495386 5.427309
C 5.930195 1.026168 5.044587
C 6.560347 1.576741 4.949186
C 6.527926 1.050196 5.397220
C 5.876259 1.454695 5.429751
C 6.957880 1.092440 5.006411
C 7.477655 1.520950 4.950902
C 7.446785 0.970097 5.508814
C 6.985458 1.612312 5.412879
C 0.035630 1.971832 4.891852
C 0.401087 2.497451 4.937394
C 0.436416 1.977675 5.394433
C 0.010951 2.560154 5.536581
C 1.054186 1.909365 5.004878
C 1.580445 2.484418 4.992583
C 1.380596 1.909438 5.484834
C 0.997208 2.516972 5.478365
C 1.984019 1.991373 5.096965
C 2.364491 2.574401 5.047840
C 2.403821 1.913281 5.479894
C 1.980947 2.540206 5.511584
C 2.878857 2.033266 5.072948
C 3.537192 2.381023 4.986463
C 3.444758 1.887181 5.469504
C 3.073719 2.438892 5.362480
C 4.047519 1.959624 4.927538
C 4.410967 2.471751 5.087784
C 4.515032 1.978566 5.344632
C 3.942110 2.393171 5.484472
C 5.046281 1.910808 4.907704
C 5.566050 2.384951 4.916486
C 5.587906 1.913185 5.504954
C 5.025314 2.590095 5.453005
C 5.972485 2.033590 5.059167
C 6.557271 2.565637 5.035808
C 6.488570 1.909020 5.394142
C 6.068161 2.535017 5.467413
C 6.998214 2.016970 4.878244
C 7.426862 2.366397 5.033610
C 7.460436 1.852280 5.459965
C 6.982730 2.392164 5.515488
C 0.023659 3.073190 4.933318
C 0.447467 3.531934 5.019324
C 0.487419 2.960469 5.598726
C 0.014148 3.486755 5.404431
C 0.981492 2.926590 5.053272
C 1.538278 3.439801 5.041564
C 1.521084 2.960189 5.389484
C 0.924163 3.460767 5.496821
C 1.975937 3.045774 5.138262
C 2.486461 3.588698 4.968916
C 2.435696 3.018764 5.473203
C 1.849498 3.513913 5.562577
C 3.043340 3.067882 5.077378
C 3.512329 3.398932 5.009836
C 3.360633 2.945069 5.503469
C 3.028442 3.517115 5.452010
C 4.007673 3.104581 5.007819
C 4.469953 3.582612 5.003110
C 4.551929 2.995678 5.559196
C 4.043097 3.536253 5.518589
C 5.073087 3.091825 5.002810
C 5.535583 3.339065 4.974972
C 5.522445 2.902473 5.425450
C 5.049262 3.471408 5.468464
C 5.991024 2.994703 5.044016
C 6.406535 3.484506 4.996883
C 6.492718 2.941847 5.514709
C 5.952857 3.542698 5.366134
C 6.911411 2.945030 4.893930
C 7.326937 3.561408 4.950882
C 7.485667 2.959449 5.487197
C 7.026907 3.583252 5.569877
C 0.053554 3.965876 4.973587
C 0.507735 4.600884 5.009122
C 0.525957 3.903064 5.452475
C 0.138284 4.585507 5.456117
C 0.896472 3.981905 4.874571
C 1.601558 4.439851 5.032522
C 1.585383 3.983751 5.553315
C 0.878215 4.451107 5.580014
C 1.977597 3.963239 5.080068
C 2.504244 4.476586 4.978264
C 2.432465 3.890461 5.461769
C 2.008461 4.398873 5.481214
C 3.076622 4.060533 5.014188
C 3.611592 4.562044 4.953213
C 3.474517 3.919180 5.528474
C 2.965610 4.559865 5.627624
C 3.928034 4.010381 4.900756
C 4.533191 4.524222 4.980910
C 4.454862 3.951543 5.572360
C 4.020026 4.435568 5.381132
C 4.917435 4.044734 5.017638
C 5.471121 4.563712 4.956712
C 5.612614 3.951941 5.569657
C 5.009141 4.493776 5.578281
C 5.917356 4.023416 4.923089
C 6.549326 4.512150 4.979843
C 6.538749 3.931515 5.377788
C 5.995760 4.480374 5.459429
C 7.102194 4.063554 5.040372
C 7.353451 4.515234 4.956077
C 7.393035 4.089433 5.547324
C 7.117347 4.584578 5.419948
C 0.038900 4.943307 5.004461
C 0.586591 5.503526 4.882146
C 0.552402 4.988154 5.658791
C 0.005546 5.588793 5.515296
C 0.918132 5.084476 4.996826
C 1.345392 5.497534 5.035549
C 1.429096 5.079968 5.535915
C 0.936293 5.408041 5.564694
C 1.975855 5.060778 5.087829
C 2.471429 5.342661 5.016037
C 2.486494 5.060130 5.512052
C 1.896707 5.569141 5.506864
C 3.007266 4.973058 5.006323
C 3.411946 5.578459 4.890876
C 3.469594 4.925179 5.587654
C 2.918285 5.482148 5.433731
C 4.005478 5.031289 4.927119
C 4.582648 5.566907 4.964894
C 4.599189 4.959773 5.418452
C 3.974937 5.611881 5.519766
C 4.932042 5.053976 4.916365
C 5.498031 5.533403 5.061361
C 5.527485 4.996632 5.483295
C 5.059767 5.368510 5.447147
C 6.109926 5.030072 5.026117
C 6.507312 5.427163 4.909509
C 6.460009 5.108411 5.549327
C 6.009306 5.530357 5.454634
C 7.059809 5.097504 4.912738
C 7.365453 5.401549 5.111034
C 7.467947 5.046577 5.561729
C 6.934679 5.378405 5.550245
C 0.065609 6.061378 4.915896
C 0.488132 6.429457 5.100247
C 0.424166 5.980881 5.591305
C 0.074329 6.418335 5.508933
C 0.982240 6.137045 5.074833
C 1.426210 6.404356 4.978523
C 1.445445 5.966091 5.473583
C 0.976391 6.588504 5.447235
C 2.061371 6.062403 4.862825
C 2.506873 6.405085 5.118481
C 2.542178 5.952708 5.491858
C 2.049420 6.502263 5.610137
C 2.916292 5.961957 4.921978
C 3.431282 6.525782 4.856797
C 3.524465 5.985146 5.470495
C 2.996369 6.468682 5.406984
C 4.016908 6.074500 4.937041
C 4.430135 6.507807 5.086959
C 4.532653 5.948997 5.393557
C 4.112499 6.522515 5.554822
C 4.990637 5.948215 5.057942
C 5.410510 6.579964 4.959804
C 5.557389 6.016391 5.509386
C 4.907871 6.508999 5.420685
C 5.818642 6.005285 4.969238
C 6.368605 6.470707 4.923304
C 6.571752 6.072948 5.614790
C 5.967690 6.563220 5.335049
C 7.054214 6.008635 4.995926
C 7.436684 6.420666 5.119674
C 7.465377 5.984464 5.516122
C 6.926726 6.507982 5.369220
C 0.001610 6.943819 5.080698
C 0.582324 7.403389 4.956282
C 0.508071 6.881334 5.520250
C 0.093059 7.488292 5.329013
C 1.101133 6.901783 4.927343
C 1.497463 7.413535 4.976741
C 1.452521 6.968536 5.427974
C 0.997986 7.433120 5.552185
C 2.013412 7.044417 5.044234
C 2.612690 7.430385 4.962304
C 2.394600 7.024261 5.524605
C 1.973954 7.484613 5.430446
C 2.929337 6.896400 4.984051
C 3.356102 7.485580 4.942235
C 3.454983 6.960533 5.469747
C 3.059793 7.422729 5.579679
C 4.032552 6.974100 4.903192
C 4.479801 7.409411 4.970335
C 4.501805 6.969985 5.510446
C 4.037539 7.487927 5.524292
C 4.932281 6.989450 5.063950
C 5.353106 7.446538 5.008388
C 5.470223 7.020010 5.474106
C 4.963506 7.421634 5.460593
C 6.077310 7.104589 5.046675
C 6.448992 7.475806 4.868451
C 6.502565 7.032746 5.565832
C 5.913182 7.357426 5.547943
C 7.047514 7.000668 4.902925
C 7.475583 7.461871 5.015701
C 7.472841 6.928413 5.417523
C 6.958584 7.483383 5.423786
C 0.089849 0.038957 5.863805
C 0.411703 0.553693 6.030973
C 0.429317 0.027299 6.482074
C 0.006971 0.514934 6.558892
C 1.010163 0.016236 6.002010
C 1.421287 0.499938 6.102839
C 1.626207 0.011483 6.602626
C 1.029278 0.651040 6.557398
C 2.075841 0.100379 5.912256
C 2.604167 0.433585 5.934169
C 2.502833 0.081779 6.513347
C 1.944889 0.527291 6.502242
C 2.962571 0.089549 6.151422
C 3.444217 0.403021 5.934554
C 3.400166 0.036622 6.529242
C 2.912263 0.586217 6.372524
C 3.861246 0.052416 6.049577
C 4.558622 0.536496 5.928647
C 4.483507 0.234991 6.446925
C 4.047596 0.540448 6.569755
C 4.931553 0.055093 5.985212
C 5.490295 0.496402 6.117580
C 5.539049 0.003630 6.388815
C 4.999689 0.473286 6.383605
C 5.915466 0.049593 5.932866
C 6.563310 0.490195 6.021227
C 6.526886 0.047527 6.515465
C 5.953452 0.444407 6.467245
C 7.064703 0.075326 6.041166
C 7.498965 0.510925 6.065554
C 7.478010 0.052333 6.462125
C 6.936212 0.459193 6.482063
C 0.066961 1.169319 5.923431
C 0.427666 1.416979 6.100468
C 0.394415 0.963188 6.489183
C 0.035812 1.413712 6.600541
C 1.008558 0.920667 6.070035
C 1.419190 1.483920 6.056418
C 1.582071 1.043921 6.464303
C 1.094640 1.422131 6.550608
C 2.010913 1.060036 5.905692
C 2.601670 1.512639 6.052674
C 2.443165 0.999120 6.374892
C 1.972381 1.469213 6.506080
C 3.020754 1.065845 5.993516
C 3.438277 1.513830 6.054965
C 3.419795 0.896101 6.453847
C 3.005958 1.568014 6.460531
C 3.986011 0.964590 5.986407
C 4.451134 1.425235 5.974806
C 4.567445 0.942046 6.544954
C 4.098270 1.546899 6.555988
C 5.017369 0.994904 6.088885
C 5.447107 1.451048 5.946499
C 5.463717 1.013842 6.461402
C 5.029882 1.504558 6.358968
C 5.987097 1.041443 5.872302
C 6.413719 1.581549 6.097562
C 6.577362 0.876001 6.606918
C 5.922623 1.624643 6.419606
C 6.974904 0.927998 6.104463
C 7.411917 1.519645 5.995280
C 7.491068 1.071051 6.578027
C 6.882402 1.380944 6.416120
C 0.063492 2.070873 5.897437
C 0.560471 2.524905 6.085884
C 0.529840 1.832478 6.527124
C 0.059874 2.371314 6.482713
C 0.909865 1.933915 6.127488
C 1.544938 2.450874 5.912517
C 1.467177 1.969384 6.498256
C 0.947836 2.587000 6.598511
C 2.053038 2.075413 5.977322
C 2.528060 2.557183 5.915260
C 2.461078 2.092348 6.407535
C 1.885977 2.610497 6.473972
C 2.929903 2.102179 5.971574
C 3.439114 2.525472 5.880683
C 3.449430 2.119831 6.576793
C 2.962886 2.601143 6.512496
C 4.029306 1.944400 5.903547
C 4.544661 2.420031 5.991069
C 4.450204 2.032301 6.448223
C 3.980309 2.619830 6.499484
C 5.032597 1.970827 6.088342
C 5.408167 2.439853 5.933956
C 5.400515 1.965631 6.601584
C 4.971059 2.562552 6.636738
C 5.999066 2.030570 5.862612
C 6.532968 2.472466 5.889061
C 6.584576 1.889551 6.484228
C 6.030783 2.471064 6.612831
C 7.072088 2.080495 5.981654
C 7.354907 2.581234 5.959834
C 7.486610 2.046524 6.419905
C 6.878014 2.392492 6.532499
C 0.023694 3.067832 5.848697
C 0.438206 3.532499 5.971592
C 0.499400 2.949055 6.477855
C 0.008827 3.521132 6.455844
C 1.048374 3.045960 5.918594
C 1.472697 3.510699 6.167789
C 1.440671 2.935986 6.586609
C 0.916820 3.463737 6.452057
C 1.968025 3.040704 6.098387
C 2.506220 3.385163 6.116583
C 2.421173 2.935750 6.397934
C 1.992775 3.600201 6.601375
C 2.887894 2.959532 6.061097
C 3.610213 3.468641 5.941407
C 3.434402 2.885105 6.526216
C 2.896047 3.492355 6.549577
C 3.939499 3.010222 5.918508
C 4.547133 3.567180 6.030783
C 4.498595 2.972097 6.604717
C 4.043465 3.362289 6.509060
C 5.026411 2.904498 5.917971
C 5.516972 3.389038 5.904760
C 5.552099 3.066851 6.407418
C 4.952921 3.528067 6.498727
C 6.088269 2.875904 6.021904
C 6.509967 3.389708 5.981173
C 6.607221 2.948894 6.487745
C 6.046730 3.429254 6.536808
C 7.011517 3.031667 5.909932
C 7.406662 3.397186 6.048781
C 7.399424 2.994265 6.554219
C 6.895007 3.480087 6.508761
C 0.085466 3.980582 5.828225
C 0.465131 4.388424 6.072511
C 0.590466 3.950701 6.518626
C 0.067834 4.386426 6.499140
C 0.941625 4.036652 6.004307
C 1.451609 4.593378 5.948747
C 1.534622 3.943484 6.590407
C 0.986802 4.590919 6.523027
C 2.036054 3.907573 6.066550
C 2.515999 4.495452 6.070385
C 2.458197 3.917612 6.486835
C 2.068156 4.423331 6.588471
C 2.918116 4.046806 6.002130
C 3.491127 4.400214 6.042387
C 3.635055 3.979615 6.442516
C 2.982331 4.479809 6.452901
C 3.929653 4.014360 5.935148
C 4.423004 4.551277 5.970957
C 4.509728 3.925347 6.492211
C 3.946997 4.481311 6.426662
C 4.993474 4.005433 6.122732
C 5.519861 4.510905 6.100667
C 5.503756 4.063587 6.567540
C 4.882595 4.584021 6.554782
C 6.029742 4.094642 6.002548
C 6.499017 4.559785 6.105329
C 6.491822 4.060995 6.431910
C 5.946094 4.431629 6.521109
C 6.941125 4.084127 6.062643
C 7.456091 4.423718 6.004909
C 7.397521 3.889087 6.424149
C 7.075198 4.401511 6.510375
C 0.007635 5.040481 6.119945
C 0.406384 5.386932 5.966156
C 0.410973 5.014377 6.554957
C 0.056457 5.569586 6.624681
C 0.983727 4.894686 6.053335
C 1.396308 5.512572 6.031685
C 1.384930 5.015936 6.524003
C 0.936438 5.595537 6.484255
C 2.032416 5.031880 5.997039
C 2.530261 5.559332 5.960470
C 2.373881 5.055087 6.478699
C 1.992932 5.572868 6.526194
C 2.969246 5.050480 5.945348
C 3.458911 5.400509 5.943995
C 3.580867 4.906896 6.556754
C 3.019218 5.514863 6.435211
C 3.996683 4.981808 5.920746
C 4.572218 5.429637 5.895782
C 4.401475 5.043164 6.563631
C 4.099566 5.572807 6.458104
C 4.982520 4.977472 5.923406
C 5.473599 5.473545 6.116545
C 5.564504 4.994638 6.407975
C 5.018955 5.533875 6.365534
C 6.055204 4.989007 6.028682
C 6.577242 5.589317 5.994987
C 6.587571 5.077112 6.547322
C 5.877679 5.483437 6.549400
C 6.992684 4.930183 5.926434
C 7.486359 5.460653 6.106166
C 7.403435 4.947945 6.568370
C 7.063038 5.408214 6.522844
C 0.114900 5.880748 6.101159
C 0.442558 6.555386 6.005396
C 0.502612 6.050730 6.669014
C 0.026967 6.615965 6.539216
C 1.167562 6.005764 5.974139
C 1.583732 6.526953 6.072143
C 1.539431 5.920071 6.559366
C 0.933522 6.495822 6.565636
C 2.015707 5.977799 6.102796
C 2.515704 6.507534 5.868173
C 2.528283 5.983083 6.550300
C 2.041839 6.458953 6.477118
C 2.992713 6.025081 5.926910
C 3.537857 6.531383 5.871505
C 3.440434 5.964332 6.553534
C 2.988165 6.439600 6.557829
C 4.007481 6.035101 6.049048
C 4.481547 6.485871 6.055456
C 4.588499 6.099355 6.447333
C 3.925527 6.370552 6.542424
C 5.075932 6.061815 6.050540
C 5.389916 6.535868 6.019503
C 5.532642 5.966437 6.420108
C 5.066034 6.484632 6.532220
C 6.066365 6.006197 5.918159
C 6.569438 6.639958 5.992326
C 6.614612 6.005452 6.543310
C 5.926047 6.564101 6.488996
C 6.944884 6.061200 6.065762
C 7.351985 6.539979 5.942634
C 7.490236 6.161671 6.488646
C 6.920242 6.518530 6.499512
C 0.072303 7.053803 6.102588
C 0.553284 7.457703 5.916778
C 0.582141 7.024555 6.520185
C 0.012708 7.493652 6.559898
C 0.914021 7.018017 6.051890
C 1.507099 7.460151 6.001519
C 1.496370 7.135423 6.515204
C 1.010994 7.472990 6.492490
C 2.119096 6.954476 6.009934
C 2.519021 7.477033 5.969885
C 2.552174 6.884322 6.522154
C 1.952611 7.370348 6.467028
C 2.970958 6.955194 5.892811
C 3.573963 7.482079 5.934020
C 3.552119 7.027211 6.496424
C 2.880428 7.427389 6.480632
C 3.957440 6.916302 6.006978
C 4.339396 7.376535 5.987119
C 4.429384 6.971280 6.480852
C 4.015042 7.387390 6.565813
C 4.910551 7.088906 6.054944
C 5.416054 7.343470 6.002383
C 5.440834 6.921624 6.449910
C 4.932519 7.442616 6.545638
C 6.093261 7.037138 6.024322
C 6.445724 7.497708 6.090878
C 6.505824 6.961087 6.444603
C 5.933392 7.490768 6.540165
C 6.991871 7.134932 6.030320
C 7.470051 7.460021 6.176651
C 7.364981 6.905443 6.483343
C 6.912324 7.418249 6.487254
C 0.200123 0.144806 6.944406
C 0.549642 0.600092 6.913713
C 0.498427 0.166271 7.489216
C 0.018905 0.373442 7.459147
C 0.988859 0.087557 7.013562
C 1.495110 0.465118 6.944799
C 1.617983 0.060752 7.413997
C 0.957426 0.661998 7.474119
C 2.031337 0.142234 6.982650
C 2.597520 0.519723 7.139787
C 2.371132 0.100112 7.450737
C 2.008832 0.587392 7.355013
C 2.943636 0.129089 6.946809
C 3.365384 0.522571 6.996776
C 3.433980 0.027881 7.358334
C 3.044269 0.593046 7.489426
C 4.035257 0.007495 7.037808
C 4.597706 0.686867 7.066677
C 4.357194 0.263487 7.406704
C 3.863682 0.476771 7.384198
C 4.870471 0.096631 6.923487
C 5.451776 0.616700 7.048562
C 5.570577 0.079733 7.435155
C 4.973409 0.486587 7.415337
C 6.043143 0.022106 7.028095
C 6.455774 0.479514 7.119004
C 6.538295 0.004824 7.334771
C 5.993861 0.567349 7.425349
C 7.000818 0.029864 6.928901
C 7.375561 0.527042 6.930822
C 7.452136 0.053454 7.284180
C 7.105254 0.562311 7.451930
C 0.044562 0.932620 7.099655
C 0.500383 1.618177 7.081536
C 0.513038 1.097069 7.398195
C 0.052440 1.553373 7.282719
C 0.994979 0.832656 7.028044
C 1.540546 1.368424 6.983844
C 1.454076 1.025049 7.425533
C 0.998506 1.434495 7.443486
C 2.048207 1.151815 6.982754
C 2.604127 1.601422 6.930898
C 2.505719 1.002635 7.315541
C 1.909777 1.484511 7.417881
C 3.034366 0.952414 6.880024
C 3.575167 1.522124 6.932685
C 3.433043 1.016078 7.417840
C 2.971904 1.449382 7.492223
C 4.002901 1.041980 6.870445
C 4.504161 1.430361 7.004280
C 4.366469 1.094349 7.426008
C 4.081834 1.568756 7.459179
C 5.025788 1.079181 6.911935
C 5.586601 1.578396 6.874234
C 5.605806 1.012864 7.416126
C 5.070879 1.528234 7.432891
C 6.082021 1.087615 7.044965
C 6.477962 1.508702 7.088927
C 6.431853 0.972986 7.488676
C 6.046684 1.461759 7.493916
C 6.971122 1.076825 6.892688
C 7.462881 1.500566 7.076365
C 7.331312 1.023513 7.467568
C 6.930674 1.598041 7.383145
C 0.058165 1.886361 6.752451
C 0.516796 2.392229 6.916557
C 0.537950 2.062768 7.472104
C 0.120490 2.593911 7.272037
C 0.993576 1.988817 7.127198
C 1.543837 2.624275 7.052805
C 1.450157 1.918759 7.399187
C 0.916058 2.563061 7.489292
C 1.949258 1.983220 7.075455
C 2.526521 2.410354 7.058368
C 2.621233 2.033010 7.496286
C 2.135241 2.422211 7.492460
C 2.992332 2.026018 7.047948
C 3.454966 2.519568 7.065218
C 3.659668 2.009350 7.462976
C 2.956561 2.529226 7.443079
C 3.894561 2.048651 6.988704
C 4.521840 2.449888 6.919155
C 4.433611 2.126451 7.442006
C 3.874880 2.585598 7.476446
C 4.945823 1.999761 7.061900
C 5.528245 2.484340 6.878870
C 5.551558 2.007867 7.421475
C 4.882398 2.515505 7.419612
C 6.041075 1.947526 6.946424
C 6.581190 2.457525 7.064239
C 6.498240 2.044336 7.451611
C 5.868256 2.503486 7.441413
C 6.835224 1.989142 6.985040
C 7.362644 2.532976 6.761095
C 7.390777 2.100599 7.355819
C 6.991980 2.602627 7.432359
C 0.007410 3.059310 6.853636
C 0.502291 3.600507 6.992637
C 0.569234 3.028525 7.468161
C 0.035185 3.401641 7.436528
C 1.026870 2.935942 7.032816
C 1.638322 3.496169 7.026625
C 1.631314 3.091692 7.478693
C 0.888875 3.533187 7.419641
C 1.933809 3.084226 6.891335
C 2.514013 3.541794 7.013511
C 2.506637 3.053173 7.475075
C 2.055363 3.634795 7.399634
C 2.958487 3.042083 6.956214
C 3.511386 3.494136 7.026860
C 3.539797 3.125188 7.467786
C 2.940834 3.513290 7.472400
C 4.046484 3.119083 6.972786
C 4.442545 3.648598 6.971479
C 4.528318 3.043522 7.360735
C 3.964079 3.547910 7.413267
C 4.970270 3.034266 6.981656
C 5.616304 3.455732 7.037679
C 5.597737 2.986353 7.446997
C 5.028344 3.546765 7.445117
C 6.100149 2.897452 7.002534
C 6.368102 3.558425 6.961301
C 6.448941 2.840506 7.479123
C 6.016525 3.704539 7.481219
C 6.966629 2.939094 6.940910
C 7.327911 3.620416 6.885286
C 7.427516 2.993682 7.419038
C 7.050704 3.442355 7.453218
C 0.143649 4.044419 6.945206
C 0.456063 4.584245 7.058203
C 0.404401 4.126082 7.407451
C 0.065659 4.609684 7.486434
C 0.986012 4.038710 7.107235
C 1.405049 4.422197 7.014500
C 1.423262 4.004070 7.492084
C 0.938397 4.512502 7.334213
C 1.872647 3.969755 7.082740
C 2.370743 4.574662 7.040662
C 2.455803 4.086552 7.376614
C 1.890203 4.653796 7.473238
C 3.031405 3.999135 6.899465
C 3.455967 4.454542 7.050246
C 3.400045 3.942674 7.390994
C 3.005954 4.407216 7.484745
C 3.905349 4.026107 6.905460
C 4.575737 4.504257 7.065626
C 4.551777 4.044397 7.435341
C 4.151626 4.511719 7.472456
C 4.979118 4.062470 7.026528
C 5.618893 4.435497 6.992225
C 5.502723 3.876204 7.408307
C 5.131606 4.377392 7.453029
C 6.096706 4.072942 6.985195
C 6.593339 4.483734 6.947853
C 6.565170 3.949388 7.357166
C 5.947392 4.596541 7.393599
C 7.028371 4.043605 7.005404
C 7.407384 4.584915 7.044685
C 7.340660 4.054088 7.487532
C 6.858067 4.564417 7.490985
C 0.115502 5.074924 7.019493
C 0.469846 5.579142 7.068295
C 0.678898 4.983512 7.417035
C 0.018030 5.516395 7.391503
C 0.930933 5.051456 6.958534
C 1.394602 5.437164 6.943508
C 1.453487 5.066719 7.482294
C 1.063606 5.490095 7.426193
C 2.092904 5.069112 7.013588
C 2.520373 5.479586 6.945074
C 2.355053 4.983749 7.480941
C 1.946126 5.406564 7.455123
C 3.016645 4.997806 6.954920
C 3.326265 5.555682 6.985887
C 3.464764 5.059463 7.362773
C 3.088024 5.478110 7.489734
C 3.970813 5.126437 6.949224
C 4.428095 5.593230 7.059131
C 4.499185 5.148296 7.465356
C 4.019263 5.475359 7.476650
C 4.914760 5.015146 7.108083
C 5.418169 5.578454 7.006383
C 5.439388 5.098236 7.447099
C 4.872959 5.615092 7.424679
C 6.080505 4.951565 6.999135
C 6.427426 5.477518 7.013476
C 6.421021 4.713425 7.441614
C 5.960814 5.508518 7.417196
C 6.935786 5.024647 7.025608
C 7.457168 5.640039 6.885532
C 7.447155 5.103444 7.472674
C 6.988000 5.512987 7.264920
C 0.025191 6.036288 6.934261
C 0.470062 6.529020 6.856160
C 0.598020 6.061047 7.443883
C 0.073805 6.413602 7.420880
C 0.980635 6.022485 6.915854
C 1.387899 6.475064 6.969940
C 1.523607 5.934745 7.414441
C 0.831013 6.570604 7.488007
C 2.084607 6.062981 6.920602
C 2.492822 6.535332 7.004996
C 2.453002 6.043860 7.456034
C 2.078627 6.529851 7.470932
C 2.847295 6.071638 7.027784
C 3.423934 6.431914 7.062167
C 3.420093 6.008758 7.497471
C 2.954064 6.335261 7.489906
C 4.055541 5.935262 6.907683
C 4.522720 6.475341 7.006227
C 4.420412 6.004404 7.476713
C 3.954396 6.478874 7.394049
C 5.050806 6.032374 7.003134
C 5.562473 6.415818 7.094627
C 5.412329 6.004148 7.485160
C 5.060710 6.465864 7.402674
C 6.022198 6.053215 7.075281
C 6.471838 6.572276 6.919160
C 6.505877 5.887450 7.495465
C 6.082401 6.463763 7.479743
C 7.066558 5.970605 7.059541
C 7.469098 6.510367 6.987450
C 7.433949 6.030812 7.494700
C 7.032136 6.527731 7.438812
C 0.171416 7.062662 7.017398
C 0.621521 7.478317 6.981981
C 0.637413 7.050071 7.400463
C 0.127144 7.498457 7.431860
C 0.976250 6.887775 7.027512
C 1.377869 7.483376 6.954943
C 1.463101 6.938436 7.458930
C 1.153135 7.441835 7.419104
C 1.945424 6.934627 7.113362
C 2.656488 7.429787 7.019845
C 2.581421 6.892390 7.483713
C 2.101052 7.357159 7.385186
C 2.945930 6.922899 6.962856
C 3.579929 7.412995 6.979539
C 3.666374 7.020291 7.395883
C 2.843084 7.469476 7.470633
C 4.124781 6.968087 6.957051
C 4.388393 7.388484 7.126290
C 4.419801 6.863710 7.453849
C 3.836369 7.499834 7.467770
C 4.929921 7.111650 7.050191
C 5.386651 7.454471 6.941481
C 5.445223 6.961572 7.464438
C 5.111567 7.430743 7.489139
C 6.105547 7.020891 6.995069
C 6.678353 7.411511 6.950128
C 6.330720 7.008517 7.491512
C 5.885344 7.480688 7.437354
C 7.006554 6.922969 6.943701
C 7.420490 7.491936 7.032866
C 7.371507 6.996050 7.404592
C 6.858203 7.467328 7.389581
2048
Frame 6/10
C 0.118619 0.132871 0.140467
C 0.519475 0.439513 0.009850
C 0.459755 0.041405 0.566488
C 0.021969 0.649462 0.569158
C 0.911525 0.011783 0.020719
C 1.367505 0.617810 0.150163
C 1.487279 0.074925 0.479712
C 1.043967 0.484185 0.620846
C 1.939024 0.005305 0.003048
C 2.562441 0.472193 0.085891
C 2.641339 0.076952 0.555863
C 2.068113 0.444823 0.596075
C 3.171201 0.049276 0.174054
C 3.377669 0.534925 0.063647
C 3.664910 0.155937 0.411574
C 3.037749 0.535862 0.692130
C 4.272005 0.002733 0.013095
C 4.374404 0.628368 0.055257
C 4.572925 0.072500 0.586387
C 4.068072 0.446957 0.607571
C 5.148617 0.096702 0.000966
C 5.401421 0.658543 0.115313
C 5.608632 0.051506 0.494000
C 4.995602 0.393680 0.444024
C 5.850557 0.167694 0.026578
C 6.480228 0.623273 0.036202
C 6.482842 0.027288 0.568133
C 6.029974 0.496444 0.489711
C 7.184012 0.011644 0.039394
C 7.408361 0.635049 0.178112
C 7.291982 0.058694 0.593496
C 6.919312 0.545987 0.488053
C 0.124211 0.856520 0.120013
C 0.648393 1.590762 0.017749
C 0.446055 1.084817 0.493649
C 0.151828 1.482615 0.331476
C 1.011032 0.983318 0.015659
C 1.510767 1.557443 0.060377
C 1.622494 1.180876 0.530365
C 0.989377 1.521758 0.632900
C 1.908559 1.090173 0.018836
C 2.613229 1.563231 0.018799
C 2.564678 0.904418 0.576176
C 2.078598 1.476495 0.338589
C 2.912690 0.900752 0.005077
C 3.353963 1.584828 0.248675
C 3.517400 0.810009 0.474802
C 2.911693 1.424821 0.420721
C 3.897899 1.099113 0.187856
C 4.477554 1.445516 0.000375
C 4.655772 1.006711 0.461272
C 3.911957 1.565640 0.429843
C 5.054005 1.188067 0.045227
C 5.451285 1.582034 0.095209
C 5.634208 1.062150 0.484187
C 5.058132 1.488568 0.495803
C 5.922649 0.892590 0.099551
C 6.458815 1.545581 0.156554
C 6.412333 1.069034 0.342200
C 6.043502 1.583964 0.509206
C 6.890504 0.983646 0.080474
C 7.451230 1.584694 0.011119
C 7.338878 1.062892 0.494048
C 6.884792 1.627850 0.541862
C 0.132315 2.177264 0.022963
C 0.554617 2.595920 0.028510
C 0.441347 1.947964 0.381351
C 0.085036 2.331390 0.538955
C 0.952765 2.086902 0.060637
C 1.497812 2.469764 0.176136
C 1.600809 2.035448 0.462897
C 0.874845 2.390556 0.543811
C 2.065588 2.066794 0.146453
C 2.398236 2.475660 0.015058
C 2.587253 2.054030 0.719486
C 2.051497 2.667836 0.615731
C 2.905945 2.014972 0.152099
C 3.565818 2.653951 0.022140
C 3.319747 2.058096 0.507994
C 3.138444 2.626986 0.488075
C 4.067911 1.915895 0.062560
C 4.437328 2.432943 0.055553
C 4.362265 1.910463 0.565008
C 3.953482 2.594580 0.490515
C 5.108968 2.007789 0.078814
C 5.279752 2.514029 0.055176
C 5.577972 2.052380 0.529172
C 5.081047 2.682214 0.491243
C 5.930694 2.109008 0.069542
C 6.521688 2.489145 0.068773
C 6.567919 2.068329 0.663182
C 5.945118 2.506370 0.561714
C 6.790305 1.951822 0.029253
C 7.458735 2.457608 0.109260
C 7.364762 1.923439 0.488037
C 7.022583 2.401171 0.431193
C 0.195661 3.058482 0.079326
C 0.552337 3.742004 0.073863
C 0.523022 3.161812 0.533832
C 0.070108 3.311245 0.631515
C 0.969245 2.979489 0.078700
C 1.409350 3.633743 0.027543
C 1.429172 3.086404 0.474227
C 0.968500 3.435734 0.355910
C 1.894360 2.836781 0.054541
C 2.455000 3.679104 0.079280
C 2.596961 2.940982 0.442324
C 2.082130 3.449707 0.512509
C 2.959937 2.888867 0.011640
C 3.335523 3.542958 0.031805
C 3.365266 3.080360 0.558199
C 3.027187 3.552874 0.549145
C 3.960056 3.095721 0.028395
C 4.695920 3.515809 0.075136
C 4.591092 3.080465 0.392658
C 4.108191 3.598894 0.547223
C 5.150119 3.125894 0.154676
C 5.585986 3.578447 0.017237
C 5.655240 2.986935 0.568448
C 5.069147 3.578417 0.503743
C 5.816833 2.974534 0.001317
C 6.584375 3.387074 0.187323
C 6.315370 2.900997 0.449711
C 6.102122 3.362883 0.451685
C 7.055067 3.067868 0.013041
C 7.434677 3.608472 0.132467
C 7.411228 2.887947 0.454405
C 7.066189 3.471953 0.549991
C 0.077918 3.859302 0.175857
C 0.388749 4.462460 0.019022
C 0.611268 4.102046 0.493159
C 0.153841 4.467099 0.526740
C 1.013322 4.052176 0.097444
C 1.510235 4.316728 0.103332
C 1.388193 3.908702 0.480282
C 0.926264 4.542596 0.423048
C 1.989852 4.037847 0.181683
C 2.624710 4.530525 0.111077
C 2.450858 4.201561 0.514265
C 1.903945 4.623763 0.469281
C 2.900681 4.068595 0.038051
C 3.473849 4.467914 0.009297
C 3.453669 4.008173 0.334339
C 3.047969 4.368190 0.489970
C 3.949100 4.157345 0.025506
C 4.480582 4.495552 0.009421
C 4.637941 3.978855 0.502890
C 4.103626 4.594741 0.515581
C 4.970729 4.019750 0.064468
C 5.509131 4.450963 0.172509
C 5.530189 3.879310 0.483571
C 4.904001 4.608847 0.436241
C 6.043897 3.914834 0.143271
C 6.590498 4.524124 0.061663
C 6.408646 4.140351 0.480615
C 5.980840 4.484099 0.367625
C 6.851676 4.060994 0.095218
C 7.372998 4.616857 0.003145
C 7.392416 4.110770 0.407526
C 6.942234 4.644277 0.483170
C 0.026900 4.942990 0.231199
C 0.457223 5.610809 0.004575
C 0.603175 5.079704 0.652041
C 0.042238 5.500248 0.608231
C 0.936143 5.068468 0.084047
C 1.318402 5.615766 0.093285
C 1.548118 5.165288 0.431117
C 0.892229 5.530575 0.421230
C 2.117347 5.187951 0.052663
C 2.604294 5.543488 0.130117
C 2.564101 5.094599 0.455543
C 1.998435 5.454861 0.534122
C 2.974784 4.971502 0.150153
C 3.418183 5.378310 0.085696
C 3.443291 5.069824 0.584571
C 3.013053 5.485121 0.615681
C 3.918954 4.999617 0.173800
C 4.597393 5.594614 0.041482
C 4.538250 5.023085 0.614900
C 3.852818 5.474809 0.570484
C 5.070988 4.908431 0.061203
C 5.546979 5.530766 0.039833
C 5.512232 5.038134 0.314535
C 5.039644 5.469300 0.408202
C 6.065704 4.876623 0.004712
C 6.472120 5.338139 0.097772
C 6.465327 4.834827 0.499176
C 5.788926 5.520913 0.562964
C 6.953326 5.100580 0.024977
C 7.413943 5.603417 0.069854
C 7.390553 4.884240 0.623185
C 7.025276 5.560149 0.484716
C 0.003219 5.841146 0.113005
C 0.441319 6.486405 0.090295
C 0.566690 6.008478 0.479439
C 0.047283 6.374441 0.453481
C 0.898364 6.049643 0.050174
C 1.365476 6.357297 0.167580
C 1.696069 5.996692 0.439460
C 0.979529 6.398876 0.631368
C 1.994850 5.843026 0.032952
C 2.566132 6.456666 0.031600
C 2.559584 5.997416 0.425742
C 2.065327 6.515379 0.541166
C 3.116866 6.135657 0.079770
C 3.577981 6.313733 0.046120
C 3.387239 5.960346 0.465454
C 3.152669 6.522334 0.489318
C 4.029418 6.035051 0.197430
C 4.524179 6.604338 0.019142
C 4.568488 5.914413 0.525828
C 3.878137 6.557287 0.363260
C 4.997995 6.035932 0.012429
C 5.382754 6.583885 0.061301
C 5.310884 5.941462 0.564331
C 5.045580 6.419490 0.447591
C 6.114496 6.019973 0.045674
C 6.355520 6.605095 0.075623
C 6.573930 5.953394 0.405559
C 5.877684 6.503832 0.535769
C 7.064316 6.132359 0.039726
C 7.475690 6.674813 0.090548
C 7.387922 6.027932 0.695511
C 6.845795 6.503270 0.369816
C 0.165625 6.997172 0.000624
C 0.704600 7.463418 0.020993
C 0.408438 6.927131 0.449070
C 0.012501 7.478013 0.462218
C 0.939357 6.792640 0.040786
C 1.454848 7.199363 0.018424
C 1.596044 7.069592 0.575919
C 1.152643 7.381371 0.585330
C 2.150070 6.913477 0.155024
C 2.424289 7.371929 0.224937
C 2.371833 7.052140 0.672286
C 1.951482 7.415961 0.384439
C 3.212664 6.953144 0.050495
C 3.584367 7.415757 0.065214
C 3.409985 7.016974 0.534144
C 2.952847 7.495667 0.269438
C 4.167861 7.023512 0.099350
C 4.676174 7.490698 0.124360
C 4.422971 6.881249 0.521863
C 3.968435 7.452158 0.607996
C 4.976444 6.925353 0.164113
C 5.407373 7.461375 0.022292
C 5.604791 6.951638 0.413974
C 5.151229 7.433063 0.524906
C 5.872122 7.147733 0.063596
C 6.531432 7.455830 0.073335
C 6.610886 6.980293 0.527953
C 5.897129 7.477194 0.582089
C 7.001850 6.976225 0.022096
C 7.207933 7.383027 0.169276
C 7.308211 6.778513 0.523477
C 7.028228 7.397308 0.720456
C 0.012114 0.139896 0.910065
C 0.383049 0.515087 1.043484
C 0.454898 0.019157 1.517875
C 0.004428 0.461792 1.469644
C 1.039259 0.033447 1.012224
C 1.619781 0.512400 0.922528
C 1.561985 0.032648 1.633174
C 0.853600 0.575682 1.448873
C 2.102968 0.117113 1.083399
C 2.571119 0.373729 1.029481
C 2.570040 0.045350 1.574688
C 2.040674 0.672829 1.583862
C 3.056887 0.055667 0.964246
C 3.649256 0.619255 1.028308
C 3.641016 0.137760 1.439887
C 2.903796 0.522173 1.518260
C 3.876133 0.111768 0.971845
C 4.606013 0.361309 1.043594
C 4.286004 0.049964 1.550032
C 4.023172 0.638570 1.670847
C 5.150162 0.047558 0.864315
C 5.640626 0.442510 0.959040
C 5.390254 0.031591 1.489526
C 4.959752 0.382008 1.500560
C 5.958514 0.091385 1.190491
C 6.636378 0.459288 0.947592
C 6.549851 0.025116 1.688007
C 5.923605 0.695406 1.469426
C 6.896340 0.002322 1.181555
C 7.494933 0.387346 0.989228
C 7.293628 0.198950 1.364494
C 6.868270 0.462608 1.617454
C 0.087127 1.044692 0.939754
C 0.560280 1.504238 1.032786
C 0.426054 0.959743 1.375276
C 0.083831 1.385956 1.365952
C 0.936933 0.925520 0.915949
C 1.416188 1.469572 1.070327
C 1.454175 0.994781 1.622819
C 0.876692 1.506263 1.540531
C 1.824930 1.011152 0.961197
C 2.609812 1.545183 1.054083
C 2.510322 0.882824 1.375538
C 2.003760 1.410959 1.409005
C 2.973765 1.075512 0.963883
C 3.481437 1.464390 0.961166
C 3.604625 0.920735 1.546473
C 3.016035 1.462575 1.654458
C 4.011974 1.061917 1.044719
C 4.571305 1.549445 0.965468
C 4.489411 0.953332 1.483727
C 4.061539 1.547303 1.326489
C 4.852403 1.101592 1.039016
C 5.618411 1.542076 0.977375
C 5.622828 1.146917 1.624207
C 5.126350 1.453337 1.350492
C 6.089741 0.879139 0.993931
C 6.496890 1.610592 0.983057
C 6.478048 0.858773 1.463573
C 5.893745 1.570980 1.499520
C 7.105698 0.926485 0.994306
C 7.391178 1.548110 1.081279
C 7.435447 0.831591 1.524413
C 6.996722 1.619208 1.480682
C 0.084553 1.964740 1.178940
C 0.489440 2.338656 0.949498
C 0.561085 2.009207 1.615935
C 0.011405 2.463032 1.525952
C 1.083622 2.007654 0.965506
C 1.440565 2.518214 0.940710
C 1.473463 1.901461 1.574452
C 1.132034 2.454866 1.427548
C 2.086801 1.874243 0.946188
C 2.454629 2.509965 1.022394
C 2.400044 1.993468 1.468017
C 2.115851 2.499837 1.548651
C 3.128800 2.021740 1.036912
C 3.457226 2.455766 0.853061
C 3.658174 1.916963 1.538162
C 3.086733 2.361156 1.506360
C 3.981392 2.146721 0.918347
C 4.399559 2.516614 0.844524
C 4.370774 1.963615 1.462434
C 3.990453 2.523421 1.518075
C 4.934074 1.934877 1.105629
C 5.509268 2.609468 0.976868
C 5.421686 1.909029 1.387929
C 5.063625 2.326697 1.478909
C 5.854277 2.072663 1.011668
C 6.680224 2.545739 0.953089
C 6.566891 2.080002 1.538501
C 6.106689 2.445708 1.540921
C 6.936695 1.922764 1.022538
C 7.474512 2.662198 0.945618
C 7.453835 1.982409 1.646520
C 6.826215 2.585476 1.542899
C 0.074092 3.164889 1.079585
C 0.630417 3.397273 1.105998
C 0.556090 2.979810 1.635673
C 0.038166 3.672050 1.497051
C 1.056403 2.965359 0.935218
C 1.430056 3.481507 0.913630
C 1.438933 2.897763 1.369294
C 1.009553 3.316442 1.603012
C 1.985935 3.034744 1.106144
C 2.571651 3.610100 0.864680
C 2.496107 2.991463 1.461967
C 2.126943 3.465470 1.515704
C 2.950299 2.925317 1.173874
C 3.346185 3.392701 1.105422
C 3.521979 2.883962 1.428669
C 2.854298 3.605238 1.538626
C 3.940172 2.992544 0.933567
C 4.602611 3.541565 1.096862
C 4.449642 3.125211 1.374196
C 4.021644 3.554552 1.640098
C 5.003504 3.039455 0.990900
C 5.414655 3.578771 1.057100
C 5.485735 3.094596 1.470250
C 5.134348 3.592655 1.512437
C 5.943979 3.049814 1.052952
C 6.553050 3.328675 0.894837
C 6.276472 2.968152 1.469015
C 5.955817 3.429016 1.527087
C 6.969609 2.987389 0.787388
C 7.483937 3.365692 0.917699
C 7.367052 3.008519 1.483584
C 6.872336 3.605322 1.546864
C 0.062460 3.976013 0.862704
C 0.530103 4.612066 0.858669
C 0.641164 3.990115 1.590593
C 0.051665 4.533114 1.343071
C 1.133491 3.961932 1.091645
C 1.504535 4.474290 1.130652
C 1.551076 3.932747 1.520706
C 0.995487 4.611317 1.520026
C 2.062330 3.835971 0.936734
C 2.460556 4.630957 0.870030
C 2.437780 3.923726 1.434903
C 2.025444 4.567504 1.501096
C 2.919828 3.954754 1.080814
C 3.346560 4.384982 1.064242
C 3.558854 3.906164 1.570646
C 3.035124 4.433721 1.630731
C 3.974278 4.100474 1.077755
C 4.606082 4.472859 1.036052
C 4.349680 3.898557 1.426547
C 3.817967 4.422254 1.496641
C 5.046788 4.032496 1.083744
C 5.528633 4.315947 0.997919
C 5.415442 4.133905 1.498932
C 5.160146 4.602260 1.531944
C 5.908067 3.958832 1.180021
C 6.485809 4.392326 1.111763
C 6.401838 3.843676 1.589830
C 6.122599 4.493206 1.497626
C 6.897994 3.992532 1.031835
C 7.430305 4.358121 0.864247
C 7.381876 3.943966 1.566350
C 6.947304 4.354191 1.484103
C 0.087639 4.922563 0.910466
C 0.480994 5.639483 0.899476
C 0.498918 5.144631 1.385114
C 0.148761 5.458413 1.615686
C 0.963809 4.866920 0.985823
C 1.596879 5.635515 1.121321
C 1.441650 4.981847 1.443639
C 1.043331 5.532641 1.337640
C 2.105535 4.961565 1.108788
C 2.405164 5.610800 0.968833
C 2.543999 4.984399 1.622966
C 2.125003 5.478080 1.422643
C 3.010017 5.096329 1.083240
C 3.444817 5.508438 1.041615
C 3.449777 5.063445 1.456206
C 3.013547 5.393005 1.531194
C 3.856389 5.124998 1.006122
C 4.455114 5.492478 0.887572
C 4.592385 4.994693 1.611182
C 4.078282 5.480716 1.426535
C 5.098446 4.975586 1.109928
C 5.352390 5.416193 0.935531
C 5.548560 5.199790 1.382463
C 4.890751 5.523630 1.357949
C 5.967315 5.054376 1.138988
C 6.492831 5.610784 0.864840
C 6.489359 5.033274 1.350579
C 5.913697 5.580855 1.505454
C 7.141081 5.029535 1.051845
C 7.436353 5.496763 1.032310
C 7.374702 4.946660 1.666732
C 7.095985 5.446054 1.519535
C 0.046038 6.241198 0.947668
C 0.506206 6.447737 0.876433
C 0.450415 5.889066 1.503161
C 0.016764 6.411375 1.414646
C 0.966412 5.993470 1.106021
C 1.462110 6.416356 0.934077
C 1.435631 6.096462 1.373284
C 0.915997 6.412723 1.566585
C 1.980446 6.016253 0.891068
C 2.474775 6.621007 0.949961
C 2.471819 6.065671 1.367888
C 2.032714 6.508294 1.423788
C 2.857204 5.902786 0.964690
C 3.413868 6.406461 0.991486
C 3.618844 5.956389 1.502734
C 3.049935 6.399794 1.656252
C 4.004660 5.844937 0.986368
C 4.363784 6.533772 1.028065
C 4.606996 5.997003 1.509614
C 3.906305 6.451548 1.380037
C 4.961389 6.078945 0.981200
C 5.412363 6.479811 1.070776
C 5.476744 5.911796 1.435917
C 4.904221 6.552155 1.496170
C 5.989146 6.012995 0.877263
C 6.415785 6.413859 1.103251
C 6.460593 5.932298 1.567626
C 5.919697 6.484106 1.482423
C 6.841662 5.867684 1.073259
C 7.474806 6.613739 0.991009
C 7.442418 5.899483 1.607331
C 7.106485 6.439298 1.487549
C 0.200478 6.996003 1.044577
C 0.517519 7.350927 0.782791
C 0.567219 6.973322 1.489379
C 0.140810 7.472114 1.395019
C 0.911626 7.079285 0.995477
C 1.470941 7.488344 1.217619
C 1.534444 7.004756 1.355027
C 0.867453 7.484793 1.478314
C 1.924666 6.800777 0.975038
C 2.570030 7.472031 1.003781
C 2.547380 6.932919 1.508602
C 1.982731 7.413565 1.611550
C 2.977461 7.056504 0.919561
C 3.418988 7.460186 0.932026
C 3.537362 6.886230 1.425669
C 2.948334 7.345102 1.445864
C 4.157745 7.019523 1.072115
C 4.612404 7.479910 1.086716
C 4.683763 7.009288 1.395744
C 4.083149 7.446835 1.483133
C 5.099956 7.096669 1.018600
C 5.550058 7.453749 1.055188
C 5.374298 6.952762 1.569112
C 4.986512 7.484086 1.550915
C 6.005280 7.088746 1.087114
C 6.561384 7.464083 1.023108
C 6.546594 7.063424 1.402670
C 6.090417 7.491725 1.462719
C 6.976615 6.821220 1.112535
C 7.286717 7.321408 1.172072
C 7.352151 6.910234 1.606846
C 6.958121 7.418360 1.740518
C 0.028813 0.090052 2.192999
C 0.630536 0.413447 1.981624
C 0.490004 0.088549 2.432606
C 0.040358 0.550982 2.406203
C 1.052496 0.076856 1.867365
C 1.441534 0.470522 1.907674
C 1.523506 0.139115 2.552615
C 0.911649 0.661723 2.394328
C 2.129602 0.040851 1.971283
C 2.380920 0.526988 1.988699
C 2.433372 0.046541 2.509232
C 1.915264 0.558144 2.652902
C 2.969096 0.028022 2.175988
C 3.405088 0.426707 1.958579
C 3.541787 0.062941 2.336679
C 2.948159 0.589788 2.568533
C 4.025480 0.187394 2.118525
C 4.443963 0.443808 1.871256
C 4.542869 0.028457 2.455059
C 3.922129 0.517066 2.565592
C 5.105252 0.022794 2.051165
C 5.592876 0.466970 2.084901
C 5.530110 0.010326 2.473046
C 5.037703 0.393587 2.492369
C 5.926128 0.086825 1.924059
C 6.368262 0.485137 1.887926
C 6.385762 0.107586 2.357236
C 5.939841 0.369700 2.537161
C 6.962637 0.058393 2.146161
C 7.299576 0.532928 2.039117
C 7.419962 0.088615 2.252173
C 6.893538 0.616185 2.660067
C 0.065288 1.087868 1.815548
C 0.334307 1.530580 1.970473
C 0.429406 0.921837 2.537616
C 0.100404 1.355954 2.456090
C 0.899991 1.079112 2.039301
C 1.360676 1.485547 1.925675
C 1.412227 0.921470 2.405598
C 0.943234 1.468028 2.611130
C 1.960286 1.194787 2.000395
C 2.568697 1.625581 2.110705
C 2.310063 0.952581 2.469813
C 2.060956 1.478636 2.547824
C 3.099393 0.912401 1.989288
C 3.474048 1.441017 2.059062
C 3.565648 0.914460 2.392825
C 2.972419 1.421320 2.353524
C 3.885997 1.036946 1.978295
C 4.331876 1.496383 1.972304
C 4.595563 1.068121 2.553893
C 4.084346 1.626080 2.570238
C 5.067655 1.131781 2.015808
C 5.356273 1.604291 2.065580
C 5.500014 0.837730 2.480574
C 5.045597 1.535032 2.498585
C 6.083151 1.074800 2.049057
C 6.562329 1.513384 1.959381
C 6.402090 0.953213 2.684193
C 6.082428 1.410952 2.502194
C 6.864404 0.971593 1.866308
C 7.464863 1.376742 1.878184
C 7.468261 0.937222 2.469125
C 7.064606 1.601296 2.634884
C 0.012154 2.040078 1.916943
C 0.539579 2.487524 1.863182
C 0.430508 1.919295 2.547537
C 0.150026 2.396168 2.563074
C 1.167759 1.979711 2.052417
C 1.529866 2.641181 2.023248
C 1.485511 1.812250 2.418755
C 0.899048 2.515860 2.482201
C 2.118556 1.928757 1.974727
C 2.544564 2.347278 2.001413
C 2.513017 1.963737 2.712706
C 1.947477 2.413126 2.445940
C 2.976265 1.915848 1.951774
C 3.517790 2.515505 1.908481
C 3.529728 1.894888 2.516372
C 2.901946 2.411732 2.510343
C 4.035410 2.062173 1.963198
C 4.401903 2.511086 2.022982
C 4.579782 1.965896 2.604563
C 3.935649 2.380201 2.458588
C 4.944702 1.873722 1.862988
C 5.452242 2.435499 1.990948
C 5.580784 1.975404 2.432722
C 5.033760 2.364123 2.413134
C 6.129964 2.057471 1.994060
C 6.417828 2.563947 2.040034
C 6.493152 2.076890 2.520185
C 6.044456 2.388242 2.503263
C 6.923557 1.881682 2.166544
C 7.496878 2.453998 2.051628
C 7.455088 1.985656 2.531491
C 7.009565 2.563932 2.678373
C 0.054764 2.848487 2.113096
C 0.583341 3.452705 2.128711
C 0.418066 3.038173 2.412610
C 0.000156 3.420907 2.444947
C 0.918313 3.013706 2.160674
C 1.433788 3.460518 2.012981
C 1.549620 2.934744 2.485458
C 0.867953 3.538383 2.610646
C 2.030304 3.000347 1.870814
C 2.546686 3.385467 1.932268
C 2.550129 2.955861 2.612215
C 1.835714 3.512193 2.559018
C 2.994107 3.165147 2.055232
C 3.592138 3.529336 2.059476
C 3.419020 3.092469 2.548342
C 3.037719 3.527288 2.532022
C 4.132250 2.976264 1.922685
C 4.497072 3.568057 1.922084
C 4.462054 3.038724 2.386084
C 4.068176 3.468275 2.321211
C 4.821462 2.960913 1.952971
C 5.534581 3.343952 2.035183
C 5.565854 2.749735 2.545500
C 4.931168 3.422826 2.523867
C 6.015393 2.941663 2.117724
C 6.512139 3.510186 2.115305
C 6.461091 3.073264 2.583155
C 5.970985 3.396796 2.350024
C 7.061004 3.128324 1.948490
C 7.497014 3.461480 1.810723
C 7.424588 3.001413 2.424973
C 7.061141 3.506965 2.542347
C 0.032269 3.972862 2.112740
C 0.502781 4.378420 2.053612
C 0.519808 3.916138 2.318643
C 0.140764 4.379364 2.533762
C 0.973178 3.938106 2.052410
C 1.507733 4.415034 2.113369
C 1.599418 3.940945 2.390344
C 1.157267 4.506848 2.570726
C 1.929786 3.962029 1.922960
C 2.570922 4.399897 1.903874
C 2.515426 4.188464 2.393057
C 2.093530 4.541002 2.499722
C 3.020480 3.977195 2.148169
C 3.456804 4.509052 2.152149
C 3.588065 4.073352 2.524297
C 2.943813 4.342509 2.567162
C 4.040876 4.094789 1.884536
C 4.468608 4.419630 1.942204
C 4.433517 3.862331 2.452802
C 3.973860 4.479489 2.525288
C 5.087853 3.886635 1.966008
C 5.549302 4.570424 2.017814
C 5.381326 4.089613 2.636358
C 4.955360 4.537432 2.413455
C 6.003736 3.934870 1.944960
C 6.441165 4.346126 1.882013
C 6.506982 3.926281 2.522501
C 6.047555 4.491587 2.650225
C 7.030598 4.020447 1.982121
C 7.359138 4.532860 2.056408
C 7.490688 3.840209 2.412780
C 6.816785 4.553281 2.552847
C 0.032552 4.963953 1.829514
C 0.447305 5.398548 2.097588
C 0.429502 5.101621 2.579331
C 0.072447 5.675512 2.576907
C 1.009579 5.011491 1.990824
C 1.456480 5.519095 1.896455
C 1.504449 5.028264 2.375881
C 1.045761 5.485011 2.425730
C 1.995863 5.082594 2.121581
C 2.584307 5.540646 1.991374
C 2.412503 4.991475 2.551278
C 1.896612 5.455961 2.526652
C 3.030675 4.990476 1.937197
C 3.448534 5.679161 2.009514
C 3.479713 5.030118 2.557127
C 3.036164 5.356777 2.535929
C 3.882240 4.977442 2.136309
C 4.483912 5.514615 2.107678
C 4.401022 5.068639 2.538275
C 3.979646 5.452490 2.414663
C 5.114822 4.966178 2.135824
C 5.612565 5.410892 1.883961
C 5.464997 5.045957 2.570489
C 4.905881 5.469252 2.541230
C 6.093802 4.834157 2.016385
C 6.456302 5.398703 2.100087
C 6.500808 4.977331 2.675786
C 6.104244 5.418174 2.540044
C 6.825730 4.879221 2.116278
C 7.385439 5.333873 2.091821
C 7.384680 4.827760 2.657189
C 7.143926 5.549445 2.483831
C 0.142628 5.944642 2.004836
C 0.360163 6.431228 2.040890
C 0.442954 6.097025 2.456469
C 0.092662 6.503266 2.574525
C 1.041634 5.997347 2.113550
C 1.424257 6.527466 1.987277
C 1.518163 6.030490 2.441413
C 0.972566 6.555561 2.293743
C 2.105261 6.114474 1.984158
C 2.567402 6.529336 2.098047
C 2.540866 5.983215 2.443134
C 2.015673 6.552369 2.358542
C 2.989390 6.107164 2.129222
C 3.456160 6.555861 2.129178
C 3.579973 6.071313 2.400835
C 2.864508 6.418676 2.547747
C 3.967628 5.893089 2.076312
C 4.504050 6.488688 2.088235
C 4.515171 5.984646 2.524998
C 3.851570 6.462029 2.574923
C 5.087104 5.905829 1.865721
C 5.418081 6.499571 2.056258
C 5.389683 5.993353 2.618442
C 4.992097 6.431498 2.448912
C 5.914547 5.930468 1.928095
C 6.497071 6.413772 2.127196
C 6.654113 5.867827 2.494879
C 5.976107 6.492987 2.670583
C 6.986105 5.948393 2.040185
C 7.368295 6.447544 2.004002
C 7.458506 6.096548 2.427433
C 6.940251 6.518077 2.410082
C 0.043993 7.083947 1.831358
C 0.492988 7.393386 1.866647
C 0.524994 7.065024 2.659672
C 0.154830 7.319395 2.445142
C 1.012205 7.000825 2.172678
C 1.631970 7.422252 2.051013
C 1.456063 6.922136 2.436991
C 1.039872 7.492552 2.612929
C 2.051433 6.954222 1.848777
C 2.468245 7.414189 2.017987
C 2.603020 7.080767 2.463362
C 2.021668 7.467916 2.495859
C 2.867480 6.951887 1.958098
C 3.431987 7.368802 2.129306
C 3.616928 7.113439 2.538460
C 3.172785 7.432277 2.580242
C 3.870759 7.065775 1.969065
C 4.418306 7.449198 1.924427
C 4.434056 6.934431 2.471845
C 3.983405 7.469592 2.384228
C 4.943100 6.930594 1.910200
C 5.463253 7.376475 2.126962
C 5.439438 7.031272 2.550738
C 4.910698 7.318400 2.410684
C 5.969841 6.918037 2.044561
C 6.315321 7.405888 1.989008
C 6.440608 6.941642 2.547190
C 5.820215 7.479460 2.520074
C 6.961641 6.962885 2.035821
C 7.439943 7.395074 1.914870
C 7.480142 7.103026 2.523252
C 6.947319 7.354010 2.624596
C 0.103904 0.006574 2.980006
C 0.432300 0.468646 2.890872
C 0.640991 0.084505 3.591378
C 0.133716 0.525065 3.462502
C 1.055662 0.167438 2.948186
C 1.453975 0.632189 2.914187
C 1.384360 0.141561 3.412641
C 0.924805 0.499389 3.390781
C 1.993660 0.058401 2.922308
C 2.534883 0.447031 2.848350
C 2.398808 0.019218 3.418025
C 2.094752 0.556888 3.535583
C 3.100837 0.093689 2.888321
C 3.452063 0.576813 2.862103
C 3.488964 0.058595 3.507050
C 3.076695 0.487621 3.578559
C 3.900884 0.005911 2.826493
C 4.412876 0.549011 3.101370
C 4.425914 0.079159 3.273997
C 3.941479 0.490191 3.290706
C 4.938971 0.004138 3.072125
C 5.434954 0.514687 3.001194
C 5.495818 0.115228 3.437522
C 4.996590 0.627220 3.428069
C 5.929845 0.001978 3.050922
C 6.550031 0.380697 2.971660
C 6.668220 0.028057 3.484373
C 5.868739 0.617961 3.548021
C 7.083953 0.123167 2.829057
C 7.466859 0.396522 2.997839
C 7.416686 0.008077 3.566912
C 7.084559 0.445588 3.513514
C 0.002091 1.125410 3.188654
C 0.424340 1.358644 2.910467
C 0.449081 1.031074 3.426904
C 0.111531 1.598151 3.475392
C 1.034008 0.978810 2.868705
C 1.596647 1.472316 2.892564
C 1.647504 0.979716 3.465160
C 1.122393 1.466444 3.564831
C 2.099211 0.919034 2.929129
C 2.526023 1.385141 2.977749
C 2.572553 0.971396 3.487115
C 2.134954 1.467570 3.382618
C 2.976333 0.843990 3.116567
C 3.554896 1.436024 2.923223
C 3.448833 0.960504 3.579576
C 3.012762 1.552702 3.511137
C 4.021910 1.036704 3.161770
C 4.498281 1.536832 2.937391
C 4.661898 1.066285 3.489955
C 3.830238 1.416184 3.442477
C 5.090425 1.205685 3.089049
C 5.548460 1.404065 2.852098
C 5.524527 1.127408 3.495739
C 5.005982 1.445057 3.632088
C 5.920357 0.915239 2.998447
C 6.655877 1.490446 3.007777
C 6.586579 0.896758 3.492249
C 6.168794 1.444467 3.571176
C 6.998949 1.038801 2.799678
C 7.496072 1.306144 2.991086
C 7.448654 0.946699 3.597331
C 6.999731 1.570801 3.517029
C 0.010490 2.127845 3.101024
C 0.622747 2.593242 3.024805
C 0.492696 2.035949 3.395771
C 0.022996 2.664471 3.560999
C 0.866736 1.977287 2.995770
C 1.625056 2.563360 3.127016
C 1.618019 2.035503 3.433420
C 0.912113 2.402836 3.470171
C 2.021727 1.902134 2.979332
C 2.557864 2.543767 3.015972
C 2.531485 2.044417 3.420182
C 2.092599 2.597656 3.436110
C 3.017266 1.895952 3.077699
C 3.489024 2.573857 2.979527
C 3.413527 1.958404 3.595241
C 3.006036 2.564934 3.650604
C 3.886717 2.090525 2.944695
C 4.292376 2.497050 3.084697
C 4.646454 2.152522 3.475216
C 3.992176 2.538522 3.675336
C 5.105211 1.962333 2.958134
C 5.579712 2.445722 3.113274
C 5.365963 1.953212 3.506050
C 5.088682 2.505439 3.367916
C 6.041370 1.988588 3.095234
C 6.287677 2.494704 3.040702
C 6.582858 2.041161 3.422718
C 5.937431 2.408293 3.662220
C 6.908252 2.108892 2.883298
C 7.446918 2.436766 2.839917
C 7.493654 2.036907 3.641571
C 7.001640 2.536648 3.495266
C 0.025361 3.073755 3.100443
C 0.536678 3.588184 3.169050
C 0.446634 3.161503 3.475433
C 0.083853 3.579096 3.594921
C 0.892641 3.085594 3.023533
C 1.716284 3.423339 2.980301
C 1.514192 3.022207 3.300328
C 0.980081 3.415922 3.550772
C 2.028447 2.960949 2.847711
C 2.438395 3.553747 2.884539
C 2.418248 3.036281 3.538254
C 1.948933 3.399978 3.448865
C 3.038197 3.098000 2.955175
C 3.565521 3.327781 3.069059
C 3.563612 2.932159 3.480225
C 2.924652 3.477922 3.609963
C 4.099629 2.976365 3.132770
C 4.535333 3.508127 2.941713
C 4.563328 3.029765 3.560894
C 3.934651 3.433795 3.538915
C 5.006995 3.019475 3.074025
C 5.525294 3.619723 3.055700
C 5.569621 2.936791 3.436552
C 5.046480 3.497154 3.351078
C 5.908841 2.885835 2.970559
C 6.395388 3.626003 2.937392
C 6.366224 2.946579 3.619651
C 6.074185 3.542423 3.450258
C 7.002441 3.128399 3.066584
C 7.489603 3.435988 3.075510
C 7.427782 2.817934 3.353508
C 6.956091 3.510986 3.461842
C 0.035696 3.932955 2.897792
C 0.545623 4.430737 2.939522
C 0.668502 3.915211 3.577965
C 0.000139 4.643570 3.577564
C 1.152019 4.037326 3.042243
C 1.613379 4.408062 2.914864
C 1.592168 4.000141 3.554257
C 0.995430 4.377423 3.553833
C 2.002036 3.984368 2.853950
C 2.509534 4.448355 2.870302
C 2.516815 3.913066 3.526945
C 1.984879 4.340455 3.426960
C 2.971179 4.066592 3.018289
C 3.395450 4.462568 2.978225
C 3.614328 4.134316 3.420462
C 3.069033 4.487168 3.448276
C 4.008716 3.978079 3.042397
C 4.382702 4.600432 2.969202
C 4.421987 3.988244 3.554140
C 4.006272 4.520338 3.427435
C 4.869473 3.984555 2.946906
C 5.383570 4.587532 2.939231
C 5.640979 3.877208 3.535429
C 5.041636 4.353899 3.508556
C 5.861346 4.142420 3.088292
C 6.476929 4.381151 2.941564
C 6.520208 3.885294 3.397958
C 6.081621 4.369798 3.469842
C 6.973194 3.964323 3.017299
C 7.478452 4.390438 2.773318
C 7.395454 4.046122 3.409985
C 6.909043 4.461996 3.657383
C 0.076607 4.943507 3.142410
C 0.520270 5.596301 2.940238
C 0.518270 4.976842 3.523209
C 0.066816 5.610335 3.597528
C 0.839434 5.039820 3.004610
C 1.566117 5.588565 3.030342
C 1.505911 5.109248 3.423048
C 0.969220 5.385552 3.394800
C 1.832900 4.998316 3.003716
C 2.579500 5.600698 3.065955
C 2.640915 5.074335 3.611745
C 1.991743 5.523245 3.453291
C 3.073563 4.921286 2.896856
C 3.444978 5.608144 3.147259
C 3.327386 4.974783 3.430500
C 3.076019 5.626916 3.614735
C 3.879515 5.051289 3.007092
C 4.474659 5.407646 3.049557
C 4.537291 5.165529 3.597638
C 3.891101 5.444071 3.395221
C 4.978783 5.127287 2.971372
C 5.615953 5.504051 2.872569
C 5.638591 5.013483 3.425721
C 5.006688 5.408305 3.574145
C 5.930637 5.070123 2.920276
C 6.384224 5.579377 2.988974
C 6.467184 5.058371 3.509796
C 6.025122 5.434038 3.508089
C 6.967763 5.055208 3.096636
C 7.451704 5.451368 2.943285
C 7.333085 4.888464 3.462820
C 6.950628 5.428599 3.508729
C 0.071308 5.991664 3.064021
C 0.500840 6.330191 3.006819
C 0.544536 5.937588 3.592263
C 0.078741 6.482930 3.563988
C 1.028297 5.840810 3.012011
C 1.661931 6.593438 3.080662
C 1.574693 5.981184 3.663391
C 1.075067 6.460876 3.593508
C 1.992417 5.961299 3.127959
C 2.432441 6.362744 2.864995
C 2.363169 6.094611 3.525014
C 2.120311 6.523769 3.664332
C 2.891946 6.073606 3.017594
C 3.394941 6.533923 2.996947
C 3.669991 5.923656 3.537365
C 3.004535 6.668791 3.490956
C 4.039084 6.064581 3.102550
C 4.535954 6.358696 2.929856
C 4.388418 6.072347 3.538182
C 4.102959 6.523698 3.539692
C 4.969640 6.025945 3.103745
C 5.579272 6.465887 3.123180
C 5.582153 6.024588 3.486472
C 5.103157 6.449647 3.389350
C 5.857923 6.027725 3.009381
C 6.633514 6.382038 3.002105
C 6.425382 5.964596 3.573187
C 6.162105 6.416288 3.378639
C 6.959895 5.860416 2.994545
C 7.387999 6.461451 2.892865
C 7.462639 6.021056 3.300821
C 6.883972 6.599492 3.504852
C 0.017197 6.890269 3.013672
C 0.292781 7.380936 2.962612
C 0.535914 7.077199 3.345585
C 0.116569 7.402225 3.457130
C 0.941562 6.891925 2.854922
C 1.467475 7.412642 3.024017
C 1.483186 6.837608 3.513811
C 0.997332 7.383332 3.414788
C 2.026530 6.897214 2.835552
C 2.673226 7.390714 2.968821
C 2.556279 6.938589 3.391186
C 2.025581 7.411677 3.576468
C 2.915136 6.851793 2.928132
C 3.622851 7.490273 3.007409
C 3.487357 6.969404 3.576539
C 3.099048 7.400616 3.446879
C 3.986259 7.061418 3.042569
C 4.472509 7.388118 3.005425
C 4.464706 6.950971 3.508107
C 4.158226 7.491602 3.635290
C 4.988436 6.993274 2.877478
C 5.390321 7.487509 2.961582
C 5.525506 6.924118 3.379340
C 4.874515 7.475449 3.371556
C 5.952728 7.103688 2.995171
C 6.446047 7.366826 3.047328
C 6.527613 7.061718 3.554932
C 6.014666 7.442714 3.452019
C 6.940644 6.934788 2.984284
C 7.447913 7.451702 2.988186
C 7.365442 6.923124 3.368229
C 6.893073 7.480135 3.524423
C 0.040707 0.042276 4.157656
C 0.600461 0.413575 4.117367
C 0.515463 0.054361 4.613441
C 0.146937 0.477341 4.495751
C 1.088571 0.065774 3.920365
C 1.654972 0.415169 3.883173
C 1.359505 0.053875 4.374216
C 0.952202 0.568437 4.465644
C 2.159695 0.096244 4.043787
C 2.567640 0.490699 3.904312
C 2.513940 0.033122 4.564434
C 2.000106 0.671878 4.344269
C 2.891623 0.047776 3.862706
C 3.590520 0.430068 3.985488
C 3.528731 0.031710 4.413732
C 2.947478 0.487720 4.329037
C 4.086342 0.045531 3.876882
C 4.604543 0.532788 4.135751
C 4.309930 0.011368 4.517629
C 4.024278 0.463608 4.551919
C 5.062692 0.072942 3.914825
C 5.631196 0.665744 4.013315
C 5.466096 0.233362 4.414179
C 5.106774 0.565271 4.600308
C 5.848866 0.035303 3.928135
C 6.545113 0.395887 3.869788
C 6.300226 0.036317 4.402305
C 5.972551 0.571691 4.573655
C 6.929764 0.112799 4.066643
C 7.493748 0.442824 3.888157
C 7.368605 0.139222 4.457711
C 6.982747 0.553040 4.525233
C 0.033457 0.880652 3.886280
C 0.441125 1.516236 3.948440
C 0.471108 1.078634 4.514522
C 0.041270 1.519240 4.493506
C 0.974667 1.088139 3.940909
C 1.669899 1.494574 4.155333
C 1.305083 1.039581 4.480151
C 1.148690 1.498489 4.443510
C 2.021154 1.191115 3.943823
C 2.620565 1.569181 3.959555
C 2.490354 0.994101 4.514559
C 2.079046 1.454078 4.519228
C 2.953872 1.003738 4.096810
C 3.530382 1.581227 3.987366
C 3.417819 0.882101 4.598969
C 3.053023 1.336715 4.548882
C 3.975084 0.832155 3.964434
C 4.563441 1.418938 4.057192
C 4.591683 1.004192 4.479018
C 4.143610 1.586162 4.454036
C 4.909569 0.987522 3.935798
C 5.371131 1.477271 4.099944
C 5.563287 0.906765 4.665087
C 4.873234 1.518090 4.531831
C 6.065238 0.961625 3.905393
C 6.572035 1.407752 4.183463
C 6.539794 0.900683 4.598700
C 5.917514 1.568485 4.410181
C 6.997530 0.930542 3.993847
C 7.483453 1.529509 4.103392
C 7.442945 0.915155 4.590904
C 7.083754 1.556885 4.551829
C 0.002041 1.854697 3.922698
C 0.474257 2.390896 4.119185
C 0.564474 1.913966 4.375700
C 0.082780 2.576438 4.419592
C 0.954678 2.060463 3.961457
C 1.434437 2.610714 3.833657
C 1.529850 1.973436 4.336522
C 1.063975 2.484360 4.494029
C 2.123861 2.068154 3.946182
C 2.308112 2.662425 3.930102
C 2.566477 1.997591 4.505382
C 2.180759 2.539983 4.573532
C 2.913501 2.176574 4.035707
C 3.531238 2.396734 3.953924
C 3.423362 2.113054 4.509606
C 3.117995 2.634832 4.615714
C 3.985024 1.879338 3.897681
C 4.666859 2.445262 3.978927
C 4.580139 2.020094 4.474890
C 4.132831 2.544286 4.410884
C 5.076519 2.096929 4.157237
C 5.552613 2.356944 4.086737
C 5.465040 1.785084 4.549976
C 5.133191 2.504551 4.523133
C 6.055119 1.943988 4.011476
C 6.547589 2.606376 3.969868
C 6.414394 1.943196 4.581161
C 5.985770 2.350413 4.512757
C 7.134156 1.968663 4.103073
C 7.411767 2.427079 4.174190
C 7.471113 2.037001 4.590467
C 6.890817 2.501061 4.505315
C 0.188216 3.059139 3.932525
C 0.544878 3.478837 4.053603
C 0.449039 3.006759 4.458778
C 0.106640 3.663339 4.454837
C 1.004690 2.934729 4.107197
C 1.383077 3.369151 4.021622
C 1.530436 2.940074 4.401550
C 0.977013 3.469986 4.400980
C 1.968328 3.094869 4.052476
C 2.439298 3.699295 4.003878
C 2.564843 2.904570 4.472727
C 1.955570 3.669446 4.477243
C 3.123234 3.113160 3.941610
C 3.545981 3.534867 4.125499
C 3.644233 3.105452 4.533422
C 2.924248 3.550467 4.328539
C 4.160184 3.025624 4.031954
C 4.525095 3.521978 4.077511
C 4.476408 3.014002 4.511149
C 3.990863 3.520567 4.587824
C 4.971523 2.944604 4.125796
C 5.465689 3.507800 3.978967
C 5.605960 2.923051 4.566002
C 5.095380 3.462176 4.561949
C 6.071030 3.092452 4.100453
C 6.404723 3.427047 3.863461
C 6.410620 2.977406 4.644478
C 5.920606 3.465524 4.438818
C 7.031241 2.951980 3.894363
C 7.340983 3.536095 3.903430
C 7.482210 2.922122 4.357609
C 7.038111 3.340180 4.591669
C 0.100458 4.202279 4.029585
C 0.538493 4.509276 3.853023
C 0.532541 4.023547 4.337512
C 0.097191 4.345373 4.570045
C 1.081099 3.854027 4.002041
C 1.365633 4.490434 3.982785
C 1.312767 4.020562 4.518268
C 1.110832 4.549959 4.584100
C 1.981780 4.072634 4.058042
C 2.476043 4.419214 3.949630
C 2.568113 3.961553 4.436097
C 1.920107 4.561745 4.635852
C 2.974196 4.030146 4.049953
C 3.487230 4.445655 3.873611
C 3.510017 3.990788 4.447593
C 2.932311 4.526064 4.511050
C 4.000941 4.117502 3.978935
C 4.469879 4.420475 3.910552
C 4.543133 4.179020 4.500195
C 3.984418 4.421920 4.452640
C 5.177482 3.965331 3.988689
C 5.490510 4.410450 4.192533
C 5.547493 3.959235 4.472256
C 4.987700 4.623692 4.526234
C 5.943944 3.922002 4.015242
C 6.446190 4.589984 4.124255
C 6.427782 4.031176 4.624187
C 6.024905 4.679867 4.505933
C 6.831645 4.000185 4.018419
C 7.406701 4.463427 4.005457
C 7.306323 4.003502 4.478873
C 6.935127 4.524437 4.538070
C 0.016593 5.180798 3.997906
C 0.454081 5.566802 3.999951
C 0.582293 5.013162 4.558141
C 0.144716 5.415079 4.565023
C 0.956147 4.845403 4.065372
C 1.454214 5.437054 3.877715
C 1.406778 5.018036 4.444840
C 1.006954 5.429224 4.421336
C 2.013605 5.001097 3.883911
C 2.348783 5.398997 4.080811
C 2.547107 5.001644 4.381101
C 1.873215 5.546551 4.641737
C 2.945371 4.868598 3.979464
C 3.477346 5.501184 4.019855
C 3.396667 4.915724 4.555245
C 2.930535 5.526218 4.331929
C 3.925270 4.881974 3.933476
C 4.514255 5.471544 4.054779
C 4.449028 4.969532 4.498129
C 4.045648 5.384847 4.405517
C 4.999664 4.837222 3.897312
C 5.388736 5.371302 4.039311
C 5.494478 4.951441 4.338660
C 4.875151 5.468370 4.509751
C 5.943148 5.009618 3.968623
C 6.360011 5.466389 3.968189
C 6.472694 5.031167 4.483788
C 5.962600 5.544537 4.603092
C 6.963019 5.033151 4.079229
C 7.479266 5.539452 4.030808
C 7.362886 4.921288 4.426835
C 6.890173 5.551738 4.499494
C 0.134810 5.953868 4.159113
C 0.370207 6.469627 4.018138
C 0.610608 6.100412 4.403605
C 0.112771 6.637931 4.602959
C 0.938395 5.921310 4.060403
C 1.416792 6.532667 4.114711
C 1.535261 6.019276 4.429642
C 0.914575 6.603694 4.548112
C 2.118723 5.886050 4.119194
C 2.597535 6.509668 3.950267
C 2.573458 5.936652 4.438046
C 2.076613 6.583521 4.598213
C 3.059166 6.010708 4.192217
C 3.558373 6.356454 3.962589
C 3.522002 6.069332 4.546581
C 2.883642 6.396292 4.387476
C 4.109119 5.908888 4.109524
C 4.628013 6.533590 3.931673
C 4.477603 6.078960 4.463293
C 3.999747 6.619308 4.448703
C 4.970534 5.907703 4.186954
C 5.378869 6.442495 3.901703
C 5.667783 5.989109 4.486656
C 4.902825 6.546633 4.449580
C 5.880093 5.897728 3.985811
C 6.354424 6.512847 4.009304
C 6.414778 5.906941 4.450030
C 6.005557 6.414102 4.416061
C 6.995466 5.830802 3.982123
C 7.456958 6.746633 4.056333
C 7.458306 5.886658 4.576503
C 6.960066 6.648097 4.390281
C 0.069268 6.948791 3.782069
C 0.465699 7.488785 3.867735
C 0.438999 7.046967 4.290279
C 0.077600 7.494165 4.545260
C 0.922383 6.901614 4.054487
C 1.587042 7.275927 4.117413
C 1.349000 6.984813 4.459003
C 1.168797 7.461583 4.520924
C 1.979775 6.964759 3.856105
C 2.433678 7.341244 3.959738
C 2.445681 7.107989 4.621172
C 2.056302 7.376482 4.439865
C 2.986424 6.911013 4.002004
C 3.593458 7.461341 3.921010
C 3.436085 7.089012 4.589012
C 2.958685 7.451306 4.494745
C 3.994405 7.081169 3.823983
C 4.629134 7.460018 4.152955
C 4.436859 7.131438 4.486366
C 3.979919 7.464297 4.600559
C 5.102004 6.943577 3.933825
C 5.486103 7.355088 4.015764
C 5.502596 7.138918 4.524029
C 5.018054 7.434993 4.545269
C 5.886899 6.913120 3.853822
C 6.530070 7.412615 3.978754
C 6.429818 6.913424 4.546474
C 6.077557 7.477674 4.360366
C 7.089987 7.020169 3.876001
C 7.489587 7.473124 4.066474
C 7.450808 6.885569 4.531122
C 7.134726 7.469629 4.559291
C 0.149401 0.143327 5.127858
C 0.516472 0.632259 5.037989
C 0.540636 0.169998 5.661468
C 0.108371 0.624681 5.587778
C 0.991749 0.019791 5.029272
C 1.568387 0.502592 4.996770
C 1.557134 0.241384 5.470063
C 1.127332 0.522591 5.578865
C 1.895550 0.091008 4.810656
C 2.518559 0.529097 4.839639
C 2.575208 0.029795 5.304700
C 2.044330 0.395128 5.422663
C 3.165997 0.171711 4.951254
C 3.568079 0.443124 4.796381
C 3.385385 0.033978 5.429344
C 2.880722 0.470581 5.452883
C 3.943474 0.159205 4.982858
C 4.421375 0.519458 4.958803
C 4.560987 0.129727 5.456042
C 4.030719 0.555098 5.370482
C 5.011892 0.001576 5.219401
C 5.462737 0.406172 4.942957
C 5.402128 0.165420 5.607825
C 5.101945 0.611056 5.526506
C 5.918656 0.126641 4.943317
C 6.539798 0.373827 4.889083
C 6.591950 0.084025 5.629227
C 5.909665 0.442679 5.398727
C 7.134108 0.010544 5.094872
C 7.487379 0.479318 4.970378
C 7.399984 0.136798 5.609998
C 7.012631 0.444242 5.379563
C 0.015257 0.872574 5.008875
C 0.411458 1.483490 5.051500
C 0.389831 1.059972 5.431782
C 0.209408 1.564181 5.513025
C 1.044880 0.928989 4.928318
C 1.539450 1.476782 5.089030
C 1.389163 0.971213 5.438966
C 0.860914 1.430508 5.373144
C 2.051575 0.854526 5.037851
C 2.508692 1.470423 4.874035
C 2.607389 1.005446 5.432434
C 2.024672 1.543162 5.637636
C 2.955431 0.866276 4.857676
C 3.405153 1.389838 4.991704
C 3.592918 1.103622 5.503336
C 2.989564 1.465754 5.577708
C 3.800232 0.945835 5.000574
C 4.444594 1.502956 4.924553
C 4.398883 0.876566 5.529216
C 4.057171 1.401387 5.478550
C 5.015631 1.027122 5.031226
C 5.526899 1.634980 5.009630
C 5.460802 1.024791 5.370426
C 5.105517 1.494233 5.409136
C 5.912744 1.032710 5.055734
C 6.575434 1.595926 4.936483
C 6.534908 1.062745 5.371525
C 5.845324 1.443369 5.412189
C 6.947350 1.115550 5.008014
C 7.472069 1.526187 4.938627
C 7.433482 0.962621 5.511017
C 6.981822 1.640390 5.391098
C 0.044538 1.964790 4.864815
C 0.376359 2.496814 4.921742
C 0.420521 1.972094 5.368041
C 0.013688 2.575192 5.545727
C 1.067732 1.886707 5.006098
C 1.600556 2.480522 4.990728
C 1.350745 1.886798 5.481042
C 0.996510 2.521215 5.472956
C 1.980024 1.989216 5.121207
C 2.330614 2.593002 5.059800
C 2.379777 1.891601 5.474868
C 1.976183 2.550257 5.514481
C 2.848571 2.041583 5.091185
C 3.546490 2.351279 4.983079
C 3.430947 1.858976 5.461880
C 3.092148 2.423615 5.328100
C 4.059399 1.949530 4.909423
C 4.388709 2.464689 5.109730
C 4.518790 1.973207 5.305790
C 3.927637 2.366464 5.480590
C 5.057851 1.888510 4.884630
C 5.582562 2.356189 4.895608
C 5.609882 1.891481 5.506192
C 5.031643 2.612619 5.441257
C 5.965606 2.041988 5.073958
C 6.571589 2.582046 5.044760
C 6.485712 1.886274 5.367678
C 6.085201 2.543771 5.459266
C 6.997767 2.021212 4.847805
C 7.408578 2.332997 5.042013
C 7.450546 1.815351 5.449957
C 6.978412 2.365206 5.519360
C 0.029574 3.091488 4.916648
C 0.434333 3.539918 5.024155
C 0.484273 2.950587 5.623407
C 0.017684 3.483444 5.380538
C 0.976865 2.908238 5.066590
C 1.547848 3.424751 5.051956
C 1.526355 2.950236 5.361855
C 0.905204 3.450959 5.496026
C 1.969921 3.057218 5.172828
C 2.483076 3.610872 4.961145
C 2.419620 3.023455 5.466503
C 1.811873 3.517391 5.578222
C 3.054175 3.084853 5.096722
C 3.515411 3.373665 5.012295
C 3.325791 2.931336 5.504336
C 3.035553 3.521394 5.440013
C 4.009591 3.130726 5.009774
C 4.462441 3.603265 5.003887
C 4.564911 2.994598 5.573994
C 4.053871 3.545317 5.523236
C 5.091359 3.114781 5.003512
C 5.544479 3.298831 4.968714
C 5.528056 2.878091 5.406812
C 5.061577 3.464260 5.460580
C 5.988781 2.993379 5.055020
C 6.383168 3.480633 4.996104
C 6.490898 2.927309 5.518386
C 5.941072 3.553373 5.332668
C 6.889264 2.931287 4.867412
C 7.283671 3.576760 4.938603
C 7.482083 2.949311 5.483996
C 7.033634 3.604065 5.587346
C 0.066943 3.957345 4.966984
C 0.509669 4.626106 5.011402
C 0.532446 3.878830 5.440593
C 0.172854 4.606884 5.445146
C 0.870590 3.977382 4.843214
C 1.626947 4.424813 5.040652
C 1.606729 3.979689 5.566644
C 0.847769 4.438883 5.600018
C 1.971996 3.954049 5.100085
C 2.505305 4.470732 4.972829
C 2.415581 3.863076 5.452211
C 2.010576 4.373591 5.476517
C 3.095778 4.075666 5.017735
C 3.639489 4.577555 4.941516
C 3.468146 3.898975 5.535592
C 2.957013 4.574832 5.659530
C 3.910042 4.012977 4.875945
C 4.541489 4.530278 4.976137
C 4.443578 3.939429 5.590451
C 4.025032 4.419460 5.351415
C 4.896794 4.055917 5.022047
C 5.463902 4.579640 4.945890
C 5.640768 3.939926 5.587071
C 5.011426 4.492220 5.597852
C 5.896695 4.029270 4.903861
C 6.561658 4.515188 4.974804
C 6.548437 3.914394 5.347235
C 5.994700 4.475467 5.449287
C 7.127743 4.079443 5.050465
C 7.316814 4.519043 4.945097
C 7.366294 4.111791 5.559155
C 7.146684 4.605723 5.399935
C 0.048624 4.929134 5.005576
C 0.608238 5.504408 4.852682
C 0.565503 4.985193 5.698488
C 0.006932 5.610992 5.519120
C 0.897665 5.105596 4.996032
C 1.306740 5.496917 5.044437
C 1.411370 5.099960 5.544894
C 0.920366 5.385051 5.580867
C 1.969818 5.075972 5.109786
C 2.464287 5.303327 5.020047
C 2.483117 5.075163 5.515065
C 1.870883 5.586427 5.508580
C 3.009083 4.966322 5.007904
C 3.389932 5.598074 4.863595
C 3.461993 4.906474 5.609568
C 2.897856 5.477685 5.417164
C 4.006848 5.039111 4.908899
C 4.603310 5.583633 4.956117
C 4.623987 4.949716 5.398065
C 3.968672 5.639852 5.524707
C 4.915052 5.067470 4.895456
C 5.497538 5.541754 5.076701
C 5.534356 4.995791 5.479119
C 5.074709 5.335637 5.433933
C 6.137408 5.037590 5.032647
C 6.509140 5.408954 4.886887
C 6.450012 5.135514 5.561659
C 6.011632 5.537946 5.443292
C 7.074761 5.121880 4.890922
C 7.331816 5.376936 5.138792
C 7.459933 5.058222 5.577161
C 6.918349 5.348007 5.562806
C 0.082011 6.076722 4.894871
C 0.485166 6.411822 5.125309
C 0.405207 5.976101 5.614132
C 0.092911 6.397918 5.511166
C 0.977800 6.171306 5.093542
C 1.407763 6.380444 4.973153
C 1.431807 5.957613 5.466978
C 0.970489 6.610630 5.434044
C 2.076714 6.078004 4.828531
C 2.508591 6.381356 5.148101
C 2.552722 5.940885 5.489823
C 2.061775 6.502829 5.637671
C 2.895365 5.952446 4.902473
C 3.414103 6.532227 4.820997
C 3.530581 5.981432 5.463119
C 2.995461 6.460852 5.383730
C 4.021134 6.093125 4.921301
C 4.412668 6.509759 5.108699
C 4.540816 5.936246 5.366946
C 4.140624 6.528144 5.568527
C 4.988296 5.935269 5.072427
C 5.388137 6.599955 4.949756
C 5.571737 6.020489 5.511733
C 4.884839 6.511249 5.400856
C 5.773303 6.006607 4.961547
C 6.335756 6.463384 4.904131
C 6.589690 6.091185 5.643487
C 5.959612 6.579025 5.293811
C 7.067768 6.010794 4.994908
C 7.420855 6.400832 5.149593
C 7.456721 5.980580 5.520153
C 6.908408 6.509978 5.336525
C 0.002012 6.929773 5.100872
C 0.602905 7.379236 4.945352
C 0.510088 6.851667 5.525313
C 0.116323 7.485365 5.286266
C 1.126416 6.877228 4.909178
C 1.496828 7.391919 4.970926
C 1.440651 6.960671 5.409968
C 0.997482 7.416400 5.565231
C 2.016765 7.055521 5.055292
C 2.640863 7.412981 4.952880
C 2.368250 7.030326 5.530757
C 1.967442 7.480766 5.413058
C 2.911671 6.870500 4.980064
C 3.320128 7.481975 4.927794
C 3.443728 6.950667 5.462184
C 3.074741 7.403411 5.599598
C 4.040690 6.967624 4.878990
C 4.474751 7.386764 4.962919
C 4.502256 6.962481 5.513057
C 4.046923 7.484909 5.530365
C 4.915351 6.986813 5.079938
C 5.316382 7.433173 5.010485
C 5.462779 7.025012 5.467633
C 4.954383 7.402043 5.450742
C 6.096637 7.130736 5.058343
C 6.436239 7.469758 4.835564
C 6.503207 7.040933 5.582290
C 5.891477 7.321783 5.559929
C 7.059392 7.000835 4.878657
C 7.469478 7.452339 5.019627
C 7.466051 6.910517 5.396903
C 6.948230 7.479229 5.404733
C 0.112311 0.048696 5.829756
C 0.389629 0.567116 6.038716
C 0.411647 0.034124 6.477592
C 0.008714 0.518668 6.573615
C 1.012704 0.020294 6.002513
C 1.401608 0.499922 6.128548
C 1.657758 0.014354 6.628283
C 1.036597 0.688800 6.571747
C 2.094801 0.125473 5.890320
C 2.630209 0.416981 5.917711
C 2.503541 0.102224 6.516684
C 1.931112 0.534113 6.502803
C 2.953213 0.111937 6.189278
C 3.430271 0.378776 5.918192
C 3.375208 0.045778 6.536553
C 2.890329 0.607771 6.340655
C 3.826558 0.065520 6.061971
C 4.573278 0.545620 5.910809
C 4.479383 0.293738 6.433657
C 4.059495 0.550560 6.587193
C 4.914441 0.068866 5.981515
C 5.487869 0.495502 6.146975
C 5.548811 0.004538 6.361019
C 4.999611 0.466608 6.354507
C 5.894332 0.061991 5.916082
C 6.579138 0.487744 6.026534
C 6.533607 0.059409 6.519331
C 5.941815 0.430508 6.459056
C 7.080879 0.094158 6.051458
C 7.498706 0.513656 6.081943
C 7.472512 0.065416 6.452656
C 6.920264 0.448991 6.477579
C 0.083702 1.211649 5.904289
C 0.409582 1.396224 6.125585
C 0.368019 0.953985 6.486479
C 0.044765 1.392140 6.625677
C 1.010697 0.900834 6.087544
C 1.398988 1.479900 6.070523
C 1.602589 1.054901 6.455379
C 1.118300 1.402663 6.563261
C 2.013641 1.075045 5.882115
C 2.627087 1.515799 6.065843
C 2.428956 0.998900 6.343615
C 1.965476 1.461516 6.507600
C 3.025942 1.082306 5.991896
C 3.422846 1.517288 6.068706
C 3.399744 0.870127 6.442308
C 3.007447 1.585018 6.450664
C 3.982514 0.955738 5.983009
C 4.438918 1.406544 5.968507
C 4.584306 0.927557 6.556192
C 4.122838 1.558624 6.569985
C 5.021712 0.993630 6.111106
C 5.433883 1.438810 5.933123
C 5.454646 1.017302 6.451753
C 5.037352 1.505697 6.323710
C 5.983871 1.051804 5.840377
C 6.392149 1.601936 6.121953
C 6.596702 0.845002 6.633647
C 5.903279 1.655804 6.399508
C 6.968630 0.909998 6.130578
C 7.389896 1.524557 5.994101
C 7.488835 1.088813 6.597534
C 6.853002 1.351181 6.395150
C 0.079365 2.088591 5.871796
C 0.575588 2.531131 6.107356
C 0.537300 1.790598 6.533905
C 0.074843 2.339143 6.478392
C 0.887332 1.917393 6.159359
C 1.556173 2.438592 5.890646
C 1.458972 1.961731 6.497821
C 0.934795 2.608750 6.623139
C 2.066298 2.094266 5.971652
C 2.535075 2.571479 5.894074
C 2.451348 2.115435 6.384419
C 1.857471 2.638121 6.467466
C 2.912379 2.127724 5.964468
C 3.423893 2.531840 5.850853
C 3.436788 2.149788 6.595991
C 2.953607 2.626428 6.515620
C 4.036632 1.930500 5.879434
C 4.555826 2.400038 5.988836
C 4.437755 2.040377 6.435279
C 3.975386 2.649788 6.499355
C 5.040746 1.963534 6.110427
C 5.385209 2.424816 5.917445
C 5.375644 1.957039 6.626980
C 4.963824 2.578190 6.670923
C 5.998833 2.038212 5.828265
C 6.541210 2.465583 5.861327
C 6.605720 1.861938 6.480285
C 6.038479 2.463830 6.641038
C 7.090109 2.100619 5.977067
C 7.318633 2.601543 5.949793
C 7.483262 2.058155 6.399882
C 6.847517 2.365615 6.540624
C 0.029618 3.084790 5.810871
C 0.422758 3.540623 5.964490
C 0.499250 2.936319 6.472319
C 0.011034 3.526415 6.444805
C 1.060468 3.057450 5.898242
C 1.465871 3.513374 6.209736
C 1.425839 2.919982 6.608262
C 0.896025 3.454671 6.440071
C 1.960032 3.050880 6.122983
C 2.507774 3.356454 6.145729
C 2.401466 2.919687 6.372417
C 1.990969 3.625251 6.626719
C 2.859867 2.949415 6.076372
C 3.637766 3.460801 5.926758
C 3.418002 2.856381 6.532771
C 2.870058 3.490444 6.561971
C 3.924374 3.012777 5.898135
C 4.558917 3.583975 6.038479
C 4.498243 2.965121 6.630896
C 4.054332 3.327862 6.511325
C 5.033014 2.880622 5.897463
C 5.521216 3.361298 5.880950
C 5.565124 3.083564 6.384272
C 4.941152 3.535084 6.498409
C 6.110336 2.844879 6.027380
C 6.512458 3.362136 5.976466
C 6.634026 2.936117 6.484682
C 6.058412 3.411567 6.546009
C 7.014397 3.039584 5.887414
C 7.383327 3.371482 6.060976
C 7.374280 2.992832 6.567773
C 6.868759 3.475109 6.510951
C 0.106832 3.975727 5.785281
C 0.456414 4.360530 6.090638
C 0.613083 3.938376 6.523283
C 0.084793 4.358032 6.498924
C 0.927031 4.045815 6.005384
C 1.439512 4.616723 5.935934
C 1.543278 3.929356 6.613008
C 0.983503 4.613649 6.528784
C 2.045067 3.884466 6.083188
C 2.519999 4.494315 6.087981
C 2.447746 3.897015 6.483544
C 2.085195 4.404164 6.610589
C 2.897644 4.058508 6.002662
C 3.488909 4.375268 6.052984
C 3.668818 3.974519 6.428145
C 2.977914 4.474762 6.441127
C 3.912067 4.017950 5.918935
C 4.403755 4.564096 5.963696
C 4.512160 3.906684 6.490264
C 3.933746 4.476639 6.408328
C 4.991842 4.006791 6.153415
C 5.524827 4.513631 6.125834
C 5.504695 4.079483 6.584425
C 4.853243 4.605026 6.568477
C 6.037177 4.118302 6.003185
C 6.498771 4.574731 6.131661
C 6.489777 4.076244 6.414887
C 5.932617 4.414536 6.526387
C 6.926406 4.105159 6.078303
C 7.445114 4.404648 6.006137
C 7.371901 3.861359 6.405186
C 7.093997 4.376889 6.512969
C 0.009544 5.050602 6.149932
C 0.382980 5.358665 5.957695
C 0.388716 5.017971 6.568696
C 0.070571 5.586982 6.655851
C 0.979659 4.868357 6.066668
C 1.370385 5.515715 6.039606
C 1.356162 5.019921 6.530003
C 0.920547 5.619421 6.480319
C 2.040520 5.039850 5.996299
C 2.537826 5.574165 5.950588
C 2.342352 5.068859 6.473374
C 1.991165 5.591085 6.532742
C 2.961557 5.063100 5.931685
C 3.448639 5.375636 5.929994
C 3.601084 4.883620 6.570942
C 3.024022 5.518579 6.419013
C 3.995854 4.977260 5.900932
C 4.590273 5.412046 5.869728
C 4.376843 5.053955 6.579538
C 4.124458 5.591009 6.447630
C 4.978150 4.971840 5.904257
C 5.466999 5.466931 6.145681
C 5.580630 4.993297 6.384968
C 5.023693 5.542343 6.331917
C 6.069004 4.986259 6.035852
C 6.596552 5.611646 5.993734
C 6.609464 5.096391 6.559153
C 5.847099 5.479296 6.561750
C 6.990855 4.912729 5.908042
C 7.482949 5.450816 6.132707
C 7.379294 4.934931 6.585463
C 7.078798 5.385267 6.528555
C 0.143625 5.850935 6.126449
C 0.428197 6.569232 6.006745
C 0.503265 6.063412 6.711268
C 0.033709 6.644956 6.549020
C 1.209452 6.007205 5.967674
C 1.604665 6.533691 6.090178
C 1.549289 5.900088 6.574207
C 0.916903 6.494778 6.582045
C 2.019633 5.972248 6.128495
C 2.519630 6.509417 5.835216
C 2.535354 5.978854 6.562875
C 2.052299 6.448691 6.471398
C 2.990892 6.031352 5.908638
C 3.547321 6.539228 5.839381
C 3.425543 5.955415 6.566917
C 2.985206 6.424499 6.572286
C 4.009352 6.043876 6.061310
C 4.476933 6.482338 6.069320
C 4.610624 6.124193 6.434166
C 3.906909 6.338191 6.553030
C 5.094915 6.077269 6.063175
C 5.362396 6.544835 6.024379
C 5.540802 5.958047 6.400134
C 5.082543 6.480790 6.540275
C 6.082957 6.007746 5.897698
C 6.586797 6.674947 5.990408
C 6.643265 6.006814 6.554138
C 5.907559 6.580126 6.486245
C 6.931105 6.076500 6.082203
C 7.314981 6.549974 5.928292
C 7.487795 6.202089 6.485807
C 6.900303 6.523163 6.499390
C 0.090379 7.067254 6.128235
C 0.566605 7.447129 5.895972
C 0.602677 7.030694 6.525232
C 0.015886 7.492065 6.574873
C 0.892526 7.022522 6.064863
C 1.508874 7.450189 6.001899
C 1.495463 7.169279 6.519005
C 1.013743 7.466238 6.490612
C 2.148870 6.943095 6.012418
C 2.523777 7.471292 5.962356
C 2.565218 6.855403 6.527692
C 1.940763 7.337935 6.458784
C 2.963697 6.943992 5.866014
C 3.592454 7.477599 5.917524
C 3.565148 7.034014 6.495530
C 2.850535 7.409236 6.475790
C 3.946800 6.895378 6.008722
C 4.299245 7.345669 5.983899
C 4.411730 6.964100 6.476065
C 4.018802 7.359237 6.582266
C 4.888188 7.111133 6.068680
C 5.395067 7.304338 6.002979
C 5.426043 6.902030 6.437387
C 4.915648 7.428270 6.557048
C 6.116577 7.046423 6.030402
C 6.432156 7.497135 6.113597
C 6.507280 6.951359 6.430754
C 5.916740 7.488460 6.550206
C 6.989839 7.168665 6.037900
C 7.462564 7.450027 6.220813
C 7.331226 6.881804 6.479178
C 6.890405 7.397811 6.484068
C 0.250154 0.181007 6.930507
C 0.562052 0.625115 6.892142
C 0.498034 0.207839 7.486520
C 0.023632 0.341803 7.448934
C 0.986073 0.109447 7.016952
C 1.493887 0.456397 6.930999
C 1.647479 0.075939 7.392497
C 0.946783 0.702498 7.467649
C 2.039171 0.177792 6.978313
C 2.621900 0.524654 7.174734
C 2.338915 0.125140 7.438421
C 2.011040 0.609240 7.318766
C 2.929545 0.161361 6.933511
C 3.331730 0.528213 6.995970
C 3.417475 0.034851 7.322918
C 3.055336 0.616308 7.486782
C 4.044071 0.009369 7.047260
C 4.622132 0.733584 7.083346
C 4.321493 0.329359 7.383380
C 3.829602 0.470963 7.355247
C 4.838089 0.120789 6.904358
C 5.439720 0.645875 7.060702
C 5.588221 0.099666 7.418943
C 4.966761 0.483233 7.394172
C 6.053929 0.027632 7.035119
C 6.444717 0.474393 7.148755
C 6.547869 0.006029 7.293464
C 5.992326 0.584187 7.406686
C 7.001022 0.037329 6.911127
C 7.344452 0.533803 6.913527
C 7.440170 0.066818 7.230226
C 7.131567 0.577889 7.439912
C 0.055703 0.915776 7.124568
C 0.500478 1.647721 7.101920
C 0.516298 1.121336 7.372743
C 0.065551 1.566716 7.228399
C 0.993723 0.790820 7.035055
C 1.550682 1.335530 6.979805
C 1.442595 1.031312 7.406916
C 0.998133 1.418118 7.429358
C 2.060259 1.189769 6.978443
C 2.630159 1.626778 6.913622
C 2.507149 1.003294 7.269426
C 1.887221 1.480639 7.397351
C 3.042958 0.940518 6.850030
C 3.593959 1.527655 6.915857
C 3.416303 1.020098 7.397300
C 2.964880 1.436728 7.490278
C 4.003626 1.052475 6.838056
C 4.505202 1.412952 7.005350
C 4.333086 1.117936 7.407509
C 4.102292 1.585945 7.448973
C 5.032235 1.098976 6.889919
C 5.608251 1.597995 6.842792
C 5.632257 1.016081 7.395157
C 5.088598 1.535293 7.416113
C 6.102526 1.109519 7.056206
C 6.472453 1.510877 7.111159
C 6.414817 0.966233 7.485845
C 6.058356 1.452198 7.492395
C 6.963902 1.096031 6.865860
C 7.453601 1.500708 7.095456
C 7.289140 1.029391 7.459460
C 6.913343 1.622551 7.353932
C 0.072707 1.857952 6.690564
C 0.520995 2.365287 6.895697
C 0.547438 2.078459 7.465130
C 0.150613 2.617389 7.215046
C 0.991970 1.986021 7.158998
C 1.554797 2.655344 7.066006
C 1.437696 1.898449 7.373984
C 0.895072 2.578826 7.486615
C 1.936573 1.979025 7.094319
C 2.533151 2.387943 7.072960
C 2.651541 2.041263 7.495358
C 2.169051 2.402764 7.490575
C 2.990415 2.032522 7.059935
C 3.443707 2.524460 7.081523
C 3.699585 2.011688 7.453720
C 2.945701 2.536533 7.428849
C 3.868201 2.060813 6.985881
C 4.527299 2.437360 6.898944
C 4.417014 2.158064 7.427508
C 3.843600 2.606997 7.470557
C 4.932279 1.999702 7.077375
C 5.535306 2.480425 6.848587
C 5.564447 2.009834 7.401844
C 4.852998 2.519382 7.399516
C 6.051344 1.934407 6.933030
C 6.601487 2.446907 7.080299
C 6.497800 2.055419 7.439514
C 5.835320 2.504358 7.426766
C 6.794030 1.986428 6.981299
C 7.328305 2.541220 6.701368
C 7.363471 2.125748 7.319773
C 6.989975 2.628283 7.415448
C 0.009263 3.074137 6.817045
C 0.502864 3.625633 6.990797
C 0.586542 3.035656 7.460201
C 0.043981 3.377052 7.420660
C 1.033587 2.919928 7.041020
C 1.672903 3.495212 7.033281
C 1.664143 3.114615 7.473367
C 0.861094 3.541483 7.399551
C 1.917261 3.105283 6.864169
C 2.517516 3.552242 7.016889
C 2.508296 3.066467 7.468844
C 2.069204 3.668494 7.374543
C 2.948109 3.052604 6.945268
C 3.514233 3.492670 7.033575
C 3.549746 3.156485 7.459733
C 2.926042 3.516612 7.465500
C 4.058105 3.148853 6.965983
C 4.428182 3.685747 6.964349
C 4.535398 3.054403 7.325918
C 3.955099 3.559887 7.391584
C 4.962838 3.042833 6.977070
C 5.645380 3.444665 7.047099
C 5.622172 2.982942 7.433746
C 5.035430 3.558456 7.431396
C 6.125186 2.871815 7.003167
C 6.335127 3.573031 6.951626
C 6.436177 2.800633 7.473903
C 6.020656 3.755673 7.476524
C 6.958287 2.923867 6.926138
C 7.284889 3.650521 6.856608
C 7.409396 2.992103 7.398797
C 7.063380 3.427944 7.441523
C 0.179562 4.055524 6.931508
C 0.445079 4.605307 7.072754
C 0.380501 4.157602 7.384313
C 0.082074 4.637105 7.483042
C 0.982515 4.048387 7.134044
C 1.381311 4.402746 7.018125
C 1.404078 4.005087 7.490106
C 0.922996 4.515628 7.292766
C 1.840809 3.962194 7.103425
C 2.338428 4.593327 7.050828
C 2.444754 4.108190 7.345768
C 1.862754 4.692245 7.466548
C 3.039256 3.998919 6.874331
C 3.444959 4.443178 7.062808
C 3.375056 3.928342 7.363742
C 3.007443 4.384019 7.480931
C 3.881686 4.032633 6.881825
C 4.594671 4.505321 7.082032
C 4.564721 4.055496 7.419176
C 4.189533 4.514649 7.465571
C 4.973897 4.078088 7.033160
C 5.648616 4.419372 6.990281
C 5.503403 3.845255 7.385384
C 5.164508 4.346740 7.441286
C 6.120883 4.091177 6.981493
C 6.616674 4.479667 6.934816
C 6.581462 3.936735 7.321457
C 5.934240 4.620677 7.366998
C 7.035463 4.054506 7.006755
C 7.384230 4.606144 7.055856
C 7.300825 4.067610 7.484416
C 6.822584 4.580521 7.488731
C 0.144377 5.093655 7.024366
C 0.462308 5.598927 7.085369
C 0.723623 4.979390 7.396293
C 0.022537 5.520494 7.364379
C 0.913666 5.064320 6.948168
C 1.368252 5.421455 6.929384
C 1.441859 5.083398 7.477867
C 1.079508 5.487619 7.407742
C 2.116130 5.086390 7.016985
C 2.525466 5.474483 6.931343
C 2.318816 4.979687 7.476177
C 1.932657 5.383205 7.443903
C 3.020806 4.997257 6.943650
C 3.282831 5.569602 6.982359
C 3.455955 5.074328 7.328466
C 3.110030 5.472638 7.487168
C 3.963516 5.158046 6.936530
C 4.410119 5.616537 7.073914
C 4.498982 5.185370 7.456695
C 4.024079 5.469199 7.470813
C 4.893450 5.018933 7.135104
C 5.397711 5.598068 7.007978
C 5.424235 5.122795 7.433873
C 4.841199 5.643865 7.405848
C 6.100631 4.939456 6.998919
C 6.409282 5.471898 7.016845
C 6.401276 4.641781 7.427018
C 5.951017 5.510648 7.396495
C 6.919733 5.030809 7.032009
C 7.446460 5.675048 6.856915
C 7.433944 5.129305 7.465843
C 6.985000 5.516234 7.206150
C 0.031489 6.045360 6.917826
C 0.462577 6.536275 6.820200
C 0.622526 6.076308 7.429854
C 0.092256 6.392003 7.401100
C 0.975793 6.028106 6.894818
C 1.359873 6.468830 6.962425
C 1.529508 5.918431 7.393051
C 0.788766 6.588255 7.485008
C 2.105759 6.078726 6.900753
C 2.491028 6.544165 7.006244
C 2.441253 6.054825 7.445043
C 2.098283 6.537314 7.463665
C 2.809119 6.089548 7.034730
C 3.404918 6.414893 7.077709
C 3.400117 6.010948 7.496838
C 2.942580 6.294076 7.487383
C 4.069426 5.919077 6.884604
C 4.528400 6.469176 7.007784
C 4.400516 6.005504 7.470892
C 3.942996 6.473592 7.367562
C 5.063507 6.040467 7.003918
C 5.578092 6.394772 7.118284
C 5.390411 6.005185 7.481450
C 5.075887 6.457330 7.378342
C 6.027748 6.066519 7.094102
C 6.464797 6.590345 6.898950
C 6.507347 5.859312 7.494332
C 6.103001 6.454703 7.474678
C 7.083197 5.963256 7.074427
C 7.461373 6.512958 6.984313
C 7.417436 6.038516 7.493375
C 7.040170 6.534664 7.423515
C 0.214271 7.078328 7.021747
C 0.651901 7.472896 6.977476
C 0.671766 7.062589 7.375579
C 0.158930 7.498071 7.414825
C 0.970313 6.859719 7.034389
C 1.347336 7.479220 6.943679
C 1.453877 6.923045 7.448662
C 1.191418 7.427294 7.398880
C 1.931781 6.918284 7.141703
C 2.695610 7.412234 7.024806
C 2.601776 6.865488 7.479641
C 2.126315 7.321448 7.356483
C 2.932413 6.903624 6.953570
C 3.599911 7.391244 6.974424
C 3.707968 7.025364 7.369854
C 2.803855 7.461845 7.463291
C 4.155976 6.960108 6.946314
C 4.360491 7.360605 7.157863
C 4.399752 6.829637 7.442312
C 3.795461 7.499793 7.459713
C 4.912402 7.139562 7.062738
C 5.358314 7.443088 6.926851
C 5.431529 6.951965 7.455547
C 5.139459 7.413429 7.486424
C 6.131934 7.026113 6.993836
C 6.722941 7.389389 6.937660
C 6.288400 7.010646 7.489390
C 5.856680 7.475860 7.421692
C 7.008193 6.903712 6.929627
C 7.400613 7.489920 7.041083
C 7.339384 6.995063 7.380740
C 6.822754 7.459161 7.361977
2048
Frame 7/10
C 0.142342 0.159446 0.168560
C 0.523370 0.427416 0.011820
C 0.451705 0.049687 0.579785
C 0.026363 0.679355 0.582989
C 0.893830 0.014140 0.024863
C 1.341006 0.641372 0.180195
C 1.484735 0.089910 0.475655
C 1.052760 0.481022 0.645015
C 1.926829 0.006366 0.003658
C 2.574929 0.466631 0.103069
C 2.669606 0.092343 0.567035
C 2.081735 0.433788 0.615290
C 3.205441 0.059131 0.208865
C 3.353203 0.541911 0.076377
C 3.697892 0.187125 0.393889
C 3.045299 0.543034 0.730556
C 4.326405 0.003280 0.015714
C 4.349285 0.654041 0.066309
C 4.587510 0.087000 0.603665
C 4.081686 0.436348 0.629085
C 5.178341 0.116043 0.001159
C 5.381705 0.690251 0.138375
C 5.630359 0.061808 0.492800
C 4.994722 0.372416 0.432828
C 5.820668 0.201233 0.031894
C 6.476274 0.647928 0.043443
C 6.479410 0.032746 0.581760
C 6.035968 0.495733 0.487653
C 7.220815 0.013972 0.047273
C 7.390033 0.662059 0.213735
C 7.250378 0.070432 0.612195
C 6.903175 0.555185 0.485663
C 0.149054 0.827825 0.144015
C 0.678072 1.608914 0.021299
C 0.435266 1.101780 0.492378
C 0.182193 1.479138 0.297772
C 1.013238 0.979981 0.018790
C 1.512921 1.568932 0.072452
C 1.646993 1.217051 0.536438
C 0.987252 1.526110 0.659480
C 1.890271 1.108207 0.022604
C 2.635875 1.575877 0.022559
C 2.577614 0.885302 0.591411
C 2.094318 1.471794 0.306307
C 2.895229 0.880902 0.006093
C 3.324756 1.601794 0.298409
C 3.520880 0.772011 0.469762
C 2.894032 1.409786 0.404865
C 3.877479 1.118935 0.225427
C 4.473065 1.434619 0.000451
C 4.686926 1.008053 0.453527
C 3.894348 1.578768 0.415812
C 5.064805 1.225680 0.054273
C 5.441542 1.598441 0.114251
C 5.661050 1.074580 0.481025
C 5.069758 1.486282 0.494963
C 5.907178 0.871108 0.119461
C 6.450578 1.554697 0.187865
C 6.394799 1.082841 0.310640
C 6.052202 1.600757 0.511048
C 6.868605 0.980375 0.096569
C 7.441476 1.601633 0.013343
C 7.306653 1.075471 0.492858
C 6.861750 1.653420 0.550234
C 0.158778 2.212717 0.027556
C 0.565541 2.615103 0.034212
C 0.429617 1.937557 0.357621
C 0.102043 2.297668 0.546746
C 0.943318 2.104282 0.072764
C 1.497374 2.463717 0.211363
C 1.620971 2.042538 0.455476
C 0.849814 2.368667 0.552573
C 2.078706 2.080153 0.175744
C 2.377884 2.470792 0.018070
C 2.604703 2.064836 0.763383
C 2.061796 2.701404 0.638877
C 2.887134 2.017966 0.182519
C 3.578982 2.684741 0.026568
C 3.283697 2.069715 0.509593
C 3.166133 2.652383 0.485689
C 4.081493 1.899074 0.075072
C 4.424793 2.419532 0.066663
C 4.334718 1.892555 0.578010
C 3.944179 2.613496 0.488618
C 5.130761 2.009346 0.094577
C 5.235702 2.516835 0.066211
C 5.593567 2.062857 0.535006
C 5.097256 2.718657 0.489491
C 5.916833 2.130810 0.083451
C 6.526025 2.486974 0.082527
C 6.581503 2.081995 0.695818
C 5.934142 2.507645 0.574057
C 6.748366 1.942187 0.035103
C 7.450482 2.449130 0.131112
C 7.337715 1.908127 0.485644
C 7.027099 2.381406 0.417431
C 0.234793 3.070179 0.095191
C 0.562804 3.790404 0.088636
C 0.527627 3.194175 0.540598
C 0.084129 3.273494 0.657818
C 0.963094 2.975387 0.094440
C 1.391219 3.660491 0.033052
C 1.415007 3.103685 0.469073
C 0.962200 3.422880 0.327093
C 1.873232 2.804137 0.065450
C 2.446000 3.714925 0.095135
C 2.616353 2.929179 0.430789
C 2.098556 3.439648 0.515011
C 2.951924 2.866641 0.013968
C 3.302628 3.551549 0.038166
C 3.338319 3.096432 0.569839
C 3.032625 3.563449 0.558973
C 3.952067 3.114866 0.034074
C 4.735104 3.518971 0.090164
C 4.609311 3.096557 0.371190
C 4.129829 3.618673 0.556668
C 5.180143 3.151073 0.185611
C 5.603184 3.594136 0.020684
C 5.686287 2.984322 0.582138
C 5.082976 3.594100 0.504492
C 5.780199 2.969441 0.001580
C 6.601250 3.364488 0.224787
C 6.278444 2.881196 0.439653
C 6.122546 3.335459 0.442022
C 7.066080 3.081442 0.015650
C 7.421613 3.630166 0.158961
C 7.393473 2.865537 0.445286
C 7.079426 3.466343 0.559989
C 0.093502 3.831162 0.211029
C 0.366499 4.454952 0.022827
C 0.633522 4.122456 0.491790
C 0.184609 4.460519 0.532089
C 1.015986 4.062611 0.116933
C 1.512282 4.280073 0.123998
C 1.365831 3.890442 0.476339
C 0.911516 4.551116 0.407657
C 1.987822 4.045417 0.218020
C 2.649652 4.536630 0.133292
C 2.441029 4.241873 0.517118
C 1.884734 4.648516 0.463137
C 2.880817 4.082314 0.045662
C 3.468619 4.461497 0.011157
C 3.444403 4.009807 0.301207
C 3.057563 4.341827 0.487964
C 3.938920 4.188814 0.030607
C 4.476698 4.494663 0.011305
C 4.665529 3.974626 0.503468
C 4.124351 4.613689 0.518697
C 4.964875 4.023700 0.077362
C 5.510957 4.441156 0.207011
C 5.536227 3.855172 0.480285
C 4.884801 4.630616 0.423489
C 6.052677 3.897801 0.171925
C 6.608598 4.528949 0.073995
C 6.390375 4.168422 0.476737
C 5.977009 4.480918 0.341150
C 6.822012 4.073192 0.114262
C 7.347597 4.640229 0.003774
C 7.370899 4.132924 0.389031
C 6.930681 4.673132 0.479804
C 0.032279 4.931587 0.277438
C 0.448668 5.632971 0.005490
C 0.623811 5.095644 0.682449
C 0.050686 5.500298 0.629878
C 0.923372 5.082161 0.100856
C 1.282083 5.638919 0.111943
C 1.557742 5.198346 0.417340
C 0.870675 5.536690 0.405476
C 2.140817 5.225541 0.063196
C 2.625153 5.552185 0.156140
C 2.576921 5.113519 0.446651
C 1.998122 5.445834 0.540946
C 2.969741 4.965803 0.180184
C 3.401820 5.353972 0.102835
C 3.431949 5.083789 0.601485
C 3.015664 5.482145 0.638817
C 3.902744 4.999541 0.208560
C 4.616872 5.613536 0.049779
C 4.545901 5.027702 0.637880
C 3.823382 5.469771 0.584581
C 5.085186 4.890117 0.073444
C 5.556375 5.536919 0.047799
C 5.514679 5.045761 0.277442
C 5.047573 5.463160 0.389843
C 6.078844 4.851948 0.005654
C 6.466545 5.305767 0.117326
C 6.458393 4.801792 0.499011
C 5.746711 5.525096 0.575557
C 6.943991 5.120697 0.029973
C 7.396732 5.624100 0.083825
C 7.368664 4.861088 0.647822
C 7.030332 5.572178 0.481659
C 0.003863 5.809375 0.135606
C 0.429583 6.483685 0.108353
C 0.580028 6.010174 0.475327
C 0.056739 6.349329 0.444177
C 0.878037 6.059572 0.060208
C 1.338571 6.328757 0.201096
C 1.735283 5.996031 0.427352
C 0.975435 6.378651 0.657642
C 1.993821 5.811632 0.039543
C 2.579358 6.447999 0.037920
C 2.571501 5.996899 0.410890
C 2.078392 6.518454 0.549399
C 3.140239 6.162789 0.095724
C 3.593577 6.276480 0.055343
C 3.364687 5.952416 0.458545
C 3.183203 6.526801 0.487181
C 4.035302 6.042062 0.236916
C 4.529014 6.625206 0.022970
C 4.582186 5.897295 0.530994
C 3.853764 6.568745 0.335911
C 4.997594 6.043119 0.014914
C 5.359304 6.600661 0.073562
C 5.273060 5.929755 0.577197
C 5.054696 6.403388 0.437109
C 6.137396 6.023968 0.054809
C 6.326624 6.626114 0.090748
C 6.588716 5.944073 0.386671
C 5.853221 6.504598 0.542923
C 7.077179 6.158830 0.047671
C 7.470828 6.709775 0.108658
C 7.365506 6.033518 0.734613
C 6.814954 6.503925 0.343779
C 0.198750 6.996607 0.000749
C 0.745520 7.456102 0.025191
C 0.390126 6.912557 0.438884
C 0.015001 7.473616 0.454661
C 0.927228 6.751168 0.048943
C 1.445817 7.139235 0.022109
C 1.615253 7.083510 0.591103
C 1.183172 7.357645 0.602396
C 2.180084 6.896173 0.186029
C 2.409147 7.346315 0.269924
C 2.346200 7.062568 0.706743
C 1.941778 7.399153 0.361326
C 3.255197 6.943772 0.060594
C 3.601240 7.398909 0.078256
C 3.391981 7.020369 0.540973
C 2.943416 7.494800 0.223326
C 4.201433 7.028214 0.119220
C 4.711409 7.488838 0.149232
C 4.407565 6.857499 0.526236
C 3.962121 7.442590 0.629596
C 4.971733 6.910424 0.196936
C 5.388848 7.453651 0.026751
C 5.625749 6.941966 0.396769
C 5.181475 7.419676 0.529887
C 5.846547 7.177279 0.076315
C 6.537718 7.446996 0.088001
C 6.633064 6.976351 0.533544
C 5.876554 7.472633 0.598507
C 7.002220 6.971470 0.026515
C 7.149519 7.359632 0.203131
C 7.269854 6.734215 0.528172
C 7.033873 7.376769 0.764547
C 0.014536 0.167876 0.892079
C 0.359658 0.518104 1.052180
C 0.445878 0.022988 1.521449
C 0.005313 0.454151 1.463573
C 1.047111 0.040137 1.014669
C 1.643737 0.514880 0.907034
C 1.574381 0.039178 1.659808
C 0.824320 0.590819 1.438648
C 2.123561 0.140535 1.100079
C 2.585343 0.348474 1.035377
C 2.584047 0.054420 1.589626
C 2.048809 0.707395 1.600635
C 3.068265 0.066801 0.957095
C 3.679107 0.643106 1.033970
C 3.669220 0.165312 1.427865
C 2.884556 0.526607 1.521913
C 3.851360 0.134121 0.966213
C 4.627215 0.333571 1.052313
C 4.243205 0.059957 1.560038
C 4.027807 0.666284 1.705016
C 5.180194 0.057070 0.837177
C 5.668752 0.431012 0.950847
C 5.368304 0.037909 1.487432
C 4.951702 0.358409 1.500673
C 5.950217 0.109662 1.228589
C 6.663653 0.451145 0.937111
C 6.559821 0.030139 1.725609
C 5.908326 0.734487 1.463311
C 6.875608 0.002787 1.217867
C 7.493920 0.364815 0.987074
C 7.252353 0.238740 1.337393
C 6.841924 0.455130 1.640945
C 0.104552 1.053631 0.927705
C 0.572336 1.505086 1.039344
C 0.411265 0.951691 1.350331
C 0.100597 1.363147 1.339142
C 0.924320 0.910624 0.899139
C 1.399425 1.463486 1.084392
C 1.445010 0.993738 1.647383
C 0.852030 1.507515 1.548637
C 1.789916 1.013382 0.953437
C 2.631775 1.554220 1.064900
C 2.512386 0.859389 1.350645
C 2.004512 1.393151 1.390807
C 2.968518 1.090615 0.956660
C 3.477724 1.457268 0.953399
C 3.625550 0.904882 1.555768
C 3.019242 1.455091 1.685350
C 4.014369 1.074301 1.053662
C 4.585566 1.559334 0.958562
C 4.487293 0.943998 1.480472
C 4.073847 1.556763 1.291787
C 4.822883 1.121910 1.046819
C 5.642093 1.550491 0.972850
C 5.647393 1.176300 1.649049
C 5.151619 1.444004 1.320590
C 6.107689 0.854966 0.992718
C 6.496268 1.632711 0.979668
C 6.473658 0.830528 1.456287
C 5.872494 1.585176 1.499425
C 7.126837 0.911782 0.993167
C 7.369413 1.557732 1.097534
C 7.422536 0.797910 1.529295
C 6.996066 1.643049 1.476819
C 0.101464 1.957689 1.214728
C 0.487328 2.306387 0.939397
C 0.573302 2.011049 1.639121
C 0.013685 2.455639 1.531142
C 1.100346 2.009184 0.958607
C 1.428678 2.521857 0.928852
C 1.468156 1.881753 1.589342
C 1.158441 2.445839 1.413057
C 2.104161 1.849091 0.935425
C 2.445555 2.511959 1.026873
C 2.380052 1.992161 1.461620
C 2.139021 2.499804 1.558382
C 3.154559 2.026088 1.044295
C 3.448671 2.446919 0.823673
C 3.689809 1.900355 1.545795
C 3.104080 2.333387 1.507632
C 3.977671 2.176066 0.902016
C 4.379471 2.519937 0.813429
C 4.344929 1.956338 1.454921
C 3.988544 2.528105 1.521691
C 4.920889 1.921853 1.126755
C 5.511122 2.631361 0.972241
C 5.406023 1.890835 1.365515
C 5.076350 2.292036 1.474691
C 5.825133 2.087195 1.014001
C 6.716269 2.554886 0.943707
C 6.580269 2.096002 1.546201
C 6.128027 2.434850 1.549105
C 6.924034 1.907317 1.027046
C 7.469415 2.694638 0.934742
C 7.444603 1.978891 1.675824
C 6.791458 2.602571 1.551479
C 0.088911 3.197867 1.095502
C 0.656500 3.376727 1.127198
C 0.567309 2.975772 1.662808
C 0.045800 3.706460 1.496461
C 1.067684 2.958430 0.922261
C 1.416068 3.477809 0.896356
C 1.426719 2.877316 1.343153
C 1.011464 3.279730 1.623615
C 1.983122 3.041692 1.127372
C 2.585981 3.632120 0.837616
C 2.495329 2.989756 1.454361
C 2.152331 3.458563 1.518845
C 2.940359 2.910380 1.208649
C 3.315423 3.371241 1.126506
C 3.526374 2.860755 1.414403
C 2.825158 3.626285 1.546351
C 3.928206 2.991052 0.920280
C 4.623133 3.549878 1.116234
C 4.439570 3.150253 1.349035
C 4.025973 3.565463 1.668118
C 5.004205 3.047346 0.989080
C 5.397586 3.594525 1.068520
C 5.482882 3.113515 1.464300
C 5.161217 3.611186 1.514925
C 5.932775 3.059776 1.063543
C 6.563659 3.294410 0.873805
C 6.231767 2.961783 1.462818
C 5.946980 3.414819 1.532505
C 6.963531 2.984866 0.744866
C 7.480724 3.338831 0.901239
C 7.340462 3.010223 1.480301
C 6.846803 3.626386 1.556237
C 0.074951 3.971215 0.835245
C 0.536124 4.634479 0.830402
C 0.669396 3.988138 1.608711
C 0.061998 4.539737 1.311686
C 1.160189 3.954319 1.109974
C 1.505442 4.469148 1.156783
C 1.561291 3.919296 1.524847
C 0.994585 4.633580 1.524031
C 2.074796 3.803165 0.924081
C 2.452667 4.657148 0.844036
C 2.425336 3.908471 1.421884
C 2.030532 4.581005 1.501316
C 2.903794 3.945705 1.096977
C 3.315871 4.361978 1.077090
C 3.570625 3.887396 1.584776
C 3.042149 4.420466 1.656877
C 3.969133 4.120569 1.093306
C 4.627299 4.467430 1.043263
C 4.319616 3.878269 1.411856
C 3.781561 4.406705 1.495970
C 5.056146 4.038995 1.100493
C 5.534360 4.279136 0.997503
C 5.398530 4.160686 1.498719
C 5.192175 4.622712 1.538333
C 5.889680 3.950599 1.216026
C 6.482971 4.370792 1.134116
C 6.382206 3.812412 1.607796
C 6.147119 4.491847 1.497151
C 6.877593 3.991038 1.038202
C 7.416366 4.329745 0.837097
C 7.358252 3.932760 1.579620
C 6.936765 4.325029 1.480923
C 0.105167 4.907075 0.892559
C 0.477193 5.667380 0.879371
C 0.498702 5.173558 1.362137
C 0.178513 5.450095 1.638823
C 0.956571 4.840305 0.982988
C 1.616254 5.662618 1.145585
C 1.429980 4.978216 1.432367
C 1.051997 5.539169 1.305168
C 2.126642 4.953878 1.130545
C 2.386197 5.632960 0.962600
C 2.552798 4.981279 1.647560
C 2.150004 5.473696 1.407171
C 3.012021 5.115595 1.099888
C 3.433780 5.510125 1.049938
C 3.439732 5.076134 1.447448
C 3.016256 5.371606 1.537433
C 3.827667 5.149997 1.007346
C 4.446137 5.490974 0.865087
C 4.610862 4.993632 1.633418
C 4.093939 5.476859 1.411842
C 5.118135 4.970703 1.131914
C 5.322869 5.399431 0.922637
C 5.558272 5.239748 1.358956
C 4.868902 5.528356 1.329538
C 5.960778 5.065252 1.166785
C 6.491397 5.632940 0.837808
C 6.487230 5.039929 1.320695
C 5.896436 5.597027 1.506545
C 7.169298 5.035442 1.062214
C 7.423624 5.496115 1.038772
C 7.349642 4.935992 1.700078
C 7.115182 5.435265 1.523441
C 0.055246 6.289438 0.937201
C 0.507447 6.437284 0.851720
C 0.440497 5.866879 1.503793
C 0.020117 6.393650 1.397575
C 0.959695 5.992164 1.127225
C 1.454532 6.399627 0.920893
C 1.422757 6.115754 1.347941
C 0.899197 6.395268 1.579902
C 1.976535 6.019504 0.869282
C 2.469729 6.645208 0.939953
C 2.466183 6.078805 1.341466
C 2.039257 6.509953 1.408545
C 2.828644 5.883343 0.957628
C 3.396642 6.387753 0.989783
C 3.642613 5.947667 1.503280
C 3.059923 6.379753 1.687503
C 4.005592 5.813924 0.983641
C 4.336540 6.540526 1.033678
C 4.628395 5.996404 1.511536
C 3.887566 6.441858 1.356045
C 4.953667 6.094734 0.977439
C 5.394836 6.475773 1.084931
C 5.472092 5.894155 1.423101
C 4.885066 6.562585 1.495404
C 5.986975 6.015593 0.852715
C 6.398942 6.396631 1.123901
C 6.452712 5.918757 1.581151
C 5.903637 6.480928 1.478908
C 6.809995 5.841221 1.087911
C 7.469767 6.636487 0.989210
C 7.430902 5.879380 1.628798
C 7.127782 6.427158 1.485059
C 0.240574 6.995203 1.053492
C 0.521023 7.321112 0.739350
C 0.580663 6.967987 1.487254
C 0.168972 7.466537 1.374023
C 0.893952 7.095143 0.994572
C 1.465129 7.486013 1.261143
C 1.541332 7.005707 1.326033
C 0.840944 7.481752 1.473977
C 1.909599 6.760932 0.970045
C 2.584036 7.466437 1.004537
C 2.556855 6.919503 1.510323
C 1.979277 7.396277 1.633860
C 2.972953 7.067805 0.903474
C 3.402786 7.452223 0.918431
C 3.544835 6.863476 1.410803
C 2.938001 7.314123 1.435037
C 4.189294 7.023428 1.086538
C 4.634885 7.475892 1.104059
C 4.720515 7.011146 1.374893
C 4.099779 7.436202 1.479760
C 5.119947 7.116003 1.022320
C 5.560069 7.444498 1.066225
C 5.349158 6.943314 1.582934
C 4.983814 7.480903 1.561098
C 6.006336 7.106496 1.104537
C 6.573661 7.456899 1.027729
C 6.555913 7.076108 1.383204
C 6.108500 7.490069 1.455263
C 6.971938 6.785465 1.135043
C 7.244060 7.285690 1.206487
C 7.322582 6.892281 1.628215
C 6.949745 7.402032 1.788622
C 0.034576 0.108062 2.231599
C 0.656643 0.396136 1.977949
C 0.488005 0.106259 2.419127
C 0.048429 0.561178 2.387444
C 1.062995 0.092227 1.840838
C 1.429841 0.464626 1.889208
C 1.528207 0.166938 2.563139
C 0.893979 0.694068 2.373194
C 2.155523 0.049021 1.965539
C 2.357104 0.532386 1.986438
C 2.420047 0.055849 2.511078
C 1.898317 0.569772 2.683482
C 2.962915 0.033627 2.211186
C 3.386106 0.412049 1.950295
C 3.550144 0.075529 2.304015
C 2.937791 0.607746 2.582239
C 4.030576 0.224873 2.142230
C 4.432755 0.432570 1.845507
C 4.551443 0.034148 2.446070
C 3.906555 0.520479 2.578710
C 5.126302 0.027353 2.061399
C 5.611451 0.460364 2.101881
C 5.536133 0.012391 2.467655
C 5.045244 0.372304 2.490843
C 5.911354 0.104190 1.908871
C 6.341914 0.482164 1.865511
C 6.362914 0.129104 2.328683
C 5.927810 0.343640 2.544594
C 6.955164 0.070071 2.175394
C 7.259491 0.539514 2.046941
C 7.403954 0.106338 2.202607
C 6.872245 0.639422 2.692080
C 0.078346 1.105442 1.778658
C 0.301169 1.536696 1.964567
C 0.415287 0.906204 2.545139
C 0.120485 1.327145 2.447308
C 0.879989 1.094934 2.047161
C 1.332811 1.482657 1.910810
C 1.394672 0.905764 2.386718
C 0.931881 1.461633 2.633357
C 1.952343 1.233745 2.000474
C 2.582437 1.650697 2.132846
C 2.272075 0.943097 2.463776
C 2.073147 1.474363 2.557389
C 3.119272 0.894881 1.987145
C 3.468857 1.429220 2.070874
C 3.578778 0.897352 2.371390
C 2.966903 1.405584 2.324228
C 3.863197 1.044336 1.973954
C 4.298252 1.495660 1.966765
C 4.614675 1.081745 2.564672
C 4.101215 1.651296 2.584285
C 5.081186 1.158137 2.018970
C 5.327527 1.625149 2.078697
C 5.500016 0.805275 2.476689
C 5.054717 1.542039 2.498302
C 6.099782 1.089759 2.058869
C 6.574795 1.516060 1.951257
C 6.382508 0.943856 2.721031
C 6.098914 1.393142 2.502633
C 6.837284 0.965912 1.839569
C 7.457835 1.352090 1.853821
C 7.461914 0.924666 2.462950
C 7.077527 1.621555 2.661860
C 0.014585 2.048094 1.900331
C 0.547495 2.485028 1.835819
C 0.416610 1.903154 2.557044
C 0.180031 2.375402 2.575689
C 1.201311 1.975653 2.062900
C 1.535839 2.669417 2.027897
C 1.482613 1.774700 2.402506
C 0.878858 2.519032 2.478642
C 2.142267 1.914509 1.969673
C 2.553477 2.316734 2.001695
C 2.515620 1.956484 2.755247
C 1.936973 2.395751 2.435128
C 2.971518 1.899018 1.942129
C 3.521348 2.518606 1.890177
C 3.535673 1.873865 2.519647
C 2.882335 2.394078 2.512411
C 4.042492 2.074608 1.955837
C 4.382283 2.513303 2.027578
C 4.595739 1.959076 2.625476
C 3.922779 2.356242 2.450306
C 4.933642 1.848466 1.835585
C 5.442690 2.422598 1.989138
C 5.596940 1.970485 2.419266
C 5.040513 2.336947 2.395761
C 6.155957 2.068966 1.992872
C 6.401394 2.576737 2.048041
C 6.491782 2.092268 2.524222
C 6.053347 2.365891 2.503916
C 6.908269 1.858019 2.199853
C 7.496253 2.444798 2.061954
C 7.446105 1.982787 2.537790
C 7.011477 2.576718 2.714047
C 0.065717 2.818185 2.135715
C 0.600009 3.443245 2.154453
C 0.401679 3.045808 2.395131
C 0.000188 3.405089 2.433936
C 0.901975 3.016447 2.192809
C 1.420545 3.452622 2.015577
C 1.559544 2.921693 2.482549
C 0.841544 3.546059 2.632775
C 2.036365 3.000416 1.844977
C 2.556023 3.362560 1.918722
C 2.560155 2.947033 2.634658
C 1.802857 3.514632 2.570822
C 2.992929 3.198176 2.066279
C 3.610566 3.535204 2.071371
C 3.402824 3.110963 2.558010
C 3.045263 3.532746 2.538426
C 4.158699 2.971516 1.907222
C 4.496487 3.581669 1.906501
C 4.454465 3.046469 2.363301
C 4.081811 3.461929 2.285453
C 4.785755 2.953095 1.943565
C 5.541497 3.312743 2.042220
C 5.579025 2.699682 2.554600
C 4.917402 3.407391 2.528640
C 6.018471 2.929996 2.141269
C 6.514566 3.512223 2.138366
C 6.453309 3.087917 2.599787
C 5.965182 3.376155 2.320029
C 7.073204 3.153989 1.938188
C 7.496416 3.453776 1.772867
C 7.409506 3.001695 2.409967
C 7.073369 3.508357 2.550817
C 0.038723 3.967434 2.135288
C 0.503337 4.354105 2.064335
C 0.523769 3.899365 2.282371
C 0.168917 4.355237 2.540514
C 0.967814 3.925728 2.062892
C 1.509280 4.398041 2.136043
C 1.619302 3.929134 2.368413
C 1.188721 4.508218 2.584871
C 1.915744 3.954435 1.907553
C 2.585107 4.379876 1.884648
C 2.518511 4.226156 2.371669
C 2.112236 4.549203 2.499666
C 3.024576 3.972634 2.177803
C 3.448165 4.510863 2.182579
C 3.605677 4.088023 2.529156
C 2.932576 4.311010 2.580594
C 4.049052 4.113747 1.861443
C 4.462330 4.403556 1.930645
C 4.420220 3.834797 2.443363
C 3.968632 4.475386 2.530346
C 5.105423 3.863962 1.959209
C 5.559162 4.584509 2.021377
C 5.357592 4.107536 2.663629
C 4.946433 4.544918 2.396146
C 6.004484 3.921844 1.933952
C 6.429398 4.315351 1.858415
C 6.508378 3.911537 2.527001
C 6.057066 4.489905 2.680270
C 7.036717 4.024537 1.978545
C 7.330966 4.539432 2.067690
C 7.488826 3.808251 2.395336
C 6.780142 4.563938 2.563416
C 0.039062 4.956743 1.795417
C 0.436766 5.378257 2.117106
C 0.415403 5.121945 2.595198
C 0.086936 5.710615 2.592288
C 1.011495 5.013789 1.988988
C 1.447776 5.522914 1.875746
C 1.505339 5.033916 2.351058
C 1.054913 5.482013 2.410876
C 1.995036 5.099113 2.145897
C 2.601168 5.548776 1.989649
C 2.395003 4.989770 2.561533
C 1.875935 5.447153 2.531982
C 3.036810 4.988571 1.924637
C 3.438241 5.714993 2.011417
C 3.475655 5.036141 2.568553
C 3.043396 5.328132 2.543115
C 3.858688 4.972930 2.163570
C 4.480695 5.517538 2.129213
C 4.381227 5.082367 2.545930
C 3.975575 5.442988 2.397596
C 5.137787 4.959414 2.162989
C 5.635078 5.393071 1.860753
C 5.457997 5.055149 2.584587
C 4.887058 5.463102 2.549476
C 6.112563 4.800989 2.019662
C 6.447562 5.378444 2.120105
C 6.500969 4.972798 2.710944
C 6.125093 5.401809 2.548053
C 6.790876 4.855065 2.139534
C 7.362527 5.300648 2.110185
C 7.361615 4.793312 2.688627
C 7.172712 5.559334 2.480597
C 0.171154 5.933570 2.005804
C 0.332196 6.417474 2.049069
C 0.431545 6.116430 2.447763
C 0.111194 6.503919 2.589431
C 1.049960 5.996816 2.136260
C 1.409108 6.532959 1.984733
C 1.521796 6.036588 2.429695
C 0.967080 6.566674 2.252491
C 2.126313 6.137369 1.980989
C 2.580882 6.535204 2.117657
C 2.549040 5.979858 2.431761
C 2.018808 6.562843 2.330250
C 2.987267 6.128597 2.155066
C 3.447392 6.567033 2.155013
C 3.595968 6.085575 2.381002
C 2.837409 6.402412 2.557297
C 3.961153 5.871707 2.091574
C 4.504860 6.486425 2.105882
C 4.518205 5.981575 2.529997
C 3.821885 6.454435 2.589908
C 5.104524 5.886995 1.838865
C 5.401697 6.499485 2.067509
C 5.367620 5.992024 2.642131
C 4.990516 6.417797 2.438694
C 5.897456 5.916562 1.913715
C 6.496485 6.396526 2.152635
C 6.684936 5.841392 2.493855
C 5.971328 6.491585 2.704699
C 6.983326 5.938072 2.048222
C 7.341954 6.437052 2.004802
C 7.450207 6.115858 2.412920
C 6.928301 6.521692 2.392098
C 0.052792 7.100737 1.797629
C 0.491585 7.372063 1.839977
C 0.529993 7.078029 2.691606
C 0.185796 7.283274 2.434170
C 1.014646 7.000990 2.207214
C 1.658364 7.406703 2.061215
C 1.447275 6.906563 2.424389
C 1.047847 7.491063 2.635514
C 2.061719 6.945066 1.818533
C 2.461894 7.397027 2.021584
C 2.623624 7.096920 2.456035
C 2.026002 7.461499 2.495031
C 2.840976 6.942265 1.949717
C 3.418384 7.342562 2.155167
C 3.640313 7.136127 2.546152
C 3.207343 7.418733 2.596290
C 3.844911 7.078930 1.962878
C 4.401967 7.439038 1.909313
C 4.420867 6.921317 2.466214
C 3.980085 7.463510 2.361074
C 4.931720 6.916712 1.892240
C 5.455904 7.351771 2.152354
C 5.427325 7.037527 2.560885
C 4.892837 7.282080 2.392821
C 5.963809 6.901644 2.053474
C 6.278385 7.387065 1.986809
C 6.428729 6.929971 2.556628
C 5.784258 7.475352 2.524089
C 6.953969 6.955462 2.042985
C 7.427931 7.374089 1.897844
C 7.476170 7.123631 2.527902
C 6.936783 7.324812 2.649515
C 0.124684 0.007889 2.976007
C 0.418759 0.462375 2.869047
C 0.669189 0.101406 3.609654
C 0.160459 0.530078 3.455003
C 1.066795 0.200926 2.937824
C 1.444770 0.658627 2.897024
C 1.361232 0.169873 3.395169
C 0.909767 0.499267 3.368937
C 1.992392 0.070082 2.906769
C 2.541860 0.436438 2.818020
C 2.378569 0.023061 3.401630
C 2.113703 0.568266 3.542700
C 3.121005 0.112427 2.865985
C 3.442475 0.592175 2.834523
C 3.486757 0.070314 3.508460
C 3.092034 0.485145 3.594271
C 3.881061 0.007093 2.791791
C 4.395452 0.558813 3.121643
C 4.411097 0.094990 3.228797
C 3.929775 0.488229 3.248848
C 4.926765 0.004966 3.086551
C 5.421945 0.517625 3.001433
C 5.494981 0.138274 3.425027
C 4.995908 0.652664 3.413683
C 5.915814 0.002373 3.061106
C 6.560037 0.356837 2.965992
C 6.701864 0.033669 3.481248
C 5.842487 0.641554 3.557626
C 7.100744 0.147800 2.794868
C 7.460230 0.375827 2.997407
C 7.400023 0.009693 3.580295
C 7.101471 0.434705 3.516217
C 0.002510 1.150492 3.226384
C 0.409208 1.330373 2.892560
C 0.438897 1.037289 3.412285
C 0.133838 1.617781 3.470470
C 1.040810 0.974572 2.842446
C 1.615976 1.466779 2.871076
C 1.677004 0.975659 3.458192
C 1.146871 1.459733 3.577797
C 2.119053 0.902840 2.914955
C 2.531227 1.362169 2.973299
C 2.587063 0.965676 3.484538
C 2.161945 1.461084 3.359142
C 2.971599 0.812788 3.139881
C 3.565875 1.423229 2.907867
C 3.438600 0.952605 3.595492
C 3.015314 1.563243 3.513365
C 4.026292 1.044045 3.194123
C 4.497937 1.544198 2.924869
C 4.694278 1.079542 3.487946
C 3.796286 1.399421 3.430972
C 5.108511 1.246822 3.106859
C 5.558152 1.384878 2.822518
C 5.529433 1.152889 3.494886
C 5.007178 1.434068 3.658506
C 5.904429 0.898286 2.998136
C 6.687052 1.488535 3.009333
C 6.603894 0.876110 3.490699
C 6.202553 1.433360 3.585411
C 6.998738 1.046562 2.759614
C 7.495287 1.267373 2.989304
C 7.438385 0.936039 3.616797
C 6.999677 1.584962 3.520434
C 0.012588 2.153414 3.121229
C 0.647297 2.611890 3.029766
C 0.491236 2.043138 3.374925
C 0.027595 2.697366 3.573198
C 0.840083 1.972745 2.994924
C 1.650067 2.576031 3.152419
C 1.641623 2.042603 3.420105
C 0.894536 2.383403 3.464206
C 2.026073 1.882561 2.975199
C 2.569437 2.552521 3.019167
C 2.537782 2.053301 3.404218
C 2.111118 2.617187 3.423332
C 3.020720 1.875142 3.093239
C 3.486828 2.588629 2.975432
C 3.396232 1.950085 3.614289
C 3.007243 2.577921 3.680725
C 3.864060 2.108630 2.933634
C 4.250851 2.496460 3.101637
C 4.675745 2.183027 3.470259
C 3.990611 2.546227 3.710403
C 5.126254 1.954800 2.949761
C 5.595655 2.434867 3.135929
C 5.339156 1.943855 3.507259
C 5.106418 2.506527 3.341499
C 6.049644 1.986305 3.114281
C 6.245213 2.493645 3.048843
C 6.599429 2.049393 3.407261
C 5.924917 2.389952 3.694664
C 6.889902 2.130670 2.859958
C 7.436301 2.424120 2.807901
C 7.492385 2.044289 3.669886
C 7.001968 2.543978 3.494319
C 0.030433 3.088506 3.120532
C 0.544014 3.605821 3.202860
C 0.435961 3.193803 3.470519
C 0.100624 3.594916 3.613905
C 0.871170 3.102713 3.028239
C 1.759541 3.408007 2.976362
C 1.517030 3.026648 3.260394
C 0.976097 3.399106 3.560927
C 2.034136 2.953138 2.817254
C 2.426074 3.564496 2.861446
C 2.401898 3.043537 3.545905
C 1.938720 3.379973 3.438638
C 3.045836 3.117600 2.946210
C 3.578625 3.293338 3.082871
C 3.576334 2.918590 3.476270
C 2.909583 3.473506 3.631956
C 4.119555 2.971638 3.159323
C 4.542399 3.509752 2.930056
C 4.575994 3.035718 3.573073
C 3.921581 3.420554 3.546698
C 5.008394 3.023370 3.088830
C 5.530353 3.643668 3.066840
C 5.583546 2.924149 3.423862
C 5.055776 3.496585 3.321293
C 5.890609 2.863002 2.964671
C 6.374465 3.651203 2.924871
C 6.339469 2.935894 3.643581
C 6.089022 3.550908 3.440309
C 7.002930 3.154079 3.079901
C 7.487523 3.423186 3.090612
C 7.413338 2.781521 3.324209
C 6.947309 3.513184 3.454210
C 0.042836 3.919546 2.877350
C 0.554748 4.416884 2.927426
C 0.702202 3.898254 3.593557
C 0.000167 4.672284 3.593077
C 1.182422 4.044791 3.050692
C 1.636055 4.389674 2.897837
C 1.610602 4.000169 3.565108
C 0.994516 4.352908 3.564600
C 2.002443 3.981241 2.824740
C 2.511441 4.438026 2.844362
C 2.520178 3.895679 3.532334
C 1.981855 4.308546 3.412352
C 2.965415 4.079910 3.021947
C 3.374540 4.455081 2.973870
C 3.637193 4.161179 3.404555
C 3.082840 4.484601 3.437931
C 4.010460 3.973695 3.050876
C 4.359243 4.620519 2.963042
C 4.406385 3.985893 3.564968
C 4.007527 4.524406 3.412922
C 4.843368 3.981467 2.936287
C 5.360284 4.605039 2.927077
C 5.669175 3.852650 3.542515
C 5.049964 4.324679 3.510268
C 5.833615 4.170904 3.105950
C 6.472315 4.357381 2.929877
C 6.524250 3.862353 3.377549
C 6.097945 4.343758 3.463811
C 6.967833 3.957187 3.020759
C 7.474143 4.368525 2.727982
C 7.374545 4.055346 3.391983
C 6.890852 4.454395 3.688859
C 0.091928 4.932209 3.170892
C 0.524324 5.615561 2.928285
C 0.521924 4.972210 3.527850
C 0.080179 5.632402 3.617034
C 0.807321 5.047784 3.005532
C 1.579341 5.606278 3.036411
C 1.507093 5.131097 3.407658
C 0.963063 5.362663 3.373760
C 1.799480 4.997979 3.004459
C 2.595400 5.620838 3.079146
C 2.669099 5.089203 3.634094
C 1.990092 5.527894 3.443949
C 3.088275 4.905544 2.876227
C 3.433974 5.629773 3.176711
C 3.292863 4.969740 3.416600
C 3.091223 5.652299 3.637682
C 3.855419 5.061546 3.008510
C 4.469590 5.389175 3.059469
C 4.544750 5.198635 3.617166
C 3.869321 5.432886 3.374266
C 4.974540 5.152744 2.965647
C 5.639144 5.504861 2.847083
C 5.666309 5.016180 3.410865
C 5.008026 5.389965 3.588974
C 5.916764 5.084148 2.904331
C 6.361069 5.595252 2.986769
C 6.460621 5.070045 3.511756
C 6.030146 5.420846 3.509706
C 6.961315 5.066250 3.115963
C 7.442045 5.441641 2.931942
C 7.299702 4.866157 3.455384
C 6.940753 5.414319 3.510475
C 0.085569 5.989996 3.076826
C 0.501008 6.296229 3.008183
C 0.553443 5.925106 3.610716
C 0.094489 6.479516 3.576786
C 1.033956 5.808972 3.014413
C 1.694317 6.612125 3.096795
C 1.589632 5.977420 3.696069
C 1.090080 6.453052 3.612210
C 1.990901 5.953558 3.153551
C 2.418929 6.335293 2.837994
C 2.335803 6.113533 3.530017
C 2.144373 6.528523 3.697198
C 2.870335 6.088327 3.021113
C 3.373929 6.540707 2.996336
C 3.703989 5.908387 3.544838
C 3.005442 6.702549 3.489147
C 4.046901 6.077498 3.123060
C 4.543145 6.330435 2.915827
C 4.366102 6.086816 3.545819
C 4.123550 6.528438 3.547631
C 4.963568 6.031134 3.124494
C 5.595127 6.459065 3.147816
C 5.598583 6.029505 3.483767
C 5.123788 6.439577 3.367220
C 5.829508 6.033270 3.011258
C 6.660217 6.358446 3.002526
C 6.410459 5.957516 3.587824
C 6.194526 6.399545 3.354367
C 6.951874 5.832499 2.993454
C 7.365598 6.453742 2.871438
C 7.455167 6.025267 3.260985
C 6.860766 6.619391 3.505822
C 0.020636 6.868323 3.016406
C 0.251338 7.357123 2.955134
C 0.543097 7.092638 3.314702
C 0.139883 7.382670 3.448556
C 0.929874 6.870310 2.825907
C 1.460970 7.395170 3.028820
C 1.479823 6.805129 3.516574
C 0.996798 7.359998 3.397746
C 2.031836 6.876657 2.802662
C 2.707871 7.368857 2.962585
C 2.567535 6.926307 3.369423
C 2.030697 7.394013 3.591762
C 2.898163 6.822151 2.913758
C 3.647421 7.488328 3.008890
C 3.484828 6.963284 3.591846
C 3.118857 7.380739 3.436254
C 3.983510 7.073702 3.051082
C 4.467011 7.365742 3.006510
C 4.457647 6.941166 3.509729
C 4.189871 7.489923 3.662347
C 4.986123 6.991929 2.852973
C 5.368385 7.485011 2.953898
C 5.530607 6.908942 3.355208
C 4.849418 7.470539 3.345868
C 5.943273 7.124426 2.994206
C 6.435257 7.340192 3.056794
C 6.533136 7.074061 3.565918
C 6.017599 7.431257 3.442423
C 6.928773 6.921746 2.981141
C 7.437496 7.442043 2.985824
C 7.338531 6.907749 3.341875
C 6.871688 7.476162 3.529307
C 0.048848 0.050731 4.189187
C 0.620554 0.396290 4.140840
C 0.518556 0.065233 4.636129
C 0.176324 0.472809 4.494901
C 1.106285 0.078929 3.904438
C 1.685966 0.398202 3.859808
C 1.331406 0.064650 4.349060
C 0.942643 0.582125 4.458772
C 2.191634 0.115493 4.052545
C 2.581167 0.488839 3.885175
C 2.516728 0.039746 4.577320
C 2.000127 0.706253 4.313123
C 2.869947 0.057331 3.835247
C 3.608624 0.416082 3.982585
C 3.534477 0.038052 4.396479
C 2.936974 0.485264 4.294844
C 4.103610 0.054637 3.852259
C 4.625452 0.539346 4.162901
C 4.271916 0.013642 4.521155
C 4.029133 0.456330 4.562303
C 5.075231 0.087530 3.897790
C 5.657435 0.698893 4.015978
C 5.459315 0.280034 4.397015
C 5.128129 0.578325 4.620370
C 5.818640 0.042363 3.913763
C 6.554136 0.375065 3.843745
C 6.260271 0.043580 4.382766
C 5.967062 0.586029 4.588386
C 6.915717 0.135359 4.079972
C 7.492498 0.431389 3.865788
C 7.342326 0.167066 4.449253
C 6.979296 0.563648 4.530280
C 0.040149 0.856782 3.863536
C 0.429349 1.519483 3.938128
C 0.465329 1.094361 4.517426
C 0.049524 1.523088 4.492207
C 0.969601 1.105766 3.929091
C 1.703879 1.493489 4.186399
C 1.266100 1.047498 4.476181
C 1.178428 1.498187 4.432212
C 2.025385 1.229338 3.932588
C 2.644678 1.583018 3.951466
C 2.488425 0.992921 4.517470
C 2.094856 1.444894 4.523074
C 2.944646 1.004486 4.116172
C 3.536459 1.597472 3.984839
C 3.401383 0.858521 4.618762
C 3.063628 1.304057 4.558658
C 3.970101 0.798586 3.957321
C 4.576130 1.402726 4.068631
C 4.610019 1.005031 4.474821
C 4.172332 1.603395 4.444843
C 4.891483 0.985026 3.922958
C 5.345357 1.472725 4.119933
C 5.575944 0.888118 4.698104
C 4.847881 1.521708 4.538198
C 6.078286 0.953950 3.886471
C 6.586442 1.389302 4.220155
C 6.547753 0.880819 4.618441
C 5.901017 1.582182 4.392217
C 6.997036 0.916650 3.992616
C 7.480143 1.535411 4.124071
C 7.431535 0.898186 4.609085
C 7.100505 1.568262 4.562194
C 0.002449 1.825637 3.907237
C 0.469108 2.369075 4.143022
C 0.577368 1.896760 4.350840
C 0.099336 2.591726 4.403510
C 0.945613 2.072556 3.953748
C 1.421324 2.632857 3.800388
C 1.535820 1.968123 4.303826
C 1.076770 2.481232 4.492835
C 2.148633 2.081785 3.935418
C 2.269735 2.694909 3.916123
C 2.579772 1.997109 4.506458
C 2.216911 2.547980 4.588238
C 2.896201 2.211889 4.042849
C 3.537485 2.376081 3.944709
C 3.408034 2.135665 4.511527
C 3.141594 2.661799 4.638856
C 3.982029 1.855205 3.877217
C 4.700231 2.434314 3.974713
C 4.596167 2.024113 4.469868
C 4.159397 2.553144 4.393061
C 5.091822 2.116315 4.188684
C 5.563136 2.328332 4.104085
C 5.458048 1.742101 4.559971
C 5.159830 2.505461 4.527759
C 6.066143 1.932785 4.013772
C 6.557107 2.627651 3.963842
C 6.397273 1.931835 4.597393
C 5.982924 2.320496 4.515309
C 7.160988 1.962395 4.123688
C 7.394120 2.412495 4.209028
C 7.465336 2.044401 4.608560
C 6.868980 2.501273 4.506378
C 0.225859 3.070967 3.919030
C 0.553853 3.474604 4.064324
C 0.438846 3.008111 4.450533
C 0.127968 3.696007 4.445805
C 1.005628 2.921675 4.128637
C 1.359692 3.342981 4.025947
C 1.536523 2.928089 4.381860
C 0.972416 3.463983 4.381176
C 1.961993 3.113843 4.062972
C 2.427158 3.739154 4.004653
C 2.577811 2.885484 4.467273
C 1.946684 3.703335 4.472692
C 3.147881 3.135792 3.929932
C 3.555177 3.541840 4.150599
C 3.673079 3.126542 4.540106
C 2.909098 3.560560 4.294247
C 4.192221 3.030749 4.038344
C 4.530114 3.526373 4.093013
C 4.471690 3.016802 4.513378
C 3.989036 3.524681 4.605388
C 4.965827 2.933525 4.150956
C 5.458827 3.509360 3.974760
C 5.627152 2.907661 4.579203
C 5.114456 3.454612 4.574339
C 6.085236 3.110943 4.120544
C 6.385668 3.412456 3.836154
C 6.392744 2.972887 4.673374
C 5.904727 3.458629 4.426582
C 7.037489 2.942376 3.873235
C 7.309180 3.543315 3.884116
C 7.478652 2.906546 4.329131
C 7.045733 3.308216 4.610003
C 0.120550 4.242735 4.035502
C 0.546191 4.511132 3.823628
C 0.539049 4.028257 4.305015
C 0.116629 4.314448 4.584055
C 1.097319 3.824833 4.002450
C 1.338759 4.488521 3.979342
C 1.275321 4.024674 4.521922
C 1.132998 4.559950 4.600920
C 1.978136 4.087161 4.069650
C 2.471251 4.403057 3.939556
C 2.581735 3.953864 4.423316
C 1.904128 4.574093 4.663022
C 2.969035 4.036175 4.059943
C 3.484676 4.434786 3.848334
C 3.512020 3.988946 4.437112
C 2.918774 4.531276 4.513259
C 4.001129 4.141002 3.974722
C 4.463855 4.404570 3.892662
C 4.551759 4.214824 4.500234
C 3.981302 4.406304 4.443168
C 5.212978 3.958397 3.986427
C 5.488612 4.392540 4.231040
C 5.556992 3.951082 4.466707
C 4.985240 4.648430 4.531481
C 5.932733 3.906402 4.018290
C 6.435429 4.607981 4.149106
C 6.413338 4.037411 4.649024
C 6.029886 4.715840 4.507120
C 6.797974 4.000222 4.022103
C 7.388041 4.456113 4.006548
C 7.267588 4.004203 4.474647
C 6.922152 4.529325 4.545684
C 0.019911 5.216957 3.997488
C 0.444897 5.580162 3.999941
C 0.598752 5.015795 4.569769
C 0.173660 5.398095 4.578028
C 0.947377 4.814484 4.078447
C 1.445057 5.424465 3.853258
C 1.388134 5.021643 4.433808
C 1.008345 5.415069 4.405603
C 2.016326 5.001316 3.860694
C 2.318540 5.378796 4.096973
C 2.556529 5.001972 4.357321
C 1.847857 5.555862 4.670084
C 2.934445 4.842318 3.975357
C 3.472815 5.501421 4.023826
C 3.376000 4.898869 4.566294
C 2.916642 5.531462 4.298315
C 3.910324 4.858369 3.920171
C 4.517106 5.465853 4.065735
C 4.438834 4.963439 4.497754
C 4.054778 5.361816 4.386620
C 4.999597 4.804666 3.876774
C 5.366483 5.345562 4.047173
C 5.493374 4.941729 4.306392
C 4.850182 5.462044 4.511701
C 5.931778 5.011541 3.962347
C 6.332013 5.459666 3.961827
C 6.467233 5.037401 4.480546
C 5.955120 5.553445 4.623711
C 6.955623 5.039781 4.095074
C 7.475119 5.547342 4.036969
C 7.335464 4.905545 4.412201
C 6.868208 5.562086 4.499393
C 0.161772 5.944641 4.190935
C 0.344249 6.463552 4.021766
C 0.632729 6.120494 4.384325
C 0.135325 6.665517 4.623551
C 0.926074 5.905572 4.072484
C 1.400150 6.539201 4.137653
C 1.542313 6.023131 4.415571
C 0.897490 6.624433 4.557734
C 2.142468 5.863261 4.143033
C 2.617042 6.511602 3.940320
C 2.588150 5.923983 4.425656
C 2.091936 6.600225 4.617855
C 3.070999 6.012849 4.230660
C 3.570048 6.327745 3.955107
C 3.526403 6.083198 4.555897
C 2.860371 6.375551 4.364972
C 4.130942 5.890666 4.131429
C 4.653616 6.540308 3.918008
C 4.473124 6.094752 4.455952
C 3.999697 6.643169 4.438444
C 4.964641 5.889243 4.224344
C 5.354642 6.430994 3.882044
C 5.701340 5.986931 4.483987
C 4.883390 6.555960 4.439495
C 5.856112 5.877274 3.982973
C 6.325309 6.515417 4.011165
C 6.397734 5.888330 4.440035
C 6.006668 6.396922 4.399274
C 6.994560 5.796962 3.978547
C 7.448349 6.795959 4.067599
C 7.449967 5.863989 4.591804
C 6.952080 6.677717 4.368337
C 0.083122 6.938549 3.738483
C 0.458838 7.486542 3.841282
C 0.426799 7.056361 4.248334
C 0.093120 7.492998 4.554312
C 0.906860 6.881937 4.065385
C 1.604451 7.231112 4.140895
C 1.318801 6.981776 4.450804
C 1.202557 7.453899 4.525109
C 1.975730 6.957711 3.827326
C 2.420414 7.309493 3.951686
C 2.434817 7.129587 4.645407
C 2.067562 7.351779 4.427838
C 2.983708 6.893216 4.002405
C 3.612150 7.453609 3.905212
C 3.423302 7.106814 4.606814
C 2.950422 7.441568 4.493694
C 3.993286 7.097403 3.788779
C 4.654961 7.452022 4.183545
C 4.424231 7.157725 4.483640
C 3.975902 7.457157 4.620671
C 5.122405 6.932293 3.920590
C 5.483324 7.326105 4.018917
C 5.503115 7.166701 4.528834
C 5.021665 7.421991 4.554323
C 5.864279 6.895743 3.824586
C 6.536084 7.395138 3.974505
C 6.415781 6.896108 4.555769
C 6.093069 7.473209 4.332439
C 7.107984 7.024202 3.851201
C 7.487505 7.467749 4.079769
C 7.440970 6.862683 4.537347
C 7.161671 7.463555 4.571149
C 0.179281 0.171992 5.153429
C 0.519767 0.658710 5.045587
C 0.548763 0.203998 5.693762
C 0.130045 0.649618 5.605334
C 0.990099 0.023749 5.035126
C 1.582064 0.503110 4.996124
C 1.568561 0.289661 5.464076
C 1.152799 0.527109 5.594638
C 1.874660 0.109210 4.772787
C 2.522271 0.534916 4.807567
C 2.590249 0.035754 5.265640
C 2.053196 0.374153 5.407196
C 3.199197 0.206053 4.941505
C 3.581695 0.431748 4.755657
C 3.362462 0.040774 5.415213
C 2.856866 0.464697 5.443459
C 3.932168 0.191046 4.979430
C 4.405650 0.523350 4.950564
C 4.573184 0.155672 5.447251
C 4.036862 0.566117 5.344578
C 5.014270 0.001891 5.263282
C 5.455284 0.387406 4.931549
C 5.382554 0.198504 5.629390
C 5.122334 0.633267 5.531807
C 5.902388 0.151970 4.931980
C 6.547758 0.348593 4.866900
C 6.610340 0.100830 5.655072
C 5.891598 0.431215 5.378472
C 7.160929 0.012653 5.113846
C 7.484855 0.475182 4.964453
C 7.379981 0.164158 5.631998
C 7.015157 0.433090 5.355476
C 0.018308 0.847088 5.010649
C 0.393750 1.480187 5.061801
C 0.367797 1.071966 5.418139
C 0.251289 1.577017 5.515630
C 1.053856 0.914787 4.913982
C 1.547340 1.472139 5.106836
C 1.366996 0.965456 5.426759
C 0.833097 1.416610 5.347773
C 2.061890 0.825431 5.045422
C 2.510430 1.464508 4.848842
C 2.628867 1.006535 5.418921
C 2.029607 1.551795 5.665163
C 2.946518 0.839531 4.829211
C 3.386183 1.367805 4.990045
C 3.611502 1.124346 5.504003
C 2.987477 1.458905 5.593250
C 3.760278 0.935002 5.000689
C 4.433513 1.503547 4.909464
C 4.378659 0.851879 5.535059
C 4.068605 1.381665 5.474260
C 5.018757 1.032546 5.037471
C 5.532279 1.661976 5.011556
C 5.452963 1.029749 5.344511
C 5.126620 1.493079 5.390963
C 5.895292 1.039252 5.066881
C 6.590521 1.615111 4.923779
C 6.541889 1.075295 5.345831
C 5.814388 1.432042 5.394626
C 6.936820 1.138659 5.009617
C 7.466482 1.531425 4.926353
C 7.420178 0.955146 5.513220
C 6.978186 1.668469 5.369318
C 0.053445 1.957748 4.837778
C 0.351631 2.496177 4.906091
C 0.404625 1.966512 5.341650
C 0.016426 2.590230 5.554872
C 1.081278 1.864048 5.007317
C 1.620667 2.476627 4.988874
C 1.320894 1.864158 5.477251
C 0.995812 2.525458 5.467548
C 1.976028 1.987060 5.145448
C 2.296736 2.611602 5.071760
C 2.355732 1.869922 5.469841
C 1.971420 2.560309 5.517377
C 2.818286 2.049899 5.109422
C 3.555788 2.321535 4.979694
C 3.417137 1.830771 5.454255
C 3.110578 2.408338 5.293719
C 4.071278 1.939436 4.891307
C 4.366451 2.457627 5.131676
C 4.522548 1.967848 5.266947
C 3.913164 2.339757 5.476708
C 5.069421 1.866213 4.861556
C 5.599075 2.327427 4.874729
C 5.631859 1.869778 5.507431
C 5.037971 2.635143 5.429508
C 5.958727 2.050385 5.088750
C 6.585907 2.598455 5.053712
C 6.482855 1.863529 5.341213
C 6.102241 2.552525 5.451120
C 6.997320 2.025455 4.817366
C 7.390293 2.299596 5.050416
C 7.440655 1.778421 5.439948
C 6.974095 2.338247 5.523232
C 0.035489 3.109786 4.899978
C 0.421200 3.547901 5.028986
C 0.481128 2.940704 5.648089
C 0.021221 3.480132 5.356646
C 0.972238 2.889886 5.079908
C 1.557417 3.409701 5.062347
C 1.531626 2.940283 5.334226
C 0.886245 3.441151 5.495231
C 1.963906 3.068662 5.207394
C 2.479691 3.633046 4.953375
C 2.403543 3.028146 5.459804
C 1.774247 3.520869 5.593866
C 3.065010 3.101823 5.116067
C 3.518494 3.348398 5.014755
C 3.290950 2.917604 5.505204
C 3.042664 3.525672 5.428015
C 4.011509 3.156872 5.011729
C 4.454929 3.623918 5.004664
C 4.577893 2.993517 5.588793
C 4.064645 3.554380 5.527883
C 5.109631 3.137738 5.004214
C 5.553374 3.258598 4.962457
C 5.533667 2.853709 5.388175
C 5.073893 3.457112 5.452695
C 5.986537 2.992055 5.066024
C 6.359802 3.476759 4.995324
C 6.489077 2.912771 5.522064
C 5.929286 3.564047 5.299201
C 6.867116 2.917545 4.840895
C 7.240405 3.592112 4.926323
C 7.478500 2.939173 5.480795
C 7.040361 3.624879 5.604815
C 0.080332 3.948814 4.960381
C 0.511603 4.651327 5.013682
C 0.538935 3.854596 5.428712
C 0.207425 4.628261 5.434175
C 0.844708 3.972858 4.811857
C 1.652337 4.409776 5.048783
C 1.628075 3.975627 5.579972
C 0.817323 4.426660 5.620021
C 1.966395 3.944859 5.120102
C 2.506366 4.464879 4.967395
C 2.398697 3.835691 5.442653
C 2.012691 4.348309 5.471820
C 3.114934 4.090799 5.021282
C 3.667387 4.593067 4.929819
C 3.461776 3.878771 5.542711
C 2.948416 4.589798 5.691435
C 3.892051 4.015572 4.851134
C 4.549787 4.536334 4.971365
C 4.432293 3.927315 5.608541
C 4.030039 4.403352 5.321697
C 4.876152 4.067101 5.026457
C 5.456682 4.595568 4.935068
C 5.668921 3.927912 5.604485
C 5.013712 4.490664 5.617422
C 5.876034 4.035124 4.884633
C 6.573989 4.518225 4.969764
C 6.558124 3.897272 5.316682
C 5.993640 4.470561 5.439144
C 7.153291 4.095331 5.060558
C 7.280177 4.522851 4.934116
C 7.339552 4.134149 5.570986
C 7.176021 4.626867 5.379922
C 0.058349 4.914961 5.006692
C 0.629886 5.505289 4.823219
C 0.578603 4.982231 5.738186
C 0.008319 5.633190 5.522944
C 0.877198 5.126715 4.995238
C 1.268088 5.496301 5.053324
C 1.393644 5.119952 5.553872
C 0.904439 5.362061 5.597040
C 1.963782 5.091166 5.131743
C 2.457144 5.263992 5.024056
C 2.479740 5.090195 5.518078
C 1.845060 5.603712 5.510296
C 3.010899 4.959586 5.009485
C 3.367918 5.617689 4.836314
C 3.454391 4.887769 5.631481
C 2.877427 5.473222 5.400597
C 4.008217 5.046934 4.890679
C 4.623972 5.600360 4.947340
C 4.648784 4.939659 5.377678
C 3.962406 5.667822 5.529649
C 4.898062 5.080964 4.874547
C 5.497046 5.550105 5.092041
C 5.541227 4.994949 5.474942
C 5.089651 5.302765 5.420720
C 6.164889 5.045108 5.039176
C 6.510968 5.390744 4.864264
C 6.440014 5.162616 5.573991
C 6.013959 5.545535 5.431951
C 7.089713 5.146256 4.869107
C 7.298180 5.352323 5.166551
C 7.451920 5.069866 5.592593
C 6.902019 5.317608 5.575367
C 0.098414 6.092066 4.873845
C 0.482199 6.394186 5.150370
C 0.386249 5.971321 5.636958
C 0.111493 6.377502 5.513399
C 0.973360 6.205567 5.112250
C 1.389316 6.356533 4.967784
C 1.418168 5.949136 5.460374
C 0.964587 6.632756 5.420853
C 2.092056 6.093605 4.794237
C 2.510309 6.357627 5.177721
C 2.563266 5.929062 5.487788
C 2.074130 6.503395 5.665206
C 2.874438 5.942936 4.882967
C 3.396923 6.538673 4.785196
C 3.536697 5.977719 5.455743
C 2.994553 6.453023 5.360476
C 4.025361 6.111750 4.905561
C 4.395202 6.511711 5.130438
C 4.548980 5.923495 5.340335
C 4.168748 6.533773 5.582233
C 4.985955 5.922323 5.086913
C 5.365764 6.619946 4.939707
C 5.586084 6.024587 5.514079
C 4.861807 6.513499 5.381028
C 5.727963 6.007928 4.953857
C 6.302907 6.456061 4.884957
C 6.607627 6.109422 5.672185
C 5.951534 6.594830 5.252573
C 7.081322 6.012953 4.993889
C 7.405026 6.380998 5.179511
C 7.448066 5.976697 5.524183
C 6.890089 6.511974 5.303829
C 0.002415 6.915728 5.121046
C 0.623486 7.355083 4.934422
C 0.512106 6.822001 5.530376
C 0.139588 7.482438 5.243520
C 1.151699 6.852674 4.891014
C 1.496194 7.370303 4.965111
C 1.428781 6.952805 5.391961
C 0.996978 7.399680 5.578277
C 2.020119 7.066625 5.066351
C 2.669035 7.395577 4.943456
C 2.341900 7.036391 5.536908
C 1.960930 7.476919 5.395670
C 2.894006 6.844600 4.976076
C 3.284153 7.478370 4.913352
C 3.432474 6.940800 5.454620
C 3.089689 7.384093 5.619518
C 4.048828 6.961149 4.854788
C 4.469701 7.364117 4.955502
C 4.502707 6.954978 5.515669
C 4.056308 7.481890 5.536438
C 4.898422 6.984176 5.095926
C 5.279658 7.419807 5.012582
C 5.455334 7.030014 5.461160
C 4.945260 7.382452 5.440890
C 6.115965 7.156883 5.070012
C 6.423487 7.463709 4.802677
C 6.503848 7.049119 5.598748
C 5.869773 7.286139 5.571914
C 7.071271 7.001002 4.854388
C 7.463374 7.442806 5.023552
C 7.459261 6.892620 5.376284
C 6.937877 7.475075 5.385679
C 0.134773 0.058435 5.795708
C 0.367555 0.580539 6.046459
C 0.393976 0.040948 6.473110
C 0.010456 0.522402 6.588338
C 1.015245 0.024353 6.003015
C 1.381930 0.499907 6.154258
C 1.689310 0.017225 6.653939
C 1.043917 0.726560 6.586097
C 2.113761 0.150568 5.868384
C 2.656251 0.400377 5.901253
C 2.504250 0.122669 6.520021
C 1.917334 0.540936 6.503363
C 2.943856 0.134324 6.227133
C 3.416325 0.354532 5.901831
C 3.350250 0.054933 6.543863
C 2.868395 0.629326 6.308786
C 3.791869 0.078623 6.074365
C 4.587934 0.554744 5.892971
C 4.475260 0.352486 6.420388
C 4.071394 0.560673 6.604632
C 4.897330 0.082639 5.977818
C 5.485443 0.494602 6.176370
C 5.558573 0.005445 6.333223
C 4.999533 0.459929 6.325408
C 5.873198 0.074389 5.899299
C 6.594966 0.485293 6.031841
C 6.540328 0.071291 6.523197
C 5.930178 0.416610 6.450867
C 7.097055 0.112990 6.061749
C 7.498447 0.516388 6.098331
C 7.467015 0.078499 6.443187
C 6.904317 0.438789 6.473095
C 0.100442 1.253978 5.885147
C 0.391498 1.375469 6.150701
C 0.341623 0.944782 6.483774
C 0.053718 1.370568 6.650812
C 1.012837 0.881001 6.105052
C 1.378785 1.475880 6.084628
C 1.623107 1.065881 6.446455
C 1.141960 1.383196 6.575913
C 2.016370 1.090054 5.858538
C 2.652505 1.518959 6.079012
C 2.414748 0.998679 6.312338
C 1.958572 1.453820 6.509120
C 3.031130 1.098767 5.990275
C 3.407416 1.520746 6.082447
C 3.379692 0.844152 6.430770
C 3.008937 1.602021 6.440797
C 3.979016 0.946885 5.979610
C 4.426701 1.387852 5.962208
C 4.601167 0.913068 6.567431
C 4.147405 1.570348 6.583981
C 5.026054 0.992356 6.133328
C 5.420660 1.426572 5.919748
C 5.445575 1.020763 6.442103
C 5.044822 1.506837 6.288452
C 5.980645 1.062165 5.808452
C 6.370579 1.622323 6.146343
C 6.616042 0.814002 6.660377
C 5.883934 1.686964 6.379410
C 6.962356 0.891997 6.156694
C 7.367875 1.529468 5.992921
C 7.486602 1.106576 6.617041
C 6.823603 1.321417 6.374180
C 0.095238 2.106310 5.846155
C 0.590706 2.537357 6.128827
C 0.544760 1.748717 6.540686
C 0.089812 2.306971 6.474070
C 0.864798 1.900872 6.191231
C 1.567407 2.426310 5.868775
C 1.450766 1.954077 6.497385
C 0.921754 2.630500 6.647766
C 2.079557 2.113119 5.965982
C 2.542089 2.585775 5.872889
C 2.441617 2.138522 6.361303
C 1.828965 2.665745 6.460959
C 2.894854 2.153269 5.957361
C 3.408671 2.538207 5.821024
C 3.424146 2.179746 6.615190
C 2.944328 2.651714 6.518744
C 4.043958 1.916600 5.855321
C 4.566991 2.380046 5.986604
C 4.425306 2.048452 6.422335
C 3.970463 2.679745 6.499226
C 5.048895 1.956241 6.132513
C 5.362251 2.409779 5.900933
C 5.350773 1.948447 6.652377
C 4.956588 2.593828 6.705108
C 5.998600 2.045855 5.793918
C 6.549452 2.458699 5.833592
C 6.626864 1.834326 6.476342
C 6.046175 2.456596 6.669246
C 7.108131 2.120743 5.972481
C 7.282360 2.621851 5.939752
C 7.479914 2.069786 6.379858
C 6.817020 2.338738 6.548749
C 0.035542 3.101748 5.773045
C 0.407309 3.548748 5.957388
C 0.499100 2.923582 6.466783
C 0.013241 3.531698 6.433766
C 1.072561 3.068940 5.877891
C 1.459045 3.516048 6.251683
C 1.411006 2.903979 6.629914
C 0.875230 3.445605 6.428085
C 1.952038 3.061056 6.147580
C 2.509329 3.327745 6.174874
C 2.381759 2.903625 6.346901
C 1.989163 3.650301 6.652062
C 2.831840 2.939298 6.091646
C 3.665319 3.452961 5.912110
C 3.401603 2.827657 6.539325
C 2.844070 3.488532 6.574366
C 3.909249 3.015332 5.877762
C 4.570700 3.600770 6.046174
C 4.497892 2.958145 6.657075
C 4.065198 3.293434 6.513590
C 5.039617 2.856747 5.876956
C 5.525459 3.333557 5.857140
C 5.578148 3.100276 6.361127
C 4.929382 3.542100 6.498091
C 6.132403 2.813855 6.032856
C 6.514950 3.334563 5.971759
C 6.660831 2.923341 6.481618
C 6.070094 3.393881 6.555211
C 7.017276 3.047500 5.864897
C 7.359993 3.345779 6.073171
C 7.349137 2.991398 6.581328
C 6.842510 3.470131 6.513141
C 0.128199 3.970872 5.742337
C 0.447696 4.332636 6.108766
C 0.635699 3.926052 6.527939
C 0.101751 4.329638 6.498709
C 0.912437 4.054978 6.006461
C 1.427414 4.640067 5.923120
C 1.551934 3.915227 6.635610
C 0.980203 4.636379 6.534541
C 2.054081 3.861360 6.099825
C 2.523999 4.493178 6.105577
C 2.437295 3.876418 6.480253
C 2.102234 4.384997 6.632706
C 2.877173 4.070210 6.003195
C 3.486691 4.350321 6.063581
C 3.702582 3.969422 6.413774
C 2.973497 4.469714 6.429352
C 3.894480 4.021539 5.902722
C 4.384506 4.576915 5.956435
C 4.514593 3.888021 6.488317
C 3.920495 4.471966 6.389993
C 4.990211 4.008149 6.184098
C 5.529792 4.516358 6.151001
C 5.505634 4.095380 6.601310
C 4.823892 4.626031 6.582172
C 6.044612 4.141963 6.003822
C 6.498525 4.589677 6.157993
C 6.487733 4.091493 6.397865
C 5.919141 4.397444 6.531664
C 6.911687 4.126191 6.093964
C 7.434136 4.385577 6.007364
C 7.346281 3.833631 6.386224
C 7.112796 4.352267 6.515563
C 0.011453 5.060722 6.179918
C 0.359576 5.330398 5.949234
C 0.366459 5.021565 6.582435
C 0.084686 5.604378 6.687021
C 0.975590 4.842028 6.080002
C 1.344462 5.518859 6.047528
C 1.327394 5.023905 6.536004
C 0.904657 5.643305 6.476383
C 2.048624 5.047820 5.995559
C 2.545391 5.588998 5.940705
C 2.310822 5.082631 6.468048
C 1.989398 5.609302 6.539290
C 2.953868 5.075720 5.918022
C 3.438367 5.350763 5.915993
C 3.621301 4.860344 6.585131
C 3.028826 5.522295 6.402816
C 3.995024 4.972712 5.881118
C 4.608327 5.394455 5.843674
C 4.352212 5.064746 6.595446
C 4.149349 5.609211 6.437156
C 4.973780 4.966208 5.885109
C 5.460398 5.460317 6.174818
C 5.596756 4.991956 6.361962
C 5.028432 5.550812 6.298301
C 6.082805 4.983511 6.043023
C 6.615863 5.633975 5.992481
C 6.631356 5.115669 6.570983
C 5.816519 5.475156 6.574100
C 6.989026 4.895275 5.889651
C 7.479539 5.440980 6.159248
C 7.355153 4.921917 6.602555
C 7.094557 5.362321 6.534266
C 0.172350 5.821122 6.151738
C 0.413836 6.583079 6.008094
C 0.503918 6.076095 6.753522
C 0.040451 6.673947 6.558824
C 1.251343 6.008647 5.961209
C 1.625598 6.540429 6.108214
C 1.559147 5.880106 6.589049
C 0.900284 6.493733 6.598453
C 2.023560 5.966698 6.154194
C 2.523556 6.511301 5.802259
C 2.542425 5.974625 6.575450
C 2.062759 6.438429 6.465677
C 2.989070 6.037622 5.890365
C 3.556785 6.547074 5.807257
C 3.410651 5.946498 6.580300
C 2.982247 6.409399 6.586744
C 4.011222 6.052651 6.073572
C 4.472320 6.478806 6.083184
C 4.632748 6.149032 6.421000
C 3.888290 6.305829 6.563636
C 5.113898 6.092723 6.075810
C 5.334875 6.553802 6.029255
C 5.548963 5.949656 6.380161
C 5.099051 6.476948 6.548330
C 6.099548 6.009296 5.877238
C 6.604156 6.709937 5.988489
C 6.671918 6.008177 6.564965
C 5.889071 6.596152 6.483494
C 6.917326 6.091800 6.098643
C 7.277978 6.559969 5.913951
C 7.485354 6.242507 6.482968
C 6.880363 6.527795 6.499268
C 0.108454 7.080704 6.153882
C 0.579926 7.436555 5.875167
C 0.623212 7.036832 6.530278
C 0.019063 7.490479 6.589847
C 0.871032 7.027026 6.077836
C 1.510648 7.440227 6.002279
C 1.494555 7.203135 6.522806
C 1.016492 7.459485 6.488735
C 2.178643 6.931715 6.014902
C 2.528532 7.465550 5.954828
C 2.578261 6.826483 6.533231
C 1.928916 7.305522 6.450541
C 2.956437 6.932791 5.839217
C 3.610945 7.473119 5.901029
C 3.578178 7.040817 6.494636
C 2.820642 7.391083 6.470948
C 3.936160 6.874454 6.010467
C 4.259094 7.314803 5.980679
C 4.394076 6.956920 6.471279
C 4.022563 7.331085 6.598719
C 4.865826 7.133359 6.082416
C 5.374080 7.265205 6.003575
C 5.411251 6.882436 6.424865
C 4.898778 7.413924 6.568457
C 6.139892 7.055707 6.036483
C 6.418587 7.496562 6.136316
C 6.508736 6.941630 6.416904
C 5.900088 7.486152 6.560247
C 6.987807 7.202398 6.045480
C 7.455077 7.440032 6.264976
C 7.297472 6.858164 6.475014
C 6.868486 7.377373 6.480882
C 0.300185 0.217209 6.916609
C 0.574462 0.650138 6.870570
C 0.497641 0.249407 7.483824
C 0.028358 0.310163 7.438721
C 0.983288 0.131336 7.020343
C 1.492664 0.447676 6.917199
C 1.676975 0.091127 7.370996
C 0.936139 0.742998 7.461178
C 2.047006 0.213351 6.973975
C 2.646280 0.529585 7.209680
C 2.306698 0.150168 7.426106
C 2.013248 0.631088 7.282519
C 2.915454 0.193633 6.920214
C 3.298076 0.533856 6.995164
C 3.400970 0.041821 7.287501
C 3.066403 0.639569 7.484138
C 4.052885 0.011243 7.056712
C 4.646559 0.780301 7.100015
C 4.285792 0.395230 7.360056
C 3.795522 0.465156 7.326297
C 4.805706 0.144947 6.885230
C 5.427664 0.675050 7.072843
C 5.605865 0.119599 7.402732
C 4.960113 0.479880 7.373006
C 6.064715 0.033159 7.042142
C 6.433660 0.469271 7.178506
C 6.557443 0.007235 7.252157
C 5.990791 0.601024 7.388024
C 7.001227 0.044795 6.893352
C 7.313342 0.540564 6.896233
C 7.428204 0.080182 7.176271
C 7.157881 0.593466 7.427894
C 0.066844 0.898931 7.149482
C 0.500574 1.677265 7.122303
C 0.519557 1.145603 7.347292
C 0.078661 1.580060 7.174079
C 0.992468 0.748984 7.042066
C 1.560819 1.302636 6.975766
C 1.431114 1.037574 7.388299
C 0.997759 1.401742 7.415229
C 2.072311 1.227723 6.974131
C 2.656191 1.652133 6.896346
C 2.508579 1.003952 7.223311
C 1.864665 1.476766 7.376821
C 3.051549 0.928621 6.820036
C 3.612750 1.533186 6.899028
C 3.399564 1.024117 7.376760
C 2.957857 1.424073 7.488334
C 4.004351 1.062970 6.805667
C 4.506242 1.395542 7.006420
C 4.299704 1.141524 7.389011
C 4.122750 1.603134 7.438768
C 5.038682 1.118771 6.867903
C 5.629901 1.617595 6.811351
C 5.658708 1.019297 7.374188
C 5.106318 1.542352 7.399336
C 6.123032 1.131423 7.067447
C 6.466943 1.513053 7.133390
C 6.397780 0.959479 7.483014
C 6.070027 1.442638 7.490874
C 6.956682 1.115237 6.839032
C 7.444321 1.500850 7.114547
C 7.246968 1.035269 7.451352
C 6.896011 1.647061 7.324718
C 0.087248 1.829542 6.628676
C 0.525194 2.338344 6.874836
C 0.556926 2.094151 7.458156
C 0.180735 2.640867 7.158055
C 0.990364 1.983225 7.190797
C 1.565756 2.686412 7.079208
C 1.425236 1.878139 7.348781
C 0.874087 2.594591 7.483938
C 1.923887 1.974829 7.113183
C 2.539781 2.365531 7.087553
C 2.681849 2.049516 7.494429
C 2.202861 2.383317 7.488691
C 2.988498 2.039026 7.071923
C 3.432449 2.529352 7.097828
C 3.739502 2.014025 7.444464
C 2.934841 2.543839 7.414619
C 3.841842 2.072976 6.983057
C 4.532759 2.424832 6.878732
C 4.400416 2.189676 7.413009
C 3.812321 2.628397 7.464668
C 4.918734 1.999642 7.092850
C 5.542367 2.476509 6.818305
C 5.577337 2.011801 7.382212
C 4.823597 2.523258 7.379419
C 6.061613 1.921289 6.919635
C 6.621785 2.436288 7.096359
C 6.497360 2.066503 7.427417
C 5.802384 2.505230 7.412119
C 6.752836 1.983713 6.977559
C 7.293966 2.549463 6.641642
C 7.336165 2.150898 7.283728
C 6.987970 2.653940 7.398538
C 0.011116 3.088964 6.780454
C 0.503437 3.650760 6.988956
C 0.603851 3.042787 7.452241
C 0.052777 3.352462 7.404792
C 1.040305 2.903913 7.049224
C 1.707483 3.494254 7.039938
C 1.696972 3.137538 7.468040
C 0.833313 3.549780 7.379462
C 1.900713 3.126339 6.837003
C 2.521019 3.562691 7.020267
C 2.509955 3.079760 7.462612
C 2.083045 3.702193 7.349451
C 2.937731 3.063125 6.934322
C 3.517079 3.491205 7.040290
C 3.559695 3.187783 7.451679
C 2.911251 3.519935 7.458600
C 4.069726 3.178624 6.959179
C 4.413818 3.722897 6.957219
C 4.542478 3.065283 7.291102
C 3.946118 3.571865 7.369901
C 4.955405 3.051400 6.972483
C 5.674456 3.433598 7.056519
C 5.646606 2.979530 7.420495
C 5.042516 3.570147 7.417675
C 6.150223 2.846178 7.003800
C 6.302153 3.587637 6.941952
C 6.423412 2.760760 7.468684
C 6.024787 3.806808 7.471828
C 6.949944 2.908641 6.911365
C 7.241866 3.680625 6.827929
C 7.391275 2.990523 7.378557
C 7.076056 3.413532 7.429827
C 0.215474 4.066628 6.917809
C 0.434095 4.626368 7.087305
C 0.356601 4.189122 7.361176
C 0.098489 4.664526 7.479650
C 0.979018 4.058064 7.160853
C 1.357573 4.383295 7.021750
C 1.384894 4.006105 7.488127
C 0.907596 4.518753 7.251319
C 1.808970 3.954632 7.124110
C 2.306114 4.611992 7.060993
C 2.433705 4.129828 7.314921
C 1.835304 4.730694 7.459857
C 3.047108 3.998703 6.849197
C 3.433950 4.431813 7.075369
C 3.350067 3.914011 7.336490
C 3.008931 4.360823 7.477118
C 3.858023 4.039160 6.858190
C 4.613606 4.506385 7.098439
C 4.577665 4.066595 7.403011
C 4.227439 4.517579 7.458685
C 4.968676 4.093705 7.039793
C 5.678339 4.403246 6.988338
C 5.504084 3.814307 7.362461
C 5.197409 4.316088 7.429543
C 6.145059 4.109413 6.977792
C 6.640009 4.475600 6.921780
C 6.597754 3.924082 7.285749
C 5.921089 4.644812 7.340398
C 7.042556 4.065407 7.008106
C 7.361076 4.627373 7.067027
C 7.260990 4.081132 7.481299
C 6.787101 4.596625 7.486477
C 0.173253 5.112385 7.029239
C 0.454770 5.618713 7.102443
C 0.768347 4.975268 7.375552
C 0.027045 5.524593 7.337255
C 0.896399 5.077184 6.937801
C 1.341903 5.405746 6.915261
C 1.430231 5.100078 7.473441
C 1.095409 5.485143 7.389290
C 2.139357 5.103668 7.020382
C 2.530560 5.469379 6.917612
C 2.282579 4.975624 7.471412
C 1.919189 5.359845 7.432684
C 3.024967 4.996709 6.932380
C 3.239397 5.583523 6.978831
C 3.447146 5.089194 7.294159
C 3.132036 5.467165 7.484601
C 3.956220 5.189655 6.923836
C 4.392143 5.639844 7.088696
C 4.498778 5.222444 7.448034
C 4.028895 5.463039 7.464975
C 4.872140 5.022720 7.162125
C 5.377253 5.617682 7.009574
C 5.409082 5.147354 7.420648
C 4.809439 5.672639 7.387018
C 6.120757 4.927348 6.998703
C 6.391138 5.466277 7.020214
C 6.381531 4.570138 7.412421
C 5.941221 5.512777 7.375794
C 6.903680 5.036971 7.038411
C 7.435752 5.710058 6.828298
C 7.420732 5.155166 7.459011
C 6.982000 5.519481 7.147380
C 0.037787 6.054432 6.901392
C 0.455093 6.543531 6.784240
C 0.647031 6.091570 7.415825
C 0.110707 6.370404 7.381320
C 0.970952 6.033728 6.873781
C 1.331848 6.462596 6.954910
C 1.535410 5.902117 7.371661
C 0.746520 6.605906 7.482010
C 2.126910 6.094472 6.880904
C 2.489233 6.552998 7.007493
C 2.429503 6.065790 7.434051
C 2.117940 6.544777 7.456397
C 2.770943 6.107457 7.041676
C 3.385902 6.397871 7.093251
C 3.380140 6.013137 7.496206
C 2.931096 6.252892 7.484859
C 4.083312 5.902893 6.861525
C 4.534080 6.463011 7.009341
C 4.380619 6.006605 7.465070
C 3.931595 6.468311 7.341074
C 5.076209 6.048561 7.004701
C 5.593710 6.373726 7.141940
C 5.368493 6.006222 7.477741
C 5.091065 6.448796 7.354010
C 6.033298 6.079823 7.112922
C 6.457756 6.608414 6.878740
C 6.508816 5.831175 7.493198
C 6.123601 6.445644 7.469614
C 7.099837 5.955908 7.089312
C 7.453647 6.515550 6.981175
C 7.400923 6.046219 7.492050
C 7.048204 6.541597 7.408218
C 0.257125 7.093994 7.026097
C 0.682281 7.467475 6.972971
C 0.706119 7.075107 7.350695
C 0.190716 7.497685 7.397790
C 0.964375 6.831662 7.041267
C 1.316803 7.475064 6.932414
C 1.444652 6.907655 7.438394
C 1.229702 7.412753 7.378656
C 1.918137 6.901940 7.170043
C 2.734732 7.394681 7.029768
C 2.622131 6.838586 7.475570
C 2.151578 7.285738 7.327780
C 2.918895 6.884349 6.944285
C 3.619893 7.369493 6.969308
C 3.749562 7.030437 7.343825
C 2.764626 7.454214 7.455949
C 4.187171 6.952130 6.935577
C 4.332590 7.332726 7.189435
C 4.379702 6.795565 7.430774
C 3.754553 7.499751 7.451655
C 4.894882 7.167475 7.075286
C 5.329977 7.431706 6.912221
C 5.417835 6.942358 7.446657
C 5.167351 7.396115 7.483709
C 6.158320 7.031336 6.992603
C 6.767529 7.367266 6.925192
C 6.246080 7.012775 7.487268
C 5.828016 7.471032 7.406030
C 7.009831 6.884454 6.915552
C 7.380735 7.487904 7.049299
C 7.307260 6.994075 7.356888
C 6.787305 7.450993 7.334372
2048
Frame 8/10
C 0.166066 0.186020 0.196653
C 0.527265 0.415319 0.013790
C 0.443656 0.057968 0.593083
C 0.030757 0.709247 0.596821
C 0.876134 0.016497 0.029007
C 1.314507 0.664934 0.210228
C 1.482191 0.104895 0.471597
C 1.061553 0.477859 0.669184
C 1.914634 0.007427 0.004268
C 2.587417 0.461070 0.120247
C 2.697874 0.107733 0.578208
C 2.095358 0.422752 0.634505
C 3.239681 0.068986 0.243675
C 3.328737 0.548896 0.089106
C 3.730874 0.218312 0.376204
C 3.052849 0.550206 0.768982
C 4.380806 0.003826 0.018333
C 4.324165 0.679715 0.077360
C 4.602095 0.101499 0.620942
C 4.095300 0.425740 0.650599
C 5.208064 0.135383 0.001352
C 5.361990 0.721960 0.161438
C 5.652085 0.072109 0.491600
C 4.993843 0.351152 0.421633
C 5.790780 0.234771 0.037209
C 6.472320 0.672583 0.050683
C 6.475979 0.038203 0.595387
C 6.041963 0.495022 0.485595
C 7.257617 0.016301 0.055152
C 7.371705 0.689069 0.249357
C 7.208774 0.082171 0.630895
C 6.887037 0.564382 0.483274
C 0.173896 0.799129 0.168018
C 0.707750 1.627067 0.024848
C 0.424476 1.118744 0.491108
C 0.212559 1.475660 0.264067
C 1.015445 0.976645 0.021922
C 1.515074 1.580420 0.084527
C 1.671491 1.253226 0.542511
C 0.985127 1.530461 0.686060
C 1.871983 1.126242 0.026371
C 2.658521 1.588523 0.026319
C 2.590549 0.866186 0.606646
C 2.110037 1.467093 0.274025
C 2.877767 0.861053 0.007108
C 3.295548 1.618759 0.348144
C 3.524360 0.734013 0.464722
C 2.876370 1.394750 0.389009
C 3.857058 1.138758 0.262998
C 4.468576 1.423722 0.000526
C 4.718080 1.009395 0.445781
C 3.876739 1.591896 0.401780
C 5.075606 1.263294 0.063318
C 5.431799 1.614847 0.133292
C 5.687891 1.087010 0.477862
C 5.081385 1.483995 0.494124
C 5.891708 0.849626 0.139371
C 6.442341 1.563813 0.219175
C 6.377266 1.096648 0.279080
C 6.060903 1.617549 0.512889
C 6.846706 0.977104 0.112664
C 7.431722 1.618572 0.015567
C 7.274429 1.088049 0.491668
C 6.838709 1.678990 0.558607
C 0.185241 2.248170 0.032148
C 0.576464 2.634287 0.039914
C 0.417886 1.927150 0.333891
C 0.119050 2.263946 0.554537
C 0.933871 2.121663 0.084892
C 1.496936 2.457670 0.246590
C 1.641133 2.049627 0.448055
C 0.824783 2.346778 0.561335
C 2.091824 2.093511 0.205034
C 2.357531 2.465924 0.021081
C 2.622154 2.075642 0.807280
C 2.072096 2.734971 0.662024
C 2.868323 2.020960 0.212938
C 3.592145 2.715532 0.030996
C 3.247646 2.081334 0.511192
C 3.193822 2.677781 0.483304
C 4.095075 1.882253 0.087584
C 4.412259 2.406120 0.077774
C 4.307170 1.874648 0.591012
C 3.934875 2.632412 0.486721
C 5.152555 2.010904 0.110339
C 5.191653 2.519641 0.077246
C 5.609161 2.073333 0.540841
C 5.113465 2.755100 0.487740
C 5.902972 2.152612 0.097359
C 6.530363 2.484804 0.096282
C 6.595087 2.095661 0.728454
C 5.923165 2.508919 0.586400
C 6.706427 1.932551 0.040954
C 7.442230 2.440651 0.152964
C 7.310667 1.892815 0.483252
C 7.031616 2.361640 0.403670
C 0.273926 3.081875 0.111056
C 0.573271 3.838805 0.103408
C 0.532231 3.226537 0.547365
C 0.098151 3.235743 0.684121
C 0.956943 2.971285 0.110180
C 1.373089 3.687240 0.038560
C 1.400841 3.120965 0.463918
C 0.955900 3.410027 0.298275
C 1.852104 2.771493 0.076358
C 2.437000 3.750746 0.110991
C 2.635745 2.917375 0.419253
C 2.114982 3.429589 0.517513
C 2.943912 2.844414 0.016296
C 3.269732 3.560141 0.044527
C 3.311372 3.112504 0.581479
C 3.038062 3.574024 0.568802
C 3.944079 3.134010 0.039753
C 4.774288 3.522133 0.105191
C 4.627529 3.112650 0.349722
C 4.151467 3.638452 0.566112
C 5.210167 3.176252 0.216546
C 5.620381 3.609825 0.024131
C 5.717335 2.981709 0.595827
C 5.096805 3.609784 0.505240
C 5.743566 2.964348 0.001844
C 6.618125 3.341903 0.262252
C 6.241518 2.861395 0.429596
C 6.142970 3.308036 0.432359
C 7.077094 3.095015 0.018258
C 7.408548 3.651861 0.185454
C 7.375719 2.843126 0.436167
C 7.092664 3.460734 0.569987
C 0.109085 3.803023 0.246200
C 0.344249 4.447443 0.026631
C 0.655775 4.142865 0.490422
C 0.215378 4.453939 0.537437
C 1.018650 4.073046 0.136422
C 1.514329 4.243419 0.144665
C 1.343470 3.872182 0.472395
C 0.896769 4.559635 0.392267
C 1.985793 4.052986 0.254357
C 2.674594 4.542735 0.155508
C 2.431201 4.282185 0.519971
C 1.865524 4.673268 0.456993
C 2.860953 4.096033 0.053272
C 3.463388 4.455080 0.013016
C 3.435137 4.011442 0.268074
C 3.067156 4.315465 0.485958
C 3.928740 4.220283 0.035708
C 4.472814 4.493773 0.013189
C 4.693117 3.970397 0.504045
C 4.145076 4.632637 0.521813
C 4.959020 4.027650 0.090255
C 5.512783 4.431348 0.241513
C 5.542265 3.831034 0.477000
C 4.865601 4.652385 0.410737
C 6.061456 3.880767 0.200579
C 6.626698 4.533774 0.086328
C 6.372104 4.196492 0.472860
C 5.973177 4.477738 0.314675
C 6.792347 4.085391 0.133306
C 7.322197 4.663600 0.004403
C 7.349382 4.155078 0.370537
C 6.919128 4.701988 0.476438
C 0.037659 4.920185 0.323678
C 0.440112 5.655133 0.006405
C 0.644446 5.111585 0.712857
C 0.059134 5.500348 0.651524
C 0.910601 5.095855 0.117665
C 1.245763 5.662072 0.130600
C 1.567366 5.231403 0.403563
C 0.849121 5.542805 0.389722
C 2.164286 5.263131 0.073728
C 2.646012 5.560883 0.182163
C 2.589741 5.132439 0.437760
C 1.997809 5.436806 0.547771
C 2.964698 4.960103 0.210215
C 3.385456 5.329635 0.119974
C 3.420607 5.097753 0.618399
C 3.018275 5.479170 0.661954
C 3.886535 4.999464 0.243320
C 4.636351 5.632459 0.058075
C 4.553551 5.032319 0.660860
C 3.793946 5.464732 0.598678
C 5.099384 4.871803 0.085684
C 5.565771 5.543072 0.055766
C 5.517125 5.053387 0.240349
C 5.055502 5.457020 0.371483
C 6.091985 4.827272 0.006597
C 6.460969 5.273395 0.136881
C 6.451458 4.768757 0.498846
C 5.704496 5.529279 0.588150
C 6.934656 5.140813 0.034968
C 7.379521 5.644783 0.097796
C 7.346774 4.837936 0.672458
C 7.035387 5.584208 0.478602
C 0.004507 5.777604 0.158207
C 0.417846 6.480966 0.126412
C 0.593366 6.011869 0.471215
C 0.066196 6.324217 0.434874
C 0.857709 6.069501 0.070243
C 1.311666 6.300216 0.234612
C 1.774497 5.995369 0.415244
C 0.971340 6.358426 0.683916
C 1.992791 5.780237 0.046133
C 2.592584 6.439332 0.044240
C 2.583418 5.996383 0.396039
C 2.091458 6.521530 0.557633
C 3.163612 6.189920 0.111678
C 3.609174 6.239226 0.064567
C 3.342135 5.944485 0.451636
C 3.213737 6.531268 0.485045
C 4.041185 6.049072 0.276402
C 4.533850 6.646074 0.026799
C 4.595884 5.880178 0.536159
C 3.829392 6.580202 0.308563
C 4.997193 6.050305 0.017400
C 5.335855 6.617438 0.085822
C 5.235237 5.918047 0.590064
C 5.063812 6.387285 0.426628
C 6.160295 6.027963 0.063944
C 6.297727 6.647133 0.105873
C 6.603502 5.934752 0.367783
C 5.828758 6.505364 0.550077
C 7.090042 6.185302 0.055616
C 7.465966 6.744738 0.126767
C 7.343091 6.039105 0.773715
C 6.784113 6.504579 0.317743
C 0.231875 6.996041 0.000874
C 0.786440 7.448785 0.029390
C 0.371814 6.897984 0.428698
C 0.017502 7.469218 0.447105
C 0.915100 6.709696 0.057100
C 1.436787 7.079108 0.025794
C 1.634462 7.097429 0.606287
C 1.213700 7.333919 0.619462
C 2.210097 6.878868 0.217033
C 2.394005 7.320701 0.314911
C 2.320566 7.072996 0.741200
C 1.932074 7.382345 0.338214
C 3.297729 6.934401 0.070693
C 3.618114 7.382060 0.091299
C 3.373978 7.023763 0.547802
C 2.933985 7.493934 0.177214
C 4.235006 7.032917 0.139090
C 4.746643 7.486977 0.174104
C 4.392159 6.833749 0.530609
C 3.955808 7.433022 0.651195
C 4.967022 6.895494 0.229758
C 5.370323 7.445926 0.031209
C 5.646707 6.932294 0.379563
C 5.211721 7.406288 0.534869
C 5.820971 7.206826 0.089034
C 6.544004 7.438162 0.102668
C 6.655241 6.972410 0.539134
C 5.855980 7.468071 0.614925
C 7.002590 6.966715 0.030935
C 7.091106 7.336237 0.236987
C 7.231496 6.689918 0.532868
C 7.039519 7.356231 0.808638
C 0.016959 0.195855 0.874092
C 0.336268 0.521122 1.060877
C 0.436858 0.026820 1.525024
C 0.006199 0.446509 1.457502
C 1.054963 0.046826 1.017114
C 1.667694 0.517360 0.891540
C 1.586778 0.045708 1.686443
C 0.795040 0.605955 1.428422
C 2.144155 0.163958 1.116758
C 2.599566 0.323220 1.041273
C 2.598055 0.063490 1.604564
C 2.056943 0.741961 1.617407
C 3.079642 0.077934 0.949944
C 3.708958 0.666957 1.039632
C 3.697423 0.192864 1.415842
C 2.865315 0.531042 1.525565
C 3.826586 0.156475 0.960582
C 4.648418 0.305832 1.061032
C 4.200406 0.069950 1.570044
C 4.032441 0.693998 1.739185
C 5.210226 0.066582 0.810040
C 5.696877 0.419514 0.942655
C 5.346355 0.044227 1.485337
C 4.943653 0.334811 1.500785
C 5.941920 0.127938 1.266687
C 6.690929 0.443003 0.926629
C 6.569791 0.035162 1.763210
C 5.893047 0.773569 1.457196
C 6.854876 0.003251 1.254178
C 7.492907 0.342284 0.984920
C 7.211079 0.278530 1.310292
C 6.815577 0.447651 1.664436
C 0.121977 1.062569 0.915656
C 0.584392 1.505934 1.045901
C 0.396476 0.943640 1.325386
C 0.117363 1.340338 1.312332
C 0.911707 0.895728 0.882329
C 1.382663 1.457400 1.098457
C 1.435845 0.992694 1.671947
C 0.827369 1.508768 1.556744
C 1.754902 1.015613 0.945676
C 2.653737 1.563257 1.075717
C 2.514451 0.835954 1.325753
C 2.005263 1.375343 1.372608
C 2.963271 1.105717 0.949437
C 3.474011 1.450147 0.945633
C 3.646475 0.889029 1.565063
C 3.022449 1.447606 1.716242
C 4.016763 1.086684 1.062606
C 4.599827 1.569223 0.951656
C 4.485175 0.934664 1.477217
C 4.086155 1.566224 1.257085
C 4.793364 1.142229 1.054622
C 5.665776 1.558906 0.968325
C 5.671959 1.205684 1.673890
C 5.176889 1.434672 1.290689
C 6.125638 0.830794 0.991504
C 6.495646 1.654829 0.976279
C 6.469268 0.802282 1.449002
C 5.851243 1.599372 1.499329
C 7.147977 0.897079 0.992029
C 7.347649 1.567354 1.113790
C 7.409626 0.764228 1.534178
C 6.995411 1.666891 1.472955
C 0.118375 1.950637 1.250516
C 0.485216 2.274118 0.929297
C 0.585518 2.012890 1.662308
C 0.015966 2.448245 1.536333
C 1.117071 2.010715 0.951708
C 1.416791 2.525499 0.916994
C 1.462848 1.862046 1.604232
C 1.184848 2.436812 1.398567
C 2.121521 1.823940 0.924663
C 2.436481 2.513952 1.031352
C 2.360061 1.990855 1.455223
C 2.162191 2.499772 1.568112
C 3.180319 2.030437 1.051677
C 3.440116 2.438073 0.794286
C 3.721443 1.883748 1.553427
C 3.121427 2.305618 1.508904
C 3.973949 2.205410 0.885686
C 4.359383 2.523260 0.782334
C 4.319084 1.949061 1.447407
C 3.986635 2.532789 1.525306
C 4.907703 1.908828 1.147880
C 5.512976 2.653255 0.967615
C 5.390361 1.872641 1.343101
C 5.089075 2.257375 1.470473
C 5.795988 2.101728 1.016335
C 6.752313 2.564034 0.934325
C 6.593647 2.112002 1.553901
C 6.149365 2.423991 1.557289
C 6.911373 1.891870 1.031553
C 7.464317 2.727077 0.923865
C 7.435370 1.975372 1.705128
C 6.756701 2.619666 1.560059
C 0.103729 3.230845 1.111419
C 0.682583 3.356182 1.148397
C 0.578527 2.971735 1.689942
C 0.053433 3.740870 1.495872
C 1.078965 2.951502 0.909305
C 1.402079 3.474110 0.879082
C 1.414506 2.856868 1.317012
C 1.013375 3.243018 1.644217
C 1.980309 3.048641 1.148601
C 2.600311 3.654139 0.810552
C 2.494550 2.988049 1.446754
C 2.177720 3.451657 1.521985
C 2.930418 2.895443 1.243424
C 3.284660 3.349781 1.147590
C 3.530770 2.837547 1.400137
C 2.796018 3.647333 1.554076
C 3.916241 2.989561 0.906994
C 4.643655 3.558190 1.135607
C 4.429498 3.175295 1.323874
C 4.030302 3.576373 1.696137
C 5.004905 3.055237 0.987260
C 5.380517 3.610279 1.079940
C 5.480029 3.132434 1.458350
C 5.188087 3.629716 1.517412
C 5.921571 3.069739 1.074133
C 6.574269 3.260145 0.852772
C 6.187061 2.955413 1.456621
C 5.938144 3.400623 1.537922
C 6.957453 2.982344 0.702344
C 7.477512 3.311969 0.884779
C 7.313872 3.011927 1.477018
C 6.821270 3.647450 1.565610
C 0.087443 3.966418 0.807785
C 0.542145 4.656892 0.802136
C 0.697629 3.986161 1.626830
C 0.072331 4.546360 1.280300
C 1.186887 3.946705 1.128303
C 1.506349 4.464006 1.182913
C 1.571506 3.905845 1.528988
C 0.993682 4.655844 1.528036
C 2.087262 3.770359 0.911428
C 2.444778 4.683340 0.818042
C 2.412892 3.893216 1.408864
C 2.035621 4.594506 1.501535
C 2.887760 3.936656 1.113140
C 3.285183 4.338974 1.089938
C 3.582396 3.868629 1.598905
C 3.049174 4.407210 1.683023
C 3.963989 4.140664 1.108857
C 4.648515 4.462002 1.050473
C 4.289553 3.857980 1.397165
C 3.745154 4.391156 1.495298
C 5.065503 4.045494 1.117242
C 5.540087 4.242325 0.997087
C 5.381618 4.187467 1.498505
C 5.224204 4.643164 1.544722
C 5.871293 3.942365 1.252030
C 6.480133 4.349257 1.156469
C 6.362573 3.781147 1.625762
C 6.171639 4.490488 1.496676
C 6.857192 3.989544 1.044569
C 7.402427 4.301370 0.809946
C 7.334627 3.921553 1.592889
C 6.926225 4.295867 1.477744
C 0.122695 4.891588 0.874653
C 0.473392 5.695277 0.859266
C 0.498485 5.202484 1.339160
C 0.208266 5.441778 1.661960
C 0.949333 4.813689 0.980153
C 1.635630 5.689721 1.169849
C 1.418310 4.974586 1.421095
C 1.060664 5.545697 1.272696
C 2.147749 4.946191 1.152303
C 2.367230 5.655120 0.956367
C 2.561598 4.978158 1.672153
C 2.175004 5.469312 1.391700
C 3.014024 5.134860 1.116536
C 3.422744 5.511813 1.058261
C 3.429687 5.088822 1.438689
C 3.018965 5.350206 1.543672
C 3.798945 5.174997 1.008571
C 4.437160 5.489470 0.842601
C 4.629339 4.992570 1.655654
C 4.109595 5.473002 1.397149
C 5.137824 4.965820 1.153900
C 5.293347 5.382670 0.909744
C 5.567984 5.279706 1.335448
C 4.847052 5.533082 1.301128
C 5.954241 5.076127 1.194583
C 6.489963 5.655097 0.810776
C 6.485102 5.046584 1.290811
C 5.879175 5.613198 1.507636
C 7.197514 5.041349 1.072583
C 7.410894 5.495468 1.045234
C 7.324583 4.925324 1.733424
C 7.134379 5.424476 1.527348
C 0.064454 6.337678 0.926735
C 0.508688 6.426831 0.827006
C 0.430580 5.844693 1.504425
C 0.023470 6.375925 1.380505
C 0.952977 5.990858 1.148430
C 1.446954 6.382898 0.907708
C 1.409883 6.135046 1.322598
C 0.882396 6.377812 1.593219
C 1.972624 6.022754 0.847496
C 2.464684 6.669409 0.929946
C 2.460547 6.091939 1.315044
C 2.045800 6.511612 1.393303
C 2.800085 5.863900 0.950567
C 3.379415 6.369046 0.988081
C 3.666382 5.938945 1.503827
C 3.069910 6.359712 1.718753
C 4.006524 5.782912 0.980915
C 4.309297 6.547280 1.039292
C 4.649795 5.995805 1.513459
C 3.868827 6.432167 1.332052
C 4.945944 6.110523 0.973679
C 5.377309 6.471735 1.099086
C 5.467441 5.876515 1.410284
C 4.865910 6.573016 1.494638
C 5.984804 6.018192 0.828168
C 6.382100 6.379403 1.144551
C 6.444830 5.905217 1.594676
C 5.887576 6.477749 1.475393
C 6.778327 5.814758 1.102563
C 7.464729 6.659235 0.987412
C 7.419385 5.859277 1.650264
C 7.149079 6.415017 1.482569
C 0.280669 6.994404 1.062407
C 0.524527 7.291298 0.695908
C 0.594107 6.962651 1.485130
C 0.197134 7.460960 1.353027
C 0.876277 7.111000 0.993667
C 1.459317 7.483681 1.304667
C 1.548221 7.006659 1.297038
C 0.814435 7.478710 1.469640
C 1.894532 6.721087 0.965053
C 2.598042 7.460843 1.005294
C 2.566331 6.906087 1.512043
C 1.975823 7.378990 1.656170
C 2.968445 7.079106 0.887386
C 3.386584 7.444260 0.904836
C 3.552307 6.840722 1.395937
C 2.927668 7.283143 1.424210
C 4.220843 7.027332 1.100961
C 4.657366 7.471874 1.121402
C 4.757268 7.013004 1.354041
C 4.116409 7.425570 1.476387
C 5.139938 7.135337 1.026040
C 5.570081 7.435248 1.077263
C 5.324017 6.933867 1.596757
C 4.981116 7.477721 1.571281
C 6.007392 7.124245 1.121960
C 6.585937 7.449716 1.032351
C 6.565232 7.088793 1.363738
C 6.126583 7.488414 1.447807
C 6.967261 6.749709 1.157550
C 7.201403 7.249971 1.240901
C 7.293012 6.874328 1.649584
C 6.941369 7.385704 1.836726
C 0.040338 0.126072 2.270199
C 0.682751 0.378825 1.974274
C 0.486006 0.123969 2.405648
C 0.056501 0.571374 2.368685
C 1.073494 0.107598 1.814311
C 1.418148 0.458730 1.870743
C 1.532908 0.194761 2.573662
C 0.876309 0.726413 2.352060
C 2.181443 0.057191 1.959796
C 2.333288 0.537784 1.984178
C 2.406721 0.065158 2.512924
C 1.881369 0.581401 2.714063
C 2.956735 0.039231 2.246383
C 3.367124 0.397390 1.942011
C 3.558502 0.088118 2.271351
C 2.927423 0.625704 2.595946
C 4.035672 0.262352 2.165935
C 4.421548 0.421332 1.819758
C 4.560017 0.039840 2.437082
C 3.890981 0.523892 2.591829
C 5.147353 0.031912 2.071632
C 5.630026 0.453758 2.118862
C 5.542155 0.014456 2.462264
C 5.052785 0.351021 2.489317
C 5.896580 0.121555 1.893683
C 6.315566 0.479192 1.843096
C 6.340066 0.150621 2.300130
C 5.915778 0.317580 2.552026
C 6.947692 0.081750 2.204626
C 7.219406 0.546099 2.054764
C 7.387946 0.124061 2.153042
C 6.850953 0.662659 2.724093
C 0.091404 1.123015 1.741768
C 0.268030 1.542813 1.958662
C 0.401169 0.890572 2.552662
C 0.140566 1.298336 2.438526
C 0.859987 1.110757 2.055021
C 1.304946 1.479766 1.895945
C 1.377118 0.890058 2.367838
C 0.920527 1.455239 2.655583
C 1.944400 1.272702 2.000553
C 2.596176 1.675813 2.154987
C 2.234088 0.933613 2.457739
C 2.085338 1.470090 2.566954
C 3.139150 0.877361 1.985003
C 3.463667 1.417423 2.082686
C 3.591907 0.880244 2.349955
C 2.961387 1.389848 2.294933
C 3.840396 1.051725 1.969613
C 4.264627 1.494936 1.961226
C 4.633788 1.095369 2.575451
C 4.118084 1.676512 2.598333
C 5.094717 1.184493 2.022132
C 5.298782 1.646007 2.091813
C 5.500019 0.772821 2.472804
C 5.063836 1.549045 2.498019
C 6.116412 1.104719 2.068680
C 6.587260 1.518737 1.943133
C 6.362927 0.934498 2.757870
C 6.115400 1.375333 2.503072
C 6.810165 0.960231 1.812831
C 7.450808 1.327439 1.829458
C 7.455566 0.912110 2.456775
C 7.090448 1.641814 2.688837
C 0.017015 2.056110 1.883720
C 0.555410 2.482533 1.808455
C 0.402712 1.887012 2.566552
C 0.210036 2.354636 2.588304
C 1.234863 1.971595 2.073384
C 1.541813 2.697653 2.032547
C 1.479715 1.737150 2.386257
C 0.858668 2.522204 2.475082
C 2.165978 1.900260 1.964618
C 2.562390 2.286189 2.001978
C 2.518224 1.949232 2.797788
C 1.926468 2.378376 2.424316
C 2.966771 1.882187 1.932484
C 3.524906 2.521707 1.871873
C 3.541619 1.852843 2.522921
C 2.862725 2.376424 2.514480
C 4.049574 2.087042 1.948477
C 4.362664 2.515520 2.032175
C 4.611695 1.952255 2.646389
C 3.909909 2.332282 2.442023
C 4.922583 1.823210 1.808183
C 5.433138 2.409698 1.987327
C 5.613097 1.965566 2.405810
C 5.047265 2.309772 2.378388
C 6.181950 2.080460 1.991684
C 6.384959 2.589526 2.056048
C 6.490413 2.107646 2.528259
C 6.062238 2.343539 2.504569
C 6.892980 1.834355 2.233162
C 7.495629 2.435597 2.072280
C 7.437123 1.979919 2.544088
C 7.013390 2.589504 2.749722
C 0.076669 2.787882 2.158334
C 0.616677 3.433786 2.180196
C 0.385292 3.053443 2.377653
C 0.000219 3.389270 2.422925
C 0.885638 3.019188 2.224944
C 1.407303 3.444725 2.018173
C 1.569467 2.908642 2.479641
C 0.815134 3.553736 2.654904
C 2.042426 3.000485 1.819140
C 2.565360 3.339654 1.905176
C 2.570180 2.938205 2.657101
C 1.769999 3.517071 2.582625
C 2.991750 3.231206 2.077325
C 3.628994 3.541071 2.083266
C 3.386628 3.129457 2.567678
C 3.052807 3.538203 2.544830
C 4.185149 2.966769 1.891760
C 4.495901 3.595280 1.890918
C 4.446875 3.054213 2.340518
C 4.095447 3.455584 2.249695
C 4.750047 2.945278 1.934160
C 5.548414 3.281533 2.049256
C 5.592196 2.649629 2.563700
C 4.903636 3.391956 2.533413
C 6.021550 2.918329 2.164814
C 6.516994 3.514261 2.161426
C 6.445527 3.102570 2.616418
C 5.959379 3.355514 2.290034
C 7.085405 3.179654 1.927886
C 7.495819 3.446072 1.735012
C 7.394424 3.001978 2.394962
C 7.085597 3.509750 2.559286
C 0.045176 3.962007 2.157837
C 0.503893 4.329789 2.075057
C 0.527731 3.882593 2.246100
C 0.197070 4.331110 2.547266
C 0.962449 3.913349 2.073374
C 1.510826 4.381047 2.158717
C 1.639185 3.917323 2.346482
C 1.220174 4.509587 2.599017
C 1.901701 3.946841 1.892145
C 2.599291 4.359855 1.865423
C 2.521596 4.263849 2.350280
C 2.130942 4.557403 2.499610
C 3.028671 3.968074 2.207437
C 3.439526 4.512673 2.213009
C 3.623290 4.102693 2.534015
C 2.921338 4.279512 2.594026
C 4.057227 4.132705 1.838350
C 4.456052 4.387482 1.919086
C 4.406923 3.807264 2.433923
C 3.963403 4.471284 2.535403
C 5.122994 3.841289 1.952411
C 5.569022 4.598593 2.024940
C 5.333857 4.125459 2.690901
C 4.937505 4.552405 2.378838
C 6.005231 3.908818 1.922944
C 6.417631 4.284577 1.834818
C 6.509774 3.896794 2.531501
C 6.066577 4.488222 2.710315
C 7.042837 4.028626 1.974969
C 7.302794 4.546004 2.078972
C 7.486963 3.776293 2.377892
C 6.743499 4.574594 2.573986
C 0.045572 4.949534 1.761320
C 0.426227 5.357967 2.136623
C 0.401303 5.142269 2.611064
C 0.101426 5.745717 2.607669
C 1.013411 5.016087 1.987153
C 1.439072 5.526733 1.855037
C 1.506229 5.039569 2.326234
C 1.064065 5.479015 2.396022
C 1.994209 5.115631 2.170213
C 2.618029 5.556905 1.987923
C 2.377504 4.988066 2.571789
C 1.855257 5.438345 2.537312
C 3.042945 4.986666 1.912076
C 3.427948 5.750825 2.013320
C 3.471598 5.042165 2.579978
C 3.050629 5.299487 2.550300
C 3.835136 4.968419 2.190832
C 4.477477 5.520461 2.150749
C 4.361431 5.096094 2.553585
C 3.971505 5.433486 2.380528
C 5.160751 4.952650 2.190154
C 5.657592 5.375249 1.837545
C 5.450996 5.064340 2.598685
C 4.868234 5.456952 2.557722
C 6.131323 4.767820 2.022939
C 6.438823 5.358184 2.140122
C 6.501131 4.968264 2.746101
C 6.145942 5.385443 2.556061
C 6.756022 4.830909 2.162789
C 7.339615 5.267423 2.128549
C 7.338551 4.758864 2.720064
C 7.201497 5.569223 2.477363
C 0.199679 5.922498 2.006771
C 0.304229 6.403719 2.057247
C 0.420136 6.135835 2.439057
C 0.129726 6.504573 2.604336
C 1.058287 5.996285 2.158970
C 1.393960 6.538452 1.982188
C 1.525429 6.042686 2.417978
C 0.961593 6.577786 2.211240
C 2.147365 6.160264 1.977821
C 2.594363 6.541071 2.137266
C 2.557213 5.976501 2.420388
C 2.021942 6.573317 2.301958
C 2.985145 6.150030 2.180911
C 3.438624 6.578205 2.180849
C 3.611963 6.099838 2.361170
C 2.810311 6.386147 2.566846
C 3.954679 5.850325 2.106836
C 4.505670 6.484163 2.123529
C 4.521239 5.978504 2.534997
C 3.792199 6.446841 2.604893
C 5.121945 5.868161 1.812009
C 5.385314 6.499399 2.078761
C 5.345557 5.990694 2.665819
C 4.988936 6.404097 2.428476
C 5.880365 5.902655 1.899334
C 6.495899 6.379281 2.178074
C 6.715759 5.814958 2.492831
C 5.966550 6.490182 2.738816
C 6.980547 5.927750 2.056259
C 7.315614 6.426561 2.005603
C 7.441908 6.135167 2.398406
C 6.916352 6.525307 2.374115
C 0.061590 7.117526 1.763901
C 0.490183 7.350741 1.813306
C 0.534992 7.091034 2.723541
C 0.216762 7.247153 2.423198
C 1.017087 7.001155 2.241749
C 1.684759 7.391153 2.071418
C 1.438488 6.890990 2.411787
C 1.055821 7.489573 2.658100
C 2.072006 6.935911 1.788288
C 2.455543 7.379865 2.025181
C 2.644228 7.113074 2.448707
C 2.030336 7.455082 2.494203
C 2.814471 6.932642 1.941337
C 3.404782 7.316323 2.181029
C 3.663699 7.158814 2.553844
C 3.241900 7.405188 2.612338
C 3.819062 7.092085 1.956691
C 4.385628 7.428878 1.894198
C 4.407678 6.908204 2.460583
C 3.976766 7.457428 2.337920
C 4.920340 6.902831 1.874280
C 5.448555 7.327066 2.177747
C 5.415213 7.043781 2.571033
C 4.874977 7.245760 2.374958
C 5.957778 6.885252 2.062386
C 6.241449 7.368243 1.984611
C 6.416851 6.918299 2.566066
C 5.748301 7.471244 2.528103
C 6.946298 6.948039 2.050149
C 7.415920 7.353104 1.880818
C 7.472199 7.144237 2.532552
C 6.926247 7.295613 2.674434
C 0.145465 0.009203 2.972008
C 0.405219 0.456104 2.847221
C 0.697387 0.118307 3.627929
C 0.187202 0.535091 3.447503
C 1.077927 0.234414 2.927461
C 1.435565 0.685065 2.879861
C 1.338104 0.198185 3.377697
C 0.894728 0.499144 3.347093
C 1.991124 0.081762 2.891231
C 2.548836 0.425844 2.787690
C 2.358331 0.026905 3.385235
C 2.132653 0.579644 3.549816
C 3.141172 0.131165 2.843649
C 3.432888 0.607538 2.806944
C 3.484549 0.082033 3.509870
C 3.107373 0.482669 3.609983
C 3.861237 0.008275 2.757090
C 4.378027 0.568615 3.141917
C 4.396279 0.110822 3.183596
C 3.918071 0.486267 3.206989
C 4.914559 0.005794 3.100976
C 5.408936 0.520562 3.001672
C 5.494145 0.161320 3.412531
C 4.995226 0.678108 3.399297
C 5.901783 0.002769 3.071291
C 6.570044 0.332976 2.960324
C 6.735509 0.039280 3.478122
C 5.816234 0.665146 3.567230
C 7.117534 0.172433 2.760679
C 7.453602 0.355131 2.996974
C 7.383360 0.011308 3.593677
C 7.118382 0.423823 3.518920
C 0.002928 1.175574 3.264115
C 0.394077 1.302102 2.874653
C 0.428713 1.043503 3.397665
C 0.156144 1.637412 3.465548
C 1.047612 0.970334 2.816187
C 1.635306 1.461243 2.849589
C 1.706505 0.971603 3.451224
C 1.171350 1.453022 3.590763
C 2.138895 0.886647 2.900781
C 2.536432 1.339197 2.968848
C 2.601574 0.959955 3.481961
C 2.188936 1.454598 3.335665
C 2.966866 0.781586 3.163194
C 3.576855 1.410434 2.892512
C 3.428367 0.944706 3.611407
C 3.017866 1.573783 3.515592
C 4.030674 1.051386 3.226477
C 4.497594 1.551565 2.912347
C 4.726657 1.092799 3.485936
C 3.762333 1.382657 3.419467
C 5.126596 1.287959 3.124669
C 5.567845 1.365691 2.792937
C 5.534338 1.178371 3.494034
C 5.008374 1.423080 3.684924
C 5.888500 0.881334 2.997825
C 6.718228 1.486624 3.010888
C 6.621210 0.855461 3.489149
C 6.236312 1.422254 3.599646
C 6.998528 1.054322 2.719550
C 7.494501 1.228602 2.987521
C 7.428116 0.925379 3.636263
C 6.999623 1.599122 3.523840
C 0.014686 2.178982 3.141433
C 0.671846 2.630538 3.034727
C 0.489775 2.050328 3.354079
C 0.032195 2.730260 3.585398
C 0.813430 1.968202 2.994078
C 1.675078 2.588703 3.177822
C 1.665227 2.049704 3.406789
C 0.876959 2.363971 3.458240
C 2.030418 1.862988 2.971065
C 2.581010 2.561274 3.022361
C 2.544079 2.062184 3.388254
C 2.129638 2.636718 3.410554
C 3.024173 1.854332 3.108779
C 3.484633 2.603400 2.971338
C 3.378937 1.941766 3.633338
C 3.008450 2.590907 3.710846
C 3.841404 2.126736 2.922573
C 4.209326 2.495870 3.118576
C 4.705036 2.213531 3.465303
C 3.989047 2.553931 3.745471
C 5.147296 1.947266 2.941387
C 5.611597 2.424011 3.158584
C 5.312349 1.934497 3.508469
C 5.124154 2.507614 3.315082
C 6.057918 1.984023 3.133328
C 6.202748 2.492586 3.056983
C 6.616001 2.057626 3.391805
C 5.912403 2.371611 3.727109
C 6.871553 2.152448 2.836617
C 7.425685 2.411473 2.775884
C 7.491116 2.051670 3.698200
C 7.002296 2.551308 3.493372
C 0.035505 3.103257 3.140620
C 0.551350 3.623458 3.236670
C 0.425288 3.226104 3.465606
C 0.117395 3.610735 3.632890
C 0.849698 3.119832 3.032946
C 1.802798 3.392675 2.972422
C 1.519869 3.031090 3.220460
C 0.972113 3.382290 3.571081
C 2.039825 2.945328 2.786796
C 2.413754 3.575245 2.838354
C 2.385548 3.050793 3.553556
C 1.928507 3.359969 3.428411
C 3.053476 3.137200 2.937245
C 3.591729 3.258894 3.096683
C 3.589056 2.905022 3.472316
C 2.894513 3.469090 3.653949
C 4.139480 2.966910 3.185877
C 4.549466 3.511377 2.918399
C 4.588659 3.041671 3.585252
C 3.908511 3.407313 3.554481
C 5.009793 3.027265 3.103635
C 5.535412 3.667613 3.077980
C 5.597470 2.911508 3.411173
C 5.065072 3.496016 3.291509
C 5.872377 2.840170 2.958782
C 6.353543 3.676404 2.912349
C 6.312714 2.925210 3.667511
C 6.103859 3.559393 3.430361
C 7.003418 3.179759 3.093217
C 7.485444 3.410384 3.105714
C 7.398894 2.745107 3.294911
C 6.938528 3.515381 3.446578
C 0.049975 3.906137 2.856908
C 0.563872 4.403032 2.915330
C 0.735903 3.881296 3.609150
C 0.000195 4.700998 3.608590
C 1.212826 4.052256 3.059140
C 1.658731 4.371286 2.880810
C 1.629036 4.000198 3.575959
C 0.993602 4.328392 3.575366
C 2.002850 3.978115 2.795530
C 2.513348 4.427697 2.818423
C 2.523541 3.878293 3.537723
C 1.978830 4.276637 3.397744
C 2.959651 4.093228 3.025605
C 3.353630 4.447595 2.969515
C 3.660059 4.188042 3.388647
C 3.096647 4.482035 3.427586
C 4.012203 3.969311 3.059355
C 4.335783 4.640605 2.956883
C 4.390782 3.983541 3.575796
C 4.008781 4.528474 3.398409
C 4.817262 3.978378 2.925669
C 5.336998 4.622545 2.914923
C 5.697371 3.828091 3.549600
C 5.058291 4.295459 3.511979
C 5.805884 4.199388 3.123609
C 6.467701 4.333612 2.918190
C 6.528292 3.839412 3.357141
C 6.114270 4.317718 3.457779
C 6.962472 3.950052 3.024219
C 7.469833 4.346613 2.682646
C 7.353636 4.064571 3.373980
C 6.872660 4.446795 3.720336
C 0.107249 4.920910 3.199374
C 0.528377 5.634821 2.916333
C 0.525579 4.967579 3.532492
C 0.093543 5.654469 3.636540
C 0.775208 5.055748 3.006454
C 1.592564 5.623990 3.042479
C 1.508276 5.152947 3.392267
C 0.956907 5.339773 3.352720
C 1.766060 4.997642 3.005202
C 2.611300 5.640978 3.092337
C 2.697282 5.104070 3.656443
C 1.988441 5.532543 3.434608
C 3.102988 4.889801 2.855599
C 3.422969 5.651402 3.206163
C 3.258340 4.964697 3.402700
C 3.106427 5.677683 3.660629
C 3.831322 5.071804 3.009928
C 4.464522 5.370704 3.069380
C 4.552208 5.231741 3.636694
C 3.847541 5.421700 3.353310
C 4.970296 5.178201 2.959921
C 5.662334 5.505672 2.821596
C 5.694027 5.018877 3.396009
C 5.009363 5.371626 3.603804
C 5.902891 5.098173 2.888386
C 6.337913 5.611128 2.984564
C 6.454057 5.081720 3.513715
C 6.035171 5.407653 3.511324
C 6.954868 5.077292 3.135290
C 7.432386 5.431915 2.920599
C 7.266319 4.843850 3.447948
C 6.930879 5.400039 3.512220
C 0.099831 5.988329 3.089630
C 0.501176 6.262268 3.009547
C 0.562350 5.912623 3.629169
C 0.110237 6.476102 3.589583
C 1.039615 5.777134 3.016815
C 1.726703 6.630813 3.112927
C 1.604571 5.973657 3.728747
C 1.105094 6.445227 3.630912
C 1.989384 5.945818 3.179142
C 2.405417 6.307842 2.810993
C 2.308437 6.132455 3.535019
C 2.168435 6.533277 3.730064
C 2.848725 6.103048 3.024632
C 3.352918 6.547492 2.995726
C 3.737987 5.893118 3.552311
C 3.006349 6.736307 3.487338
C 4.054718 6.090414 3.143570
C 4.550336 6.302174 2.901799
C 4.343786 6.101285 3.553455
C 4.144142 6.533178 3.555569
C 4.957496 6.036323 3.145243
C 5.610981 6.452242 3.172452
C 5.615014 6.034423 3.481061
C 5.144419 6.429506 3.345090
C 5.801092 6.038816 3.013134
C 6.686920 6.334853 3.002947
C 6.395535 5.950435 3.602461
C 6.226947 6.382803 3.330094
C 6.943852 5.804582 2.992363
C 7.343198 6.446032 2.850011
C 7.447695 6.029478 3.221149
C 6.837560 6.639289 3.506792
C 0.024076 6.846377 3.019141
C 0.209894 7.333310 2.947656
C 0.550280 7.108078 3.283819
C 0.163196 7.363115 3.439982
C 0.918187 6.848695 2.796891
C 1.454465 7.377698 3.033623
C 1.476460 6.772651 3.519336
C 0.996264 7.336664 3.380704
C 2.037142 6.856100 2.769773
C 2.742516 7.346999 2.956350
C 2.578791 6.914025 3.347660
C 2.035813 7.376348 3.607056
C 2.881190 6.792510 2.899385
C 3.671991 7.486383 3.010372
C 3.482299 6.957165 3.607154
C 3.138667 7.360862 3.425630
C 3.980762 7.085985 3.059596
C 4.461513 7.343365 3.007595
C 4.450588 6.931360 3.511350
C 4.221516 7.488243 3.689405
C 4.983811 6.990583 2.828469
C 5.346449 7.482513 2.946214
C 5.535708 6.893766 3.331076
C 4.824321 7.465629 3.320179
C 5.933819 7.145163 2.993240
C 6.424466 7.313557 3.066259
C 6.538658 7.086405 3.576905
C 6.020532 7.419799 3.432827
C 6.916902 6.908703 2.977998
C 7.427079 7.432383 2.983461
C 7.311619 6.892374 3.315520
C 6.850303 7.472189 3.534192
C 0.056989 0.059186 4.220719
C 0.640646 0.379005 4.164314
C 0.521649 0.076105 4.658817
C 0.205711 0.468277 4.494051
C 1.123999 0.092084 3.888511
C 1.716960 0.381236 3.836443
C 1.303307 0.075425 4.323903
C 0.933083 0.595812 4.451901
C 2.223572 0.134741 4.061302
C 2.594695 0.486979 3.866037
C 2.519515 0.046370 4.590207
C 2.000148 0.740629 4.281977
C 2.848272 0.066886 3.807789
C 3.626727 0.402095 3.979683
C 3.540224 0.044394 4.379225
C 2.926470 0.482808 4.260652
C 4.120878 0.063744 3.827635
C 4.646360 0.545904 4.190051
C 4.233902 0.015916 4.524680
C 4.033989 0.449052 4.572686
C 5.087769 0.102119 3.880755
C 5.683674 0.732042 4.018642
C 5.452534 0.326706 4.379851
C 5.149484 0.591379 4.640431
C 5.788413 0.049424 3.899390
C 6.563159 0.354242 3.817703
C 6.220317 0.050844 4.363228
C 5.961572 0.600367 4.603117
C 6.901670 0.157919 4.093300
C 7.491248 0.419954 3.843420
C 7.316048 0.194910 4.440796
C 6.975845 0.574256 4.535326
C 0.046840 0.832913 3.840792
C 0.417574 1.522730 3.927816
C 0.459551 1.110088 4.520331
C 0.057778 1.526936 4.490908
C 0.964534 1.123394 3.917273
C 1.737859 1.492404 4.217466
C 1.227116 1.055414 4.472211
C 1.208166 1.497885 4.420914
C 2.029615 1.267561 3.921352
C 2.668791 1.596854 3.943377
C 2.486495 0.991742 4.520382
C 2.110665 1.435710 4.526919
C 2.935421 1.005234 4.135534
C 3.542535 1.613718 3.982312
C 3.384947 0.834942 4.638556
C 3.074232 1.271400 4.568435
C 3.965118 0.765017 3.950208
C 4.588818 1.386514 4.080069
C 4.628356 1.005869 4.470625
C 4.201054 1.620627 4.435650
C 4.873397 0.982531 3.910117
C 5.319583 1.468179 4.139921
C 5.588601 0.869471 4.731122
C 4.822528 1.525326 4.544564
C 6.091334 0.946275 3.867550
C 6.600849 1.370853 4.256848
C 6.555712 0.860956 4.638181
C 5.884520 1.595879 4.374253
C 6.996542 0.902759 3.991385
C 7.476834 1.541313 4.144749
C 7.420124 0.881217 4.627266
C 7.117256 1.579638 4.572560
C 0.002857 1.796576 3.891777
C 0.463959 2.347254 4.166859
C 0.590263 1.879553 4.325980
C 0.115892 2.607014 4.387429
C 0.936549 2.084648 3.946039
C 1.408211 2.654999 3.767120
C 1.541790 1.962810 4.271130
C 1.089566 2.478104 4.491641
C 2.173406 2.095415 3.924655
C 2.231357 2.727394 3.902143
C 2.593067 1.996627 4.507535
C 2.253063 2.555977 4.602944
C 2.878901 2.247204 4.049990
C 3.543733 2.355428 3.935494
C 3.392706 2.158276 4.513448
C 3.165194 2.688765 4.661999
C 3.979034 1.831073 3.856753
C 4.733603 2.423366 3.970498
C 4.612194 2.028131 4.464846
C 4.185963 2.562001 4.375238
C 5.107126 2.135701 4.220132
C 5.573659 2.299721 4.121432
C 5.451056 1.699117 4.569966
C 5.186468 2.506372 4.532386
C 6.077167 1.921583 4.016067
C 6.566625 2.648926 3.957815
C 6.380152 1.920474 4.613625
C 5.980078 2.290578 4.517860
C 7.187819 1.956128 4.144302
C 7.376474 2.397910 4.243866
C 7.459558 2.051802 4.626654
C 6.847144 2.501485 4.507441
C 0.263502 3.082794 3.905535
C 0.562829 3.470372 4.075044
C 0.428654 3.009462 4.442289
C 0.149296 3.728675 4.436772
C 1.006567 2.908621 4.150076
C 1.336308 3.316811 4.030271
C 1.542610 2.916104 4.362170
C 0.967818 3.457980 4.361371
C 1.955659 3.132817 4.073467
C 2.415017 3.779013 4.005429
C 2.590780 2.866398 4.461818
C 1.937798 3.737224 4.468140
C 3.172527 3.158424 3.918254
C 3.564374 3.548814 4.175699
C 3.701926 3.147633 4.546791
C 2.893947 3.570653 4.259955
C 4.224258 3.035874 4.044735
C 4.535133 3.530769 4.108516
C 4.466972 3.019603 4.515608
C 3.987209 3.528794 4.622953
C 4.960132 2.922446 4.176115
C 5.451964 3.510920 3.970553
C 5.648344 2.892272 4.592403
C 5.133532 3.447047 4.586729
C 6.099442 3.129433 4.140634
C 6.366613 3.397865 3.808846
C 6.374868 2.968368 4.702269
C 5.888849 3.451734 4.414345
C 7.043737 2.932772 3.852108
C 7.277377 3.550534 3.864802
C 7.475094 2.890971 4.300653
C 7.053356 3.276251 4.628337
C 0.140641 4.283191 4.041419
C 0.553890 4.512987 3.794233
C 0.545557 4.032966 4.272517
C 0.136067 4.283523 4.598064
C 1.113539 3.795638 4.002858
C 1.311886 4.486607 3.975899
C 1.237874 4.028787 4.525575
C 1.155164 4.569942 4.617740
C 1.974493 4.101688 4.081259
C 2.466460 4.386899 3.929482
C 2.595358 3.946174 4.410536
C 1.888150 4.586442 4.690193
C 2.963875 4.042205 4.069934
C 3.482122 4.423917 3.823056
C 3.514023 3.987103 4.426630
C 2.905236 4.536489 4.515469
C 4.001317 4.164503 3.970509
C 4.457831 4.388665 3.874773
C 4.560386 4.250628 4.500272
C 3.978186 4.390688 4.433695
C 5.248474 3.951463 3.984165
C 5.486714 4.374630 4.269547
C 5.566491 3.942929 4.461158
C 4.982780 4.673168 4.536728
C 5.921522 3.890802 4.021339
C 6.424667 4.625977 4.173957
C 6.398895 4.043646 4.673862
C 6.034867 4.751813 4.508306
C 6.764303 4.000259 4.025786
C 7.369381 4.448798 4.007639
C 7.228853 4.004903 4.470422
C 6.909177 4.534212 4.553298
C 0.023230 5.253117 3.997069
C 0.435713 5.593522 3.999931
C 0.615210 5.018427 4.581397
C 0.202603 5.381111 4.591032
C 0.938606 4.783564 4.091521
C 1.435900 5.411876 3.828801
C 1.369490 5.025250 4.422776
C 1.009736 5.400913 4.389871
C 2.019047 5.001536 3.837476
C 2.288296 5.358595 4.113135
C 2.565950 5.002301 4.333541
C 1.822500 5.565172 4.698431
C 2.923519 4.816038 3.971250
C 3.468284 5.501657 4.027797
C 3.355333 4.882014 4.577343
C 2.902749 5.536706 4.264701
C 3.895378 4.834764 3.906867
C 4.519957 5.460161 4.076690
C 4.428639 4.957345 4.497380
C 4.063908 5.338786 4.367724
C 4.999530 4.772110 3.856237
C 5.344231 5.319823 4.055035
C 5.492269 4.932017 4.274124
C 4.825212 5.455718 4.513651
C 5.920408 5.013465 3.956072
C 6.304015 5.452944 3.955465
C 6.461772 5.043634 4.477304
C 5.947640 5.562352 4.644329
C 6.948227 5.046412 4.110920
C 7.470973 5.555233 4.043131
C 7.308041 4.889803 4.397568
C 6.846242 5.572433 4.499292
C 0.188734 5.935415 4.222758
C 0.318290 6.457478 4.025393
C 0.654851 6.140577 4.365046
C 0.157879 6.693103 4.644143
C 0.913753 5.889834 4.084564
C 1.383509 6.545734 4.160595
C 1.549366 6.026986 4.401499
C 0.880405 6.645172 4.567357
C 2.166213 5.840471 4.166872
C 2.636549 6.513536 3.930374
C 2.602841 5.911313 4.413265
C 2.107258 6.616929 4.637498
C 3.082832 6.014991 4.269104
C 3.581722 6.299035 3.947624
C 3.530803 6.097065 4.565213
C 2.837099 6.354809 4.342467
C 4.152766 5.872444 4.153334
C 4.679218 6.547026 3.904343
C 4.468645 6.110545 4.448610
C 3.999646 6.667031 4.428185
C 4.958748 5.870784 4.261735
C 5.330416 6.419493 3.862384
C 5.734897 5.984753 4.481318
C 4.863955 6.565287 4.429411
C 5.832130 5.856820 3.980136
C 6.296194 6.517986 4.013026
C 6.380689 5.869718 4.430041
C 6.007780 6.379743 4.382486
C 6.993653 5.763122 3.974972
C 7.439741 6.845286 4.078866
C 7.441629 5.841321 4.607104
C 6.944093 6.707336 4.346393
C 0.096975 6.928307 3.694897
C 0.451978 7.484299 3.814829
C 0.414599 7.065754 4.206390
C 0.108640 7.491831 4.563365
C 0.891337 6.862260 4.076282
C 1.621859 7.186298 4.164378
C 1.288601 6.978739 4.442604
C 1.236316 7.446216 4.529294
C 1.971685 6.950663 3.798547
C 2.407149 7.277741 3.943634
C 2.423953 7.151184 4.669641
C 2.078822 7.327075 4.415811
C 2.980993 6.875418 4.002806
C 3.630842 7.445877 3.889414
C 3.410519 7.124617 4.624616
C 2.942159 7.431829 4.492643
C 3.992167 7.113636 3.753576
C 4.680788 7.444025 4.214136
C 4.411602 7.184013 4.480913
C 3.971886 7.450016 4.640782
C 5.142806 6.921008 3.907355
C 5.480545 7.297123 4.022070
C 5.503634 7.194485 4.533640
C 5.025276 7.408990 4.563377
C 5.841659 6.878367 3.795350
C 6.542098 7.377661 3.970256
C 6.401745 6.878793 4.565063
C 6.108580 7.468744 4.304512
C 7.125981 7.028236 3.826401
C 7.485422 7.462374 4.093064
C 7.431132 6.839797 4.543571
C 7.188617 7.457481 4.583007
C 0.209161 0.200657 5.179001
C 0.523061 0.685162 5.053185
C 0.556890 0.237997 5.726055
C 0.151719 0.674554 5.622890
C 0.988449 0.027707 5.040981
C 1.595742 0.503629 4.995478
C 1.579988 0.337937 5.458089
C 1.178265 0.531627 5.610411
C 1.853770 0.127411 4.734918
C 2.525982 0.540736 4.775495
C 2.605291 0.041713 5.226580
C 2.062062 0.353179 5.391728
C 3.232396 0.240396 4.931756
C 3.595310 0.420373 4.714933
C 3.339539 0.047570 5.401082
C 2.833010 0.458814 5.434036
C 3.920863 0.222887 4.976001
C 4.389925 0.527241 4.942325
C 4.585381 0.181617 5.438459
C 4.043006 0.577137 5.318675
C 5.016649 0.002206 5.307162
C 5.447831 0.368640 4.920140
C 5.362980 0.231588 5.650955
C 5.142724 0.655478 5.537108
C 5.886119 0.177298 4.920643
C 6.555717 0.323358 4.844717
C 6.628730 0.117635 5.680917
C 5.873531 0.419750 5.358217
C 7.187751 0.014762 5.132821
C 7.482331 0.471046 4.958529
C 7.359978 0.191517 5.653997
C 7.017684 0.421939 5.331388
C 0.021360 0.821603 5.012424
C 0.376042 1.476885 5.072101
C 0.345763 1.083961 5.404495
C 0.293171 1.589853 5.518235
C 1.062831 0.900585 4.899645
C 1.555230 1.467495 5.124642
C 1.344829 0.959699 5.414553
C 0.805280 1.402712 5.322402
C 2.072204 0.796336 5.052992
C 2.512169 1.458592 4.823649
C 2.650345 1.007624 5.405408
C 2.034541 1.560427 5.692690
C 2.937604 0.812787 4.800746
C 3.367214 1.345773 4.988386
C 3.630085 1.145070 5.504670
C 2.985390 1.452056 5.608791
C 3.720324 0.924169 5.000804
C 4.422432 1.504139 4.894374
C 4.358436 0.827193 5.540903
C 4.080039 1.361942 5.469970
C 5.021884 1.037971 5.043716
C 5.537659 1.688972 5.013482
C 5.445123 1.034708 5.318596
C 5.147724 1.491926 5.372790
C 5.877841 1.045795 5.078028
C 6.605608 1.634297 4.911076
C 6.548871 1.087844 5.320136
C 5.783453 1.420716 5.377064
C 6.926290 1.161769 5.011220
C 7.460896 1.536662 4.914078
C 7.406874 0.947670 5.515424
C 6.974551 1.696547 5.347537
C 0.062353 1.950705 4.810741
C 0.326903 2.495540 4.890439
C 0.388729 1.960931 5.315258
C 0.019163 2.605269 5.564017
C 1.094825 1.841389 5.008537
C 1.640779 2.472731 4.987020
C 1.291043 1.841517 5.473459
C 0.995115 2.529701 5.462139
C 1.972033 1.984903 5.169690
C 2.262859 2.630203 5.083720
C 2.331688 1.848242 5.464815
C 1.966657 2.570360 5.520273
C 2.788000 2.058216 5.127659
C 3.565086 2.291791 4.976310
C 3.403326 1.802567 5.446631
C 3.129008 2.393062 5.259339
C 4.083158 1.929342 4.873192
C 4.344193 2.450565 5.153621
C 4.526306 1.962490 5.228105
C 3.898692 2.313050 5.472826
C 5.080992 1.843915 4.838482
C 5.615587 2.298664 4.853851
C 5.653835 1.848074 5.508669
C 5.044300 2.657667 5.417760
C 5.951849 2.058783 5.103542
C 6.600225 2.614865 5.062664
C 6.479997 1.840784 5.314749
C 6.119282 2.561279 5.442973
C 6.996874 2.029697 4.786928
C 7.372009 2.266195 5.058818
C 7.430764 1.741491 5.429939
C 6.969777 2.311288 5.527104
C 0.041404 3.128083 4.883307
C 0.408067 3.555885 5.033817
C 0.477983 2.930822 5.672770
C 0.024758 3.476821 5.332754
C 0.967611 2.871533 5.093227
C 1.566987 3.394652 5.072738
C 1.536897 2.930331 5.306598
C 0.867286 3.431343 5.494436
C 1.957890 3.080105 5.241959
C 2.476306 3.655221 4.945604
C 2.387467 3.032837 5.453105
C 1.736622 3.524347 5.609510
C 3.075845 3.118794 5.135411
C 3.521576 3.323131 5.017214
C 3.256108 2.903871 5.506071
C 3.049774 3.529951 5.416018
C 4.013427 3.183017 5.013683
C 4.447418 3.644571 5.005442
C 4.590875 2.992437 5.603592
C 4.075420 3.563443 5.532531
C 5.127903 3.160694 5.004917
C 5.562270 3.218364 4.956200
C 5.539278 2.829328 5.369537
C 5.086208 3.449964 5.444811
C 5.984293 2.990731 5.077028
C 6.336435 3.472886 4.994545
C 6.487257 2.898233 5.525741
C 5.917500 3.574722 5.265735
C 6.844969 2.903802 4.814377
C 7.197139 3.607464 4.914044
C 7.474917 2.929036 5.477595
C 7.047088 3.645692 5.622284
C 0.093720 3.940283 4.953777
C 0.513537 4.676548 5.015963
C 0.545424 3.830361 5.416830
C 0.241996 4.649638 5.423204
C 0.818827 3.968334 4.780500
C 1.677726 4.394739 5.056913
C 1.649421 3.971564 5.593301
C 0.786877 4.414437 5.640025
C 1.960794 3.935669 5.140119
C 2.507427 4.459025 4.961961
C 2.381814 3.808306 5.433095
C 2.014806 4.323028 5.467124
C 3.134089 4.105932 5.024829
C 3.695285 4.608578 4.918122
C 3.455405 3.858566 5.549829
C 2.939818 4.604764 5.723341
C 3.874059 4.018167 4.826323
C 4.558085 4.542389 4.966592
C 4.421009 3.915201 5.626631
C 4.035045 4.387244 5.291980
C 4.855511 4.078284 5.030866
C 5.449462 4.611496 4.924246
C 5.697075 3.915897 5.621899
C 5.015997 4.489108 5.636992
C 5.855373 4.040978 4.865405
C 6.586321 4.521263 4.964725
C 6.567811 3.880151 5.286129
C 5.992580 4.465654 5.429002
C 7.178840 4.111220 5.070651
C 7.243540 4.526660 4.923135
C 7.312811 4.156507 5.582817
C 7.205358 4.648012 5.359909
C 0.068074 4.900787 5.007807
C 0.651533 5.506171 4.793755
C 0.591704 4.979270 5.777883
C 0.009705 5.655389 5.526768
C 0.856731 5.147834 4.994445
C 1.229436 5.495684 5.062211
C 1.375918 5.139944 5.562851
C 0.888512 5.339071 5.613214
C 1.957746 5.106361 5.153701
C 2.450001 5.224657 5.028065
C 2.476364 5.105228 5.521091
C 1.819237 5.620997 5.512012
C 3.012716 4.952851 5.011066
C 3.345905 5.637304 4.809033
C 3.446790 4.869063 5.653395
C 2.856998 5.468759 5.384030
C 4.009587 5.054756 4.872459
C 4.644634 5.617087 4.938564
C 4.673581 4.929603 5.357291
C 3.956140 5.695793 5.534590
C 4.881073 5.094458 4.853639
C 5.496553 5.558455 5.107381
C 5.548098 4.994107 5.470766
C 5.104593 5.269892 5.407507
C 6.192371 5.052627 5.045705
C 6.512796 5.372535 4.841642
C 6.430017 5.189719 5.586323
C 6.016285 5.553125 5.420609
C 7.104665 5.170632 4.847291
C 7.264543 5.327710 5.194309
C 7.443907 5.081510 5.608025
C 6.885689 5.287210 5.587929
C 0.114816 6.107411 4.852819
C 0.479232 6.376550 5.175432
C 0.367290 5.966541 5.659785
C 0.130075 6.357086 5.515632
C 0.968920 6.239828 5.130959
C 1.370868 6.332622 4.962414
C 1.404529 5.940659 5.453770
C 0.958685 6.654883 5.407662
C 2.107399 6.109205 4.759943
C 2.512027 6.333899 5.207342
C 2.573811 5.917239 5.485752
C 2.086485 6.503961 5.692740
C 2.853511 5.933425 4.863462
C 3.379744 6.545118 4.749395
C 3.542813 5.974005 5.448367
C 2.993645 6.445193 5.337223
C 4.029588 6.130375 4.889821
C 4.377736 6.513662 5.152178
C 4.557143 5.910744 5.313725
C 4.196873 6.539402 5.595938
C 4.983615 5.909377 5.101398
C 5.343392 6.639937 4.929658
C 5.600431 6.028684 5.516426
C 4.838774 6.515749 5.361199
C 5.682624 6.009249 4.946166
C 6.270058 6.448737 4.865783
C 6.625565 6.127658 5.700882
C 5.943457 6.610634 5.211335
C 7.094875 6.015111 4.992871
C 7.389198 6.361165 5.209430
C 7.439410 5.972813 5.528214
C 6.871771 6.513969 5.271134
C 0.002817 6.901683 5.141221
C 0.644067 7.330930 4.923493
C 0.514124 6.792334 5.535438
C 0.162853 7.479511 5.200773
C 1.176982 6.828120 4.872850
C 1.495560 7.348686 4.959297
C 1.416911 6.944939 5.373955
C 0.996475 7.382960 5.591323
C 2.023472 7.077729 5.077409
C 2.697208 7.378173 4.934032
C 2.315550 7.042456 5.543060
C 1.954419 7.473073 5.378281
C 2.876340 6.818701 4.972089
C 3.248179 7.474765 4.898911
C 3.421220 6.930933 5.447057
C 3.104637 7.364775 5.639437
C 4.056967 6.954674 4.830586
C 4.464651 7.341469 4.948086
C 4.503159 6.947474 5.518280
C 4.065693 7.478872 5.542511
C 4.881492 6.981538 5.111913
C 5.242935 7.406442 5.014680
C 5.447890 7.035017 5.454686
C 4.936136 7.362860 5.431038
C 6.135292 7.183030 5.081681
C 6.410735 7.457661 4.769790
C 6.504489 7.057306 5.615206
C 5.848068 7.250496 5.583900
C 7.083149 7.001170 4.830119
C 7.457270 7.433274 5.027477
C 7.452471 6.874723 5.355665
C 6.927523 7.470920 5.366626
C 0.157235 0.068174 5.761659
C 0.345481 0.593962 6.054202
C 0.376305 0.047773 6.468629
C 0.012199 0.526135 6.603061
C 1.017786 0.028412 6.003518
C 1.362252 0.499891 6.179968
C 1.720862 0.020096 6.679596
C 1.051236 0.764320 6.600446
C 2.132722 0.175663 5.846448
C 2.682293 0.383773 5.884796
C 2.504958 0.143114 6.523358
C 1.903556 0.547759 6.503924
C 2.934499 0.156711 6.264989
C 3.402379 0.330287 5.885469
C 3.325291 0.064089 6.551174
C 2.846461 0.650880 6.276917
C 3.757181 0.091727 6.086760
C 4.602589 0.563868 5.875133
C 4.471136 0.411233 6.407119
C 4.083293 0.570785 6.622070
C 4.880218 0.096413 5.974121
C 5.483016 0.493703 6.205765
C 5.568335 0.006353 6.305427
C 4.999455 0.453251 6.296310
C 5.852065 0.086787 5.882515
C 6.610793 0.482842 6.037148
C 6.547050 0.083173 6.527063
C 5.918540 0.402712 6.442678
C 7.113230 0.131821 6.072041
C 7.498189 0.519119 6.114720
C 7.461517 0.091583 6.433718
C 6.888370 0.428587 6.468610
C 0.117183 1.296308 5.866005
C 0.373415 1.354714 6.175818
C 0.315227 0.935579 6.481070
C 0.062670 1.348995 6.675947
C 1.014976 0.861168 6.122561
C 1.358583 1.471860 6.098732
C 1.643624 1.076861 6.437530
C 1.165620 1.363728 6.588565
C 2.019098 1.105063 5.834961
C 2.677922 1.522119 6.092180
C 2.400539 0.998459 6.281061
C 1.951667 1.446123 6.510640
C 3.036319 1.115228 5.988654
C 3.391985 1.524203 6.096188
C 3.359641 0.818177 6.419232
C 3.010426 1.619025 6.430929
C 3.975519 0.938033 5.976212
C 4.414485 1.369161 5.955910
C 4.618028 0.898580 6.578669
C 4.171973 1.582073 6.597978
C 5.030396 0.991082 6.155549
C 5.407436 1.414334 5.906373
C 5.436504 1.024223 6.432454
C 5.052293 1.507976 6.253194
C 5.977419 1.072525 5.776528
C 6.349009 1.642710 6.170734
C 6.635383 0.783002 6.687106
C 5.864590 1.718125 6.359311
C 6.956082 0.873997 6.182809
C 7.345854 1.534379 5.991741
C 7.484369 1.124339 6.636547
C 6.794203 1.291653 6.353209
C 0.111111 2.124028 5.820514
C 0.605824 2.543584 6.150298
C 0.552220 1.706837 6.547467
C 0.104780 2.274800 6.469748
C 0.842264 1.884351 6.223103
C 1.578642 2.414029 5.846905
C 1.442560 1.946423 6.496949
C 0.908713 2.652250 6.672394
C 2.092817 2.131972 5.960313
C 2.549104 2.600071 5.851704
C 2.431887 2.161609 6.338187
C 1.800460 2.693370 6.454452
C 2.877330 2.178813 5.950255
C 3.393450 2.544575 5.791194
C 3.411503 2.209704 6.634388
C 2.935050 2.676999 6.521868
C 4.051285 1.902700 5.831208
C 4.578156 2.360053 5.984371
C 4.412857 2.056527 6.409390
C 3.965540 2.709703 6.499097
C 5.057044 1.948948 6.154598
C 5.339293 2.394742 5.884422
C 5.325902 1.939854 6.677773
C 4.949353 2.609466 6.739292
C 5.998366 2.053497 5.759571
C 6.557695 2.451816 5.805857
C 6.648008 1.806713 6.472399
C 6.053870 2.449362 6.697453
C 7.126153 2.140866 5.967894
C 7.246087 2.642160 5.929710
C 7.476567 2.081417 6.359834
C 6.786524 2.311860 6.556874
C 0.041465 3.118706 5.735219
C 0.391861 3.556872 5.950286
C 0.498950 2.910846 6.461246
C 0.015448 3.536981 6.422726
C 1.084655 3.080430 5.857539
C 1.452220 3.518723 6.293630
C 1.396174 2.887975 6.651566
C 0.854434 3.436539 6.416099
C 1.944044 3.071232 6.172177
C 2.510884 3.299036 6.204020
C 2.362052 2.887562 6.321384
C 1.987357 3.675351 6.677406
C 2.803814 2.929181 6.106920
C 3.692872 3.445122 5.897462
C 3.385203 2.798933 6.545879
C 2.818082 3.486621 6.586760
C 3.894124 3.017888 5.857389
C 4.582483 3.617565 6.053870
C 4.497540 2.951169 6.683255
C 4.076064 3.259006 6.515855
C 5.046220 2.832871 5.856449
C 5.529702 3.305817 5.833330
C 5.591173 3.116989 6.337981
C 4.917612 3.549117 6.497773
C 6.154470 2.782831 6.038331
C 6.517442 3.306990 5.967053
C 6.687637 2.910564 6.478554
C 6.081777 3.376194 6.564413
C 7.020155 3.055417 5.842380
C 7.336658 3.320075 6.085366
C 7.323993 2.989964 6.594883
C 6.816262 3.465153 6.515331
C 0.149565 3.966018 5.699393
C 0.438979 4.304743 6.126894
C 0.658316 3.913727 6.532596
C 0.118710 4.301245 6.498494
C 0.897844 4.064141 6.007538
C 1.415317 4.663412 5.910307
C 1.560589 3.901098 6.658212
C 0.976904 4.659109 6.540298
C 2.063094 3.838253 6.116463
C 2.527999 4.492041 6.123173
C 2.426844 3.855821 6.476962
C 2.119273 4.365829 6.654824
C 2.856702 4.081911 6.003727
C 3.484472 4.325375 6.074178
C 3.736345 3.964326 6.399403
C 2.969080 4.464667 6.417577
C 3.876893 4.025129 5.886509
C 4.365258 4.589734 5.949174
C 4.517025 3.869358 6.486370
C 3.907244 4.467294 6.371659
C 4.988579 4.009507 6.214781
C 5.534757 4.519084 6.176168
C 5.506574 4.111276 6.618195
C 4.794540 4.647036 6.595868
C 6.052048 4.165623 6.004459
C 6.498279 4.604623 6.184325
C 6.485688 4.106742 6.380842
C 5.905664 4.380351 6.536941
C 6.896968 4.147222 6.109625
C 7.423159 4.366507 6.008592
C 7.320662 3.805903 6.367261
C 7.131596 4.327645 6.518157
C 0.013361 5.070842 6.209904
C 0.336173 5.302132 5.940773
C 0.344203 5.025159 6.596174
C 0.098800 5.621775 6.718191
C 0.971522 4.815700 6.093336
C 1.318540 5.522002 6.055449
C 1.298627 5.027889 6.542005
C 0.888766 5.667190 6.472446
C 2.056728 5.055790 5.994819
C 2.552956 5.603830 5.930823
C 2.279292 5.096402 6.462723
C 1.987631 5.627518 6.545839
C 2.946180 5.088340 5.904359
C 3.428095 5.325891 5.901992
C 3.641517 4.837068 6.599319
C 3.033631 5.526011 6.386619
C 3.994195 4.968164 5.861305
C 4.626382 5.376864 5.817619
C 4.327580 5.075537 6.611354
C 4.174241 5.627413 6.426682
C 4.969410 4.960576 5.865960
C 5.453798 5.453704 6.203954
C 5.612882 4.990616 6.338956
C 5.033171 5.559281 6.264684
C 6.096606 4.980763 6.050193
C 6.635173 5.656304 5.991228
C 6.653249 5.134947 6.582814
C 5.785939 5.471015 6.586450
C 6.987196 4.877821 5.871259
C 7.476128 5.431143 6.185790
C 7.331012 4.908903 6.619648
C 7.110317 5.339374 6.539977
C 0.201075 5.791309 6.177028
C 0.399476 6.596925 6.009443
C 0.504571 6.088777 6.795775
C 0.047193 6.702938 6.568629
C 1.293233 6.010088 5.954744
C 1.646530 6.547167 6.126249
C 1.569005 5.860124 6.603890
C 0.883664 6.492689 6.614862
C 2.027487 5.961148 6.179893
C 2.527483 6.513184 5.769302
C 2.549496 5.970396 6.588025
C 2.073219 6.428167 6.459957
C 2.987248 6.043892 5.872093
C 3.566249 6.554920 5.775133
C 3.395760 5.937582 6.593684
C 2.979288 6.394299 6.601201
C 4.013093 6.061426 6.085834
C 4.467707 6.475273 6.097047
C 4.654873 6.173871 6.407833
C 3.869672 6.273467 6.574242
C 5.132881 6.108176 6.088445
C 5.307354 6.562769 6.034131
C 5.557123 5.941265 6.360188
C 5.115560 6.473106 6.556385
C 6.116139 6.010845 5.856778
C 6.621516 6.744926 5.986571
C 6.700571 6.009540 6.575793
C 5.870583 6.612177 6.480743
C 6.903547 6.107100 6.115084
C 7.240974 6.569964 5.899609
C 7.482913 6.282924 6.480130
C 6.860424 6.532428 6.499146
C 0.126530 7.094155 6.179529
C 0.593247 7.425981 5.854361
C 0.643747 7.042971 6.535325
C 0.022240 7.488892 6.604822
C 0.849537 7.031530 6.090808
C 1.512423 7.430265 6.002658
C 1.493648 7.236991 6.526607
C 1.019240 7.452733 6.486857
C 2.208417 6.920334 6.017385
C 2.533287 7.459808 5.947299
C 2.591305 6.797564 6.538769
C 1.917069 7.273109 6.442298
C 2.949176 6.921589 5.812420
C 3.629436 7.468638 5.884534
C 3.591207 7.047620 6.493741
C 2.790749 7.372930 6.466106
C 3.925520 6.853529 6.012211
C 4.218942 7.283937 5.977459
C 4.376422 6.949740 6.466492
C 4.026323 7.302932 6.615172
C 4.843464 7.155586 6.096152
C 5.353094 7.226073 6.004171
C 5.396460 6.862842 6.412342
C 4.881908 7.399578 6.579867
C 6.163207 7.064992 6.042563
C 6.405018 7.495989 6.159036
C 6.510192 6.931902 6.403055
C 5.883436 7.483844 6.570288
C 6.985775 7.236131 6.053060
C 7.447590 7.430038 6.309138
C 7.263717 6.834525 6.470850
C 6.846567 7.356936 6.477695
C 0.350216 0.253410 6.902710
C 0.586873 0.675161 6.848998
C 0.497248 0.290975 7.481128
C 0.033084 0.278524 7.428508
C 0.980503 0.153225 7.023733
C 1.491442 0.438956 6.903399
C 1.706471 0.106315 7.349496
C 0.925496 0.783497 7.454708
C 2.054840 0.248909 6.969638
C 2.670660 0.534516 7.244627
C 2.274481 0.175196 7.413790
C 2.015456 0.652936 7.246272
C 2.901363 0.225906 6.906916
C 3.264422 0.539498 6.994358
C 3.384464 0.048791 7.252085
C 3.077470 0.662831 7.481495
C 4.061700 0.013117 7.066164
C 4.670985 0.827018 7.116685
C 4.250090 0.461102 7.336732
C 3.761443 0.459348 7.297346
C 4.773324 0.169105 6.866102
C 5.415608 0.704225 7.084983
C 5.623509 0.139532 7.386521
C 4.953465 0.476527 7.351840
C 6.075501 0.038685 7.049166
C 6.422604 0.464150 7.208257
C 6.567017 0.008441 7.210850
C 5.989257 0.617862 7.369361
C 7.001431 0.052261 6.875577
C 7.282232 0.547324 6.878938
C 7.416238 0.093545 7.122316
C 7.184194 0.609044 7.415877
C 0.077984 0.882086 7.174396
C 0.500670 1.706810 7.142687
C 0.522817 1.169870 7.321841
C 0.091771 1.593403 7.119758
C 0.991213 0.707148 7.049077
C 1.570955 1.269742 6.971726
C 1.419633 1.043837 7.369682
C 0.997386 1.385366 7.401101
C 2.084363 1.265677 6.969820
C 2.682223 1.677489 6.879071
C 2.510009 1.004611 7.177196
C 1.842110 1.472894 7.356291
C 3.060141 0.916725 6.790042
C 3.631542 1.538717 6.882199
C 3.382824 1.028137 7.356220
C 2.950833 1.411419 7.486390
C 4.005077 1.073465 6.773278
C 4.507282 1.378133 7.007490
C 4.266321 1.165111 7.370513
C 4.143209 1.620323 7.428563
C 5.045129 1.138567 6.845887
C 5.651551 1.637194 6.779909
C 5.685160 1.022513 7.353220
C 5.124038 1.549410 7.382559
C 6.143537 1.153327 7.078689
C 6.461434 1.515228 7.155622
C 6.380743 0.952726 7.480183
C 6.081698 1.433078 7.489353
C 6.949463 1.134443 6.812204
C 7.435042 1.500991 7.133639
C 7.204796 1.041148 7.443244
C 6.878680 1.671571 7.295505
C 0.101789 1.801132 6.566789
C 0.529394 2.311401 6.853975
C 0.566413 2.109843 7.451181
C 0.210858 2.664344 7.101064
C 0.988759 1.980429 7.222597
C 1.576715 2.717481 7.092409
C 1.412775 1.857829 7.323577
C 0.853101 2.610357 7.481261
C 1.911202 1.970634 7.132047
C 2.546412 2.343120 7.102145
C 2.712158 2.057768 7.493501
C 2.236672 2.363869 7.486806
C 2.986581 2.045531 7.083910
C 3.421190 2.534245 7.114132
C 3.779418 2.016363 7.435208
C 2.923981 2.551146 7.400389
C 3.815482 2.085139 6.980233
C 4.538219 2.412304 6.858521
C 4.383819 2.221289 7.398511
C 3.781041 2.649796 7.458780
C 4.905190 1.999583 7.108325
C 5.549428 2.472594 6.788022
C 5.590226 2.013767 7.362581
C 4.794197 2.527134 7.359322
C 6.071882 1.908170 6.906241
C 6.642082 2.425669 7.112418
C 6.496920 2.077587 7.415319
C 5.769448 2.506101 7.397473
C 6.711641 1.980999 6.973819
C 7.259627 2.557707 6.581915
C 7.308859 2.176048 7.247683
C 6.985965 2.679596 7.381628
C 0.012968 3.103792 6.743863
C 0.504010 3.675886 6.987116
C 0.621159 3.049918 7.444281
C 0.061573 3.327873 7.388924
C 1.047022 2.887899 7.057428
C 1.742064 3.493296 7.046594
C 1.729800 3.160461 7.462713
C 0.805532 3.558077 7.359372
C 1.884165 3.147396 6.809837
C 2.524522 3.573139 7.023645
C 2.511615 3.093053 7.456381
C 2.096886 3.735892 7.324360
C 2.927353 3.073646 6.923375
C 3.519926 3.489739 7.047005
C 3.569645 3.219080 7.443626
C 2.896459 3.523257 7.451699
C 4.081347 3.208395 6.952376
C 4.399454 3.760046 6.950089
C 4.549557 3.076164 7.256286
C 3.937138 3.583842 7.348218
C 4.947973 3.059966 6.967897
C 5.703532 3.422531 7.065938
C 5.671040 2.976118 7.407244
C 5.049601 3.581838 7.403954
C 6.175260 2.820540 7.004434
C 6.269178 3.602244 6.932277
C 6.410648 2.720886 7.463465
C 6.028919 3.857943 7.467133
C 6.941601 2.893414 6.896593
C 7.198844 3.710729 6.799251
C 7.373154 2.988944 7.358316
C 7.088732 3.399121 7.418132
C 0.251386 4.077733 6.904111
C 0.423111 4.647429 7.101856
C 0.332701 4.220643 7.338038
C 0.114904 4.691948 7.476259
C 0.975521 4.067742 7.187661
C 1.333835 4.363844 7.025375
C 1.365709 4.007122 7.486148
C 0.892195 4.521879 7.209872
C 1.777132 3.947071 7.144795
C 2.273800 4.630658 7.071159
C 2.422656 4.151466 7.284075
C 1.807855 4.769143 7.453167
C 3.054959 3.998487 6.824063
C 3.422942 4.420449 7.087931
C 3.325079 3.899679 7.309239
C 3.010420 4.337627 7.473304
C 3.834360 4.045687 6.834555
C 4.632540 4.507449 7.114845
C 4.590610 4.077695 7.386847
C 4.265346 4.520509 7.451799
C 4.963456 4.109323 7.046425
C 5.708063 4.387120 6.986394
C 5.504765 3.783358 7.339537
C 5.230311 4.285437 7.417800
C 6.169236 4.127648 6.974091
C 6.663344 4.471534 6.908743
C 6.614047 3.911429 7.250040
C 5.907937 4.668948 7.313798
C 7.049649 4.076309 7.009457
C 7.337922 4.648601 7.078198
C 7.221155 4.094655 7.478182
C 6.751617 4.612730 7.484224
C 0.202128 5.131116 7.034112
C 0.447231 5.638498 7.119516
C 0.813072 4.971146 7.354811
C 0.031552 5.528692 7.310131
C 0.879132 5.090048 6.927435
C 1.315553 5.390037 6.901138
C 1.418603 5.116758 7.469014
C 1.111311 5.482667 7.370838
C 2.162583 5.120945 7.023779
C 2.535653 5.464276 6.903880
C 2.246343 4.971561 7.466648
C 1.905720 5.336486 7.421464
C 3.029129 4.996160 6.921110
C 3.195963 5.597443 6.975303
C 3.438337 5.104060 7.259852
C 3.154042 5.461693 7.482035
C 3.948923 5.221264 6.911142
C 4.374167 5.663152 7.103479
C 4.498575 5.259518 7.439373
C 4.033711 5.456879 7.459138
C 4.850830 5.026506 7.189146
C 5.356795 5.637295 7.011170
C 5.393929 5.171913 7.407423
C 4.777678 5.701412 7.368188
C 6.140883 4.915239 6.998487
C 6.372995 5.460657 7.023583
C 6.361786 4.498494 7.397825
C 5.931424 5.514907 7.355093
C 6.887626 5.043132 7.044813
C 7.425044 5.745068 6.799681
C 7.407521 5.181027 7.452180
C 6.979000 5.522727 7.088610
C 0.044085 6.063504 6.884957
C 0.447608 6.550786 6.748280
C 0.671536 6.106832 7.401796
C 0.129158 6.348804 7.361540
C 0.966111 6.039349 6.852745
C 1.303823 6.456361 6.947395
C 1.541311 5.885803 7.350272
C 0.704273 6.623557 7.479012
C 2.148062 6.110217 6.861054
C 2.487439 6.561831 7.008742
C 2.417754 6.076755 7.423060
C 2.137596 6.552240 7.449130
C 2.732767 6.125367 7.048622
C 3.366885 6.380850 7.108793
C 3.360163 6.015327 7.495574
C 2.919613 6.211707 7.482336
C 4.097197 5.886708 6.838446
C 4.539761 6.456846 7.010898
C 4.360722 6.007706 7.459248
C 3.920194 6.463029 7.314586
C 5.088910 6.056654 7.005485
C 5.609328 6.352681 7.165597
C 5.346575 6.007259 7.474031
C 5.106242 6.440262 7.329679
C 6.038847 6.093127 7.131742
C 6.450716 6.626483 6.858530
C 6.510285 5.803037 7.492064
C 6.144202 6.436584 7.464550
C 7.116476 5.948559 7.104197
C 7.445922 6.518142 6.978038
C 7.384410 6.053922 7.490725
C 7.056238 6.548530 7.392921
C 0.299979 7.109659 7.030446
C 0.712661 7.462054 6.968467
C 0.740472 7.087624 7.325810
C 0.222502 7.497299 7.380755
C 0.958438 6.803606 7.048145
C 1.286270 7.470908 6.921150
C 1.435428 6.892264 7.428127
C 1.267986 7.398211 7.358432
C 1.904493 6.885597 7.198384
C 2.773854 7.377128 7.034729
C 2.642486 6.811683 7.471498
C 2.176841 7.250028 7.299076
C 2.905378 6.865074 6.934999
C 3.639876 7.347742 6.964193
C 3.791155 7.035509 7.317796
C 2.725397 7.446583 7.448607
C 4.218366 6.944151 6.924840
C 4.304688 7.304847 7.221008
C 4.359652 6.761492 7.419236
C 3.713646 7.499710 7.443598
C 4.877363 7.195387 7.087834
C 5.301639 7.420324 6.897591
C 5.404141 6.932751 7.437766
C 5.195242 7.378801 7.480994
C 6.184707 7.036559 6.991370
C 6.812117 7.345144 6.912723
C 6.203760 7.014904 7.485146
C 5.799352 7.466204 7.390369
C 7.011470 6.865196 6.901477
C 7.360858 7.485887 7.057516
C 7.275137 6.993088 7.333036
C 6.751856 7.442825 7.306767
2048
Frame 9/10
C 0.189790 0.212594 0.224747
C 0.531160 0.403221 0.015760
C 0.435607 0.066249 0.606381
C 0.035151 0.739140 0.610652
C 0.858439 0.018853 0.033151
C 1.288007 0.688496 0.240260
C 1.479646 0.119880 0.467540
C 1.070347 0.474696 0.693353
C 1.902439 0.008488 0.004878
C 2.599906 0.455509 0.137425
C 2.726142 0.123124 0.589380
C 2.108980 0.411717 0.653720
C 3.273922 0.078841 0.278486
C 3.304270 0.555881 0.101836
C 3.763856 0.249500 0.358519
C 3.060399 0.557379 0.807408
C 4.435207 0.004373 0.020951
C 4.299046 0.705389 0.088412
C 4.616680 0.115999 0.638220
C 4.108915 0.415131 0.672113
C 5.237788 0.154724 0.001545
C 5.342274 0.753668 0.184500
C 5.673812 0.082410 0.490400
C 4.992963 0.329888 0.410438
C 5.760891 0.268310 0.042525
C 6.468365 0.697237 0.057924
C 6.472547 0.043661 0.609013
C 6.047958 0.494311 0.483538
C 7.294420 0.018630 0.063031
C 7.353377 0.716078 0.284980
C 7.167171 0.093910 0.649594
C 6.870900 0.573580 0.480884
C 0.198738 0.770433 0.192021
C 0.737429 1.645219 0.028398
C 0.413687 1.135707 0.489838
C 0.242924 1.472183 0.230362
C 1.017651 0.973308 0.025054
C 1.517228 1.591909 0.096603
C 1.695990 1.289401 0.548584
C 0.983003 1.534813 0.712640
C 1.853694 1.144276 0.030138
C 2.681167 1.601170 0.030079
C 2.603485 0.847069 0.621881
C 2.125757 1.462392 0.241743
C 2.860305 0.841203 0.008124
C 3.266341 1.635725 0.397879
C 3.527840 0.696015 0.459683
C 2.858709 1.379714 0.373154
C 3.836638 1.158581 0.300569
C 4.464087 1.412825 0.000601
C 4.749235 1.010737 0.438035
C 3.859131 1.605024 0.387749
C 5.086407 1.300907 0.072364
C 5.422056 1.631254 0.152334
C 5.714733 1.099440 0.474699
C 5.093011 1.481709 0.493284
C 5.876238 0.828144 0.159281
C 6.434104 1.572929 0.250486
C 6.359732 1.110455 0.247520
C 6.069603 1.634342 0.514730
C 6.824806 0.973833 0.128758
C 7.421968 1.635511 0.017790
C 7.242205 1.100628 0.490477
C 6.815667 1.704560 0.566979
C 0.211704 2.283622 0.036741
C 0.587388 2.653471 0.045616
C 0.406155 1.916743 0.310162
C 0.136058 2.230224 0.562328
C 0.924424 2.139043 0.097019
C 1.496499 2.451623 0.281817
C 1.661295 2.056717 0.440635
C 0.799752 2.324889 0.570098
C 2.104941 2.106870 0.234325
C 2.337178 2.461056 0.024093
C 2.639604 2.086448 0.851177
C 2.082395 2.768538 0.685170
C 2.849512 2.023954 0.243358
C 3.605309 2.746322 0.035424
C 3.211596 2.092953 0.512791
C 3.221511 2.703178 0.480919
C 4.108658 1.865432 0.100097
C 4.399724 2.392709 0.088884
C 4.279623 1.856740 0.604013
C 3.925572 2.651327 0.484824
C 5.174349 2.012462 0.126102
C 5.147603 2.522447 0.088282
C 5.624756 2.083809 0.546675
C 5.129674 2.791543 0.485988
C 5.889110 2.174413 0.111268
C 6.534700 2.482633 0.110037
C 6.608671 2.109327 0.761091
C 5.912189 2.510193 0.598742
C 6.664487 1.922916 0.046804
C 7.433977 2.432173 0.174815
C 7.283620 1.877503 0.480859
C 7.036132 2.341874 0.389908
C 0.313058 3.093572 0.126921
C 0.583739 3.887206 0.118181
C 0.536836 3.258900 0.554131
C 0.112172 3.197992 0.710424
C 0.950792 2.967183 0.125920
C 1.354959 3.713988 0.044069
C 1.386676 3.138246 0.458764
C 0.949600 3.397174 0.269457
C 1.830976 2.738849 0.087266
C 2.428000 3.786567 0.126847
C 2.655137 2.905572 0.407718
C 2.131408 3.419531 0.520015
C 2.935899 2.822188 0.018624
C 3.236837 3.568733 0.050888
C 3.284426 3.128576 0.593118
C 3.043500 3.584599 0.578631
C 3.936090 3.153154 0.045432
C 4.813472 3.525295 0.120218
C 4.645747 3.128743 0.328254
C 4.173105 3.658231 0.575557
C 5.240190 3.201431 0.247481
C 5.637578 3.625515 0.027579
C 5.748383 2.979096 0.609517
C 5.110635 3.625467 0.505989
C 5.706933 2.959255 0.002107
C 6.635000 3.319318 0.299716
C 6.204592 2.841594 0.419538
C 6.163395 3.280612 0.422696
C 7.088107 3.108589 0.020866
C 7.395484 3.673555 0.211948
C 7.357964 2.820715 0.427048
C 7.105902 3.455124 0.579986
C 0.124669 3.774883 0.281372
C 0.321999 4.439935 0.030436
C 0.678029 4.163274 0.489054
C 0.246146 4.447358 0.542785
C 1.021314 4.083481 0.155911
C 1.516376 4.206765 0.165331
C 1.321109 3.853922 0.468451
C 0.882022 4.568154 0.376877
C 1.983763 4.060556 0.290693
C 2.699536 4.548840 0.177723
C 2.421372 4.322497 0.522824
C 1.846313 4.698021 0.450849
C 2.841089 4.109752 0.060882
C 3.458158 4.448663 0.014876
C 3.425871 4.013076 0.234942
C 3.076750 4.289103 0.483952
C 3.918560 4.251752 0.040809
C 4.468931 4.492884 0.015074
C 4.720705 3.966168 0.504623
C 4.165801 4.651585 0.524929
C 4.953166 4.031600 0.103149
C 5.514610 4.421541 0.276015
C 5.548303 3.806896 0.473714
C 4.846402 4.674155 0.397986
C 6.070235 3.863734 0.229233
C 6.644798 4.538599 0.098660
C 6.353833 4.224562 0.468983
C 5.969345 4.474558 0.288200
C 6.762682 4.097590 0.152349
C 7.296796 4.686972 0.005032
C 7.327866 4.177232 0.352042
C 6.907575 4.730843 0.473072
C 0.043039 4.908783 0.369918
C 0.431557 5.677295 0.007320
C 0.665081 5.127526 0.743266
C 0.067582 5.500397 0.673170
C 0.897829 5.109548 0.134474
C 1.209444 5.685226 0.149257
C 1.576989 5.264461 0.389787
C 0.827567 5.548920 0.373968
C 2.187756 5.300721 0.084261
C 2.666871 5.569580 0.208187
C 2.602561 5.151358 0.428868
C 1.997496 5.427778 0.554595
C 2.959654 4.954404 0.240246
C 3.369093 5.305297 0.137113
C 3.409265 5.111718 0.635313
C 3.020886 5.476194 0.685090
C 3.870326 4.999388 0.278080
C 4.655830 5.651382 0.066372
C 4.561201 5.036936 0.683839
C 3.764509 5.459694 0.612775
C 5.113581 4.853489 0.097925
C 5.575167 5.549225 0.063733
C 5.519572 5.061014 0.203256
C 5.063431 5.450880 0.353124
C 6.105126 4.802597 0.007539
C 6.455393 5.241023 0.156435
C 6.444523 4.735723 0.498681
C 5.662281 5.533461 0.600742
C 6.925321 5.160929 0.039964
C 7.362309 5.665466 0.111767
C 7.324885 4.814784 0.697095
C 7.040442 5.596238 0.475545
C 0.005151 5.745833 0.180808
C 0.406110 6.478247 0.144471
C 0.606704 6.013565 0.467103
C 0.075652 6.299105 0.425570
C 0.837382 6.079429 0.080278
C 1.284761 6.271676 0.268128
C 1.813711 5.994708 0.403136
C 0.967246 6.338201 0.710189
C 1.991761 5.748842 0.052724
C 2.605811 6.430665 0.050560
C 2.595335 5.995866 0.381187
C 2.104523 6.524606 0.565866
C 3.186985 6.217052 0.127633
C 3.624770 6.201973 0.073791
C 3.319583 5.936554 0.444727
C 3.244271 6.535735 0.482909
C 4.047069 6.056082 0.315888
C 4.538686 6.666942 0.030627
C 4.609581 5.863060 0.541325
C 3.805019 6.591659 0.281215
C 4.996792 6.057492 0.019886
C 5.312406 6.634215 0.098082
C 5.197414 5.906339 0.602930
C 5.072928 6.371183 0.416146
C 6.183194 6.031957 0.073078
C 6.268831 6.668152 0.120997
C 6.618288 5.925431 0.348894
C 5.804295 6.506131 0.557231
C 7.102905 6.211774 0.063561
C 7.461104 6.779700 0.144877
C 7.320675 6.044691 0.812817
C 6.753272 6.505233 0.291706
C 0.265000 6.995476 0.000999
C 0.827360 7.441469 0.033588
C 0.353501 6.883410 0.418512
C 0.020002 7.464821 0.439549
C 0.902971 6.668224 0.065257
C 1.427756 7.018981 0.029479
C 1.653671 7.111347 0.621471
C 1.244229 7.310193 0.636528
C 2.240111 6.861564 0.248038
C 2.378863 7.295086 0.359899
C 2.294933 7.083424 0.775657
C 1.922371 7.365538 0.315102
C 3.340262 6.925030 0.080792
C 3.634987 7.365211 0.104342
C 3.355975 7.027158 0.554631
C 2.924555 7.493067 0.131101
C 4.268578 7.037619 0.158960
C 4.781878 7.485117 0.198977
C 4.376754 6.809999 0.534981
C 3.949495 7.423453 0.672794
C 4.962310 6.880565 0.262581
C 5.351798 7.438201 0.035667
C 5.667665 6.922622 0.362358
C 5.241966 7.392901 0.539850
C 5.795395 7.236372 0.101753
C 6.550291 7.429328 0.117335
C 6.677418 6.968468 0.544725
C 5.835406 7.463510 0.631342
C 7.002960 6.961960 0.035354
C 7.032693 7.312843 0.270842
C 7.193138 6.645620 0.537563
C 7.045164 7.335692 0.852729
C 0.019382 0.223834 0.856105
C 0.312878 0.524139 1.069574
C 0.427837 0.030651 1.528599
C 0.007084 0.438868 1.451431
C 1.062815 0.053515 1.019559
C 1.691650 0.519840 0.876046
C 1.599175 0.052237 1.713078
C 0.765760 0.621092 1.418197
C 2.164748 0.187381 1.133438
C 2.613790 0.297966 1.047169
C 2.612063 0.072560 1.619502
C 2.065078 0.776527 1.634180
C 3.091020 0.089068 0.942793
C 3.738809 0.690808 1.045294
C 3.725626 0.220416 1.403820
C 2.846074 0.535476 1.529217
C 3.801813 0.178828 0.954951
C 4.669620 0.278094 1.069751
C 4.157607 0.079943 1.580050
C 4.037076 0.721712 1.773355
C 5.240258 0.076093 0.782903
C 5.725002 0.408016 0.934463
C 5.324406 0.050545 1.483242
C 4.935603 0.311212 1.500897
C 5.933623 0.146215 1.304786
C 6.718204 0.434861 0.916147
C 6.579761 0.040185 1.800812
C 5.877768 0.812650 1.451081
C 6.834144 0.003716 1.290489
C 7.491893 0.319753 0.982765
C 7.169804 0.318320 1.283191
C 6.789231 0.440173 1.687927
C 0.139403 1.071508 0.903606
C 0.596448 1.506782 1.052458
C 0.381687 0.935588 1.300441
C 0.134129 1.317529 1.285523
C 0.899094 0.880833 0.865519
C 1.365900 1.451315 1.112523
C 1.426681 0.991650 1.696511
C 0.802707 1.510020 1.564850
C 1.719888 1.017843 0.937915
C 2.675700 1.572293 1.086533
C 2.516515 0.812519 1.300861
C 2.006015 1.357535 1.354409
C 2.958024 1.120820 0.942213
C 3.470298 1.443025 0.937866
C 3.667400 0.873176 1.574357
C 3.025656 1.440121 1.747133
C 4.019158 1.099068 1.071550
C 4.614088 1.579112 0.944750
C 4.483058 0.925330 1.473962
C 4.098462 1.575684 1.222383
C 4.763844 1.162547 1.062425
C 5.689458 1.567322 0.963800
C 5.696524 1.235067 1.698732
C 5.202159 1.425339 1.260787
C 6.143586 0.806622 0.990290
C 6.495025 1.676948 0.972891
C 6.464878 0.774037 1.441716
C 5.829992 1.613568 1.499233
C 7.169116 0.882375 0.990890
C 7.325884 1.576976 1.130046
C 7.396715 0.730546 1.539060
C 6.994755 1.690732 1.469092
C 0.135285 1.943585 1.286304
C 0.483104 2.241849 0.919197
C 0.597735 2.014732 1.685495
C 0.018247 2.440851 1.541523
C 1.133795 2.012246 0.944809
C 1.404904 2.529142 0.905136
C 1.457541 1.842338 1.619123
C 1.211254 2.427786 1.384076
C 2.138881 1.798788 0.913901
C 2.427406 2.515945 1.035831
C 2.340070 1.989548 1.448827
C 2.185361 2.499739 1.577842
C 3.206079 2.034785 1.059059
C 3.431561 2.429226 0.764898
C 3.753078 1.867140 1.561060
C 3.138773 2.277849 1.510177
C 3.970227 2.234754 0.869355
C 4.339295 2.526583 0.751239
C 4.293239 1.941784 1.439894
C 3.984726 2.537473 1.528921
C 4.894518 1.895803 1.169006
C 5.514830 2.675148 0.962988
C 5.374698 1.854447 1.320686
C 5.101800 2.222715 1.466255
C 5.766844 2.116260 1.018668
C 6.788358 2.573182 0.924943
C 6.607025 2.128002 1.561601
C 6.170703 2.413133 1.565474
C 6.898712 1.876423 1.036061
C 7.459220 2.759517 0.912989
C 7.426137 1.971854 1.734432
C 6.721944 2.636761 1.568639
C 0.118547 3.263823 1.127336
C 0.708667 3.335636 1.169597
C 0.589745 2.967697 1.717077
C 0.061066 3.775280 1.495282
C 1.090245 2.944574 0.896348
C 1.388090 3.470412 0.861808
C 1.402292 2.836421 1.290871
C 1.015285 3.206307 1.664820
C 1.977496 3.055590 1.169830
C 2.614642 3.676159 0.783488
C 2.493771 2.986341 1.439147
C 2.203108 3.444751 1.525126
C 2.920478 2.880506 1.278199
C 3.253897 3.328321 1.168675
C 3.535166 2.814339 1.385870
C 2.766877 3.668380 1.561801
C 3.904275 2.988070 0.893707
C 4.664177 3.566503 1.154979
C 4.419427 3.200337 1.298713
C 4.034630 3.587283 1.724157
C 5.005606 3.063128 0.985440
C 5.363448 3.626033 1.091360
C 5.477176 3.151354 1.452400
C 5.214956 3.648247 1.519900
C 5.910366 3.079702 1.084724
C 6.584879 3.225879 0.831740
C 6.142356 2.949043 1.450424
C 5.929307 3.386426 1.543340
C 6.951375 2.979822 0.659821
C 7.474299 3.285108 0.868319
C 7.287283 3.013631 1.473734
C 6.795738 3.668515 1.574983
C 0.099935 3.961620 0.780326
C 0.548165 4.679305 0.773870
C 0.725862 3.984185 1.644948
C 0.082664 4.552983 1.248914
C 1.213585 3.939091 1.146632
C 1.507256 4.458864 1.209044
C 1.581722 3.892395 1.533130
C 0.992780 4.678107 1.532041
C 2.099728 3.737554 0.898774
C 2.436889 4.709531 0.792048
C 2.400448 3.877961 1.395845
C 2.040710 4.608007 1.501754
C 2.871726 3.927607 1.129303
C 3.254495 4.315971 1.102786
C 3.594167 3.849862 1.613034
C 3.056199 4.393954 1.709169
C 3.958844 4.160758 1.124408
C 4.669731 4.456574 1.057684
C 4.259489 3.837692 1.382475
C 3.708747 4.375607 1.494626
C 5.074861 4.051993 1.133990
C 5.545813 4.205515 0.996671
C 5.364707 4.214248 1.498292
C 5.256233 4.663616 1.551111
C 5.852907 3.934132 1.288034
C 6.477294 4.327722 1.178821
C 6.342941 3.749882 1.643727
C 6.196159 4.489129 1.496201
C 6.836791 3.988050 1.050936
C 7.388488 4.272994 0.782796
C 7.311002 3.910346 1.606159
C 6.915686 4.266705 1.474564
C 0.140223 4.876100 0.856746
C 0.469591 5.723173 0.839161
C 0.498269 5.231410 1.316183
C 0.238018 5.433461 1.685098
C 0.942095 4.787073 0.977318
C 1.655006 5.716824 1.194114
C 1.406640 4.970955 1.409823
C 1.069330 5.552225 1.240224
C 2.168856 4.938504 1.174061
C 2.348263 5.677280 0.950133
C 2.570398 4.975038 1.696746
C 2.200005 5.464928 1.376228
C 3.016028 5.154126 1.133184
C 3.411707 5.513500 1.066584
C 3.419643 5.101511 1.429930
C 3.021674 5.328807 1.549910
C 3.770223 5.199996 1.009795
C 4.428182 5.487965 0.820116
C 4.647816 4.991509 1.677891
C 4.125252 5.469146 1.382456
C 5.157513 4.960937 1.175885
C 5.263825 5.365908 0.896850
C 5.577696 5.319664 1.311941
C 4.825202 5.537808 1.272718
C 5.947704 5.087002 1.222380
C 6.488529 5.677254 0.783743
C 6.482974 5.053239 1.260927
C 5.861915 5.629369 1.508727
C 7.225730 5.047256 1.082952
C 7.398165 5.494820 1.051696
C 7.299523 4.914656 1.766770
C 7.153576 5.413687 1.531255
C 0.073661 6.385917 0.916268
C 0.509929 6.416379 0.802293
C 0.420663 5.822506 1.505057
C 0.026822 6.358200 1.363434
C 0.946260 5.989552 1.169634
C 1.439376 6.366169 0.894524
C 1.397009 6.154339 1.297255
C 0.865595 6.360357 1.606536
C 1.968713 6.026005 0.825709
C 2.459639 6.693610 0.919938
C 2.454911 6.105073 1.288621
C 2.052343 6.513271 1.378060
C 2.771526 5.844457 0.943505
C 3.362189 6.350338 0.986378
C 3.690151 5.930223 1.504374
C 3.079897 6.339671 1.750003
C 4.007456 5.751899 0.978188
C 4.282054 6.554035 1.044905
C 4.671194 5.995205 1.515382
C 3.850088 6.422477 1.308059
C 4.938222 6.126312 0.969919
C 5.359781 6.467698 1.113242
C 5.462790 5.858874 1.397468
C 4.846754 6.583447 1.493872
C 5.982633 6.020791 0.803621
C 6.365257 6.362175 1.165201
C 6.436949 5.891677 1.608201
C 5.871516 6.474570 1.471877
C 6.746660 5.788295 1.117215
C 7.459690 6.681982 0.985614
C 7.407869 5.839173 1.671730
C 7.170376 6.402877 1.480079
C 0.320765 6.993604 1.071323
C 0.528031 7.261483 0.652466
C 0.607551 6.957316 1.483006
C 0.225297 7.455383 1.332031
C 0.858602 7.126857 0.992763
C 1.453505 7.481350 1.348191
C 1.555110 7.007610 1.268044
C 0.787925 7.475669 1.465303
C 1.879465 6.681242 0.960060
C 2.612048 7.455249 1.006050
C 2.575807 6.892670 1.513764
C 1.972369 7.361703 1.678480
C 2.963938 7.090407 0.871298
C 3.370381 7.436297 0.891241
C 3.559779 6.817968 1.381071
C 2.917335 7.252164 1.413383
C 4.252392 7.031237 1.115384
C 4.679847 7.467857 1.138745
C 4.794020 7.014861 1.333190
C 4.133038 7.414937 1.473014
C 5.159929 7.154671 1.029761
C 5.580093 7.425998 1.088300
C 5.298877 6.924419 1.610579
C 4.978419 7.474538 1.581464
C 6.008448 7.141994 1.139383
C 6.598214 7.442533 1.036972
C 6.574551 7.101478 1.344272
C 6.144666 7.486759 1.440351
C 6.962584 6.713953 1.180057
C 7.158747 7.214253 1.275316
C 7.263442 6.856374 1.670953
C 6.932994 7.369376 1.884830
C 0.046101 0.144083 2.308798
C 0.708858 0.361514 1.970598
C 0.484006 0.141679 2.392170
C 0.064573 0.581571 2.349926
C 1.083993 0.122969 1.787784
C 1.406454 0.452835 1.852278
C 1.537609 0.222584 2.584185
C 0.858638 0.758757 2.330925
C 2.207364 0.065362 1.954052
C 2.309472 0.543182 1.981918
C 2.393395 0.074466 2.514770
C 1.864422 0.593030 2.744643
C 2.950554 0.044835 2.281581
C 3.348141 0.382732 1.933727
C 3.566859 0.100706 2.238687
C 2.917054 0.643661 2.609652
C 4.040768 0.299831 2.189640
C 4.410341 0.410094 1.794009
C 4.568591 0.045531 2.428094
C 3.875407 0.527305 2.604947
C 5.168403 0.036471 2.081865
C 5.648602 0.447152 2.135842
C 5.548177 0.016521 2.456873
C 5.060325 0.329738 2.487791
C 5.881805 0.138919 1.878495
C 6.289219 0.476219 1.820681
C 6.317218 0.172138 2.271577
C 5.903746 0.291520 2.559458
C 6.940219 0.093429 2.233858
C 7.179321 0.552685 2.062588
C 7.371939 0.141784 2.103476
C 6.829660 0.685896 2.756107
C 0.104461 1.140589 1.704877
C 0.234892 1.548929 1.952757
C 0.387050 0.874939 2.560186
C 0.160646 1.269527 2.429744
C 0.839986 1.126579 2.062881
C 1.277081 1.476876 1.881080
C 1.359563 0.874352 2.348957
C 0.909174 1.448844 2.677809
C 1.936457 1.311660 2.000632
C 2.609915 1.700929 2.177128
C 2.196100 0.924130 2.451701
C 2.097530 1.465818 2.576519
C 3.159029 0.859841 1.982860
C 3.458476 1.405627 2.094498
C 3.605037 0.863136 2.328520
C 2.955871 1.374112 2.265638
C 3.817595 1.059114 1.965272
C 4.231002 1.494213 1.955687
C 4.652900 1.108993 2.586229
C 4.134954 1.701728 2.612381
C 5.108248 1.210849 2.025294
C 5.270036 1.666865 2.104929
C 5.500022 0.740367 2.468918
C 5.072955 1.556052 2.497736
C 6.133042 1.119679 2.078492
C 6.599726 1.521414 1.935009
C 6.343345 0.925141 2.794709
C 6.131885 1.357523 2.503511
C 6.783046 0.954549 1.786092
C 7.443780 1.302787 1.805095
C 7.449218 0.899555 2.450600
C 7.103369 1.662073 2.715814
C 0.019446 2.064125 1.867108
C 0.563326 2.480038 1.781092
C 0.388814 1.870871 2.576059
C 0.240041 2.333869 2.600919
C 1.268415 1.967537 2.083867
C 1.547786 2.725890 2.037196
C 1.476818 1.699600 2.370008
C 0.838477 2.525376 2.471522
C 2.189689 1.886011 1.959564
C 2.571302 2.255645 2.002261
C 2.520827 1.941979 2.840329
C 1.915964 2.361001 2.413504
C 2.962023 1.865357 1.922839
C 3.528464 2.524808 1.853569
C 3.547564 1.831820 2.526196
C 2.843114 2.358771 2.516549
C 4.056656 2.099477 1.941116
C 4.343044 2.517737 2.036771
C 4.627652 1.945434 2.667301
C 3.897039 2.308322 2.433741
C 4.911523 1.797955 1.780780
C 5.423587 2.396798 1.985517
C 5.629254 1.960647 2.392355
C 5.054017 2.282596 2.361015
C 6.207943 2.091954 1.990495
C 6.368525 2.602316 2.064055
C 6.489043 2.123025 2.532296
C 6.071129 2.321188 2.505221
C 6.877692 1.810692 2.266471
C 7.495005 2.426397 2.082605
C 7.428141 1.977050 2.550386
C 7.015303 2.602291 2.785397
C 0.087622 2.757580 2.180954
C 0.633345 3.424327 2.205938
C 0.368905 3.061077 2.360175
C 0.000250 3.373452 2.411915
C 0.869300 3.021930 2.257079
C 1.394061 3.436829 2.020769
C 1.579391 2.895591 2.476732
C 0.788725 3.561412 2.677033
C 2.048487 3.000555 1.793302
C 2.574697 3.316747 1.891629
C 2.580206 2.929377 2.679544
C 1.737142 3.519509 2.594429
C 2.990572 3.264235 2.088372
C 3.647421 3.546938 2.095162
C 3.370432 3.147950 2.577347
C 3.060351 3.543661 2.551235
C 4.211599 2.962022 1.876297
C 4.495315 3.608892 1.875335
C 4.439286 3.061958 2.317735
C 4.109082 3.449239 2.213938
C 4.714340 2.937461 1.924754
C 5.555330 3.250324 2.056293
C 5.605367 2.599576 2.572799
C 4.889869 3.376521 2.538187
C 6.024629 2.906661 2.188359
C 6.519422 3.516298 2.184487
C 6.437745 3.117223 2.633049
C 5.953576 3.334873 2.260038
C 7.097606 3.205318 1.917584
C 7.495222 3.438368 1.697156
C 7.379342 3.002261 2.379956
C 7.097826 3.511143 2.567756
C 0.051630 3.956579 2.180385
C 0.504449 4.305473 2.085780
C 0.531692 3.865820 2.209828
C 0.225223 4.306983 2.554019
C 0.957085 3.900970 2.083855
C 1.512373 4.364054 2.181391
C 1.659069 3.905512 2.324551
C 1.251627 4.510957 2.613162
C 1.887658 3.939247 1.876737
C 2.613476 4.339835 1.846198
C 2.524682 4.301542 2.328892
C 2.149648 4.565603 2.499555
C 3.032767 3.963513 2.237070
C 3.430887 4.514484 2.243439
C 3.640903 4.117364 2.538875
C 2.910101 4.248014 2.607459
C 4.065402 4.151663 1.815257
C 4.449773 4.371407 1.907526
C 4.393627 3.779730 2.424483
C 3.958175 4.467182 2.540461
C 5.140564 3.818616 1.945612
C 5.578882 4.612678 2.028503
C 5.310122 4.143381 2.718173
C 4.928577 4.559891 2.361529
C 6.005978 3.895792 1.911936
C 6.405864 4.253802 1.811221
C 6.511171 3.882050 2.536001
C 6.076088 4.486540 2.740360
C 7.048957 4.032716 1.971394
C 7.274621 4.552576 2.090253
C 7.485101 3.744335 2.360448
C 6.706856 4.585250 2.584555
C 0.052083 4.942324 1.727223
C 0.415688 5.337677 2.156141
C 0.387204 5.162593 2.626930
C 0.115915 5.780819 2.623051
C 1.015327 5.018385 1.985318
C 1.430368 5.530552 1.834328
C 1.507119 5.045222 2.301410
C 1.073217 5.476017 2.381168
C 1.993382 5.132150 2.194530
C 2.634890 5.565034 1.986198
C 2.360004 4.986361 2.582044
C 1.834580 5.429537 2.542643
C 3.049080 4.984762 1.899516
C 3.417655 5.786657 2.015223
C 3.467540 5.048188 2.591403
C 3.057862 5.270842 2.557486
C 3.811584 4.963907 2.218094
C 4.474259 5.523384 2.172284
C 4.341636 5.109822 2.561240
C 3.967434 5.423984 2.363461
C 5.183716 4.945885 2.217319
C 5.680105 5.357428 1.814337
C 5.443995 5.073532 2.612783
C 4.849410 5.450803 2.565968
C 6.150083 4.734652 2.026217
C 6.430083 5.337925 2.160140
C 6.501292 4.963730 2.781258
C 6.166790 5.369078 2.564070
C 6.721168 4.806753 2.186045
C 7.316702 5.234198 2.146913
C 7.315487 4.724416 2.751502
C 7.230282 5.579112 2.474129
C 0.228205 5.911427 2.007738
C 0.276262 6.389965 2.065425
C 0.408727 6.155240 2.430351
C 0.148259 6.505226 2.619241
C 1.066614 5.995754 2.181680
C 1.378811 6.543945 1.979644
C 1.529061 6.048784 2.406260
C 0.956106 6.588898 2.169989
C 2.168417 6.183159 1.974652
C 2.607843 6.546938 2.156875
C 2.565386 5.973144 2.409015
C 2.025077 6.583790 2.273666
C 2.983023 6.171463 2.206755
C 3.429856 6.589378 2.206684
C 3.627957 6.114101 2.341337
C 2.783212 6.369882 2.576396
C 3.948204 5.828942 2.122098
C 4.506479 6.481900 2.141176
C 4.524273 5.975433 2.539996
C 3.762513 6.439247 2.619877
C 5.139366 5.849327 1.785153
C 5.368930 6.499314 2.090012
C 5.323493 5.989365 2.689508
C 4.987355 6.390397 2.418259
C 5.863275 5.888749 1.884953
C 6.495313 6.362035 2.203513
C 6.746581 5.788523 2.491807
C 5.961771 6.488780 2.772932
C 6.977768 5.917429 2.064296
C 7.289273 6.416070 2.006403
C 7.433609 6.154477 2.383893
C 6.904402 6.528923 2.356131
C 0.070389 7.134316 1.730172
C 0.488780 7.329418 1.786635
C 0.539991 7.104039 2.755475
C 0.247729 7.211032 2.412227
C 1.019528 7.001320 2.276285
C 1.711153 7.375604 2.081620
C 1.429700 6.875417 2.399186
C 1.063796 7.488084 2.680686
C 2.082292 6.926755 1.758044
C 2.449192 7.362702 2.028779
C 2.664832 7.129227 2.441380
C 2.034669 7.448665 2.493375
C 2.787967 6.923020 1.932956
C 3.391179 7.290083 2.206890
C 3.687084 7.181502 2.561536
C 3.276457 7.391644 2.628386
C 3.793214 7.105240 1.950504
C 4.369289 7.418717 1.879084
C 4.394489 6.895090 2.454952
C 3.973447 7.451347 2.314766
C 4.908961 6.888950 1.856320
C 5.441205 7.302361 2.203139
C 5.403101 7.050035 2.581180
C 4.857117 7.209440 2.357095
C 5.951746 6.868859 2.071298
C 6.204513 7.349420 1.982412
C 6.404972 6.906628 2.575504
C 5.712345 7.467135 2.532118
C 6.938626 6.940616 2.057313
C 7.403908 7.332119 1.863792
C 7.468227 7.164842 2.537203
C 6.915711 7.266415 2.699354
C 0.166246 0.010518 2.968009
C 0.391679 0.449834 2.825395
C 0.725585 0.135208 3.646205
C 0.213945 0.540104 3.440004
C 1.089060 0.267902 2.917098
C 1.426360 0.711503 2.862699
C 1.314976 0.226497 3.360226
C 0.879689 0.499022 3.325249
C 1.989856 0.093442 2.875692
C 2.555813 0.415250 2.757360
C 2.338092 0.030748 3.368840
C 2.151604 0.591022 3.556933
C 3.161340 0.149903 2.821313
C 3.423300 0.622900 2.779364
C 3.482342 0.093752 3.511280
C 3.122712 0.480193 3.625695
C 3.841414 0.009457 2.722388
C 4.360602 0.578417 3.162191
C 4.381462 0.126654 3.138396
C 3.906366 0.484305 3.165130
C 4.902353 0.006621 3.115401
C 5.395926 0.523500 3.001911
C 5.493309 0.184365 3.400036
C 4.994544 0.703552 3.384911
C 5.887753 0.003164 3.081475
C 6.580050 0.309116 2.954656
C 6.769153 0.044892 3.474997
C 5.789982 0.688738 3.576834
C 7.134325 0.197067 2.726491
C 7.446974 0.334435 2.996542
C 7.366697 0.012924 3.607060
C 7.135294 0.412940 3.521623
C 0.003346 1.200656 3.301846
C 0.378945 1.273831 2.856746
C 0.418530 1.049718 3.383046
C 0.178450 1.657042 3.460626
C 1.054414 0.966096 2.789928
C 1.654635 1.455706 2.828102
C 1.736006 0.967546 3.444256
C 1.195828 1.446311 3.603729
C 2.158738 0.870454 2.886607
C 2.541636 1.316226 2.964398
C 2.616085 0.954234 3.479383
C 2.215927 1.448112 3.312189
C 2.962132 0.750384 3.186508
C 3.587834 1.397639 2.877156
C 3.418134 0.936806 3.627322
C 3.020419 1.584323 3.517819
C 4.035056 1.058727 3.258831
C 4.497250 1.558931 2.899826
C 4.759037 1.106055 3.483927
C 3.728381 1.365894 3.407963
C 5.144681 1.329096 3.142479
C 5.577537 1.346505 2.763357
C 5.539244 1.203853 3.493182
C 5.009571 1.412091 3.711341
C 5.872571 0.864382 2.997514
C 6.749403 1.484714 3.012444
C 6.638526 0.834813 3.487599
C 6.270071 1.411147 3.613881
C 6.998318 1.062082 2.679485
C 7.493716 1.189830 2.985738
C 7.417847 0.914719 3.655729
C 6.999569 1.613282 3.527246
C 0.016784 2.204551 3.161638
C 0.696396 2.649187 3.039689
C 0.488314 2.057518 3.333233
C 0.036794 2.763154 3.597598
C 0.786777 1.963659 2.993232
C 1.700090 2.601375 3.203226
C 1.688831 2.056804 3.393473
C 0.859381 2.344538 3.452274
C 2.034764 1.843415 2.966932
C 2.592583 2.570028 3.025556
C 2.550376 2.071068 3.372291
C 2.148158 2.656249 3.397776
C 3.027626 1.833523 3.124319
C 3.482438 2.618172 2.967243
C 3.361643 1.933447 3.652386
C 3.009657 2.603894 3.740966
C 3.818747 2.144841 2.911512
C 4.167801 2.495280 3.135516
C 4.734327 2.244036 3.460346
C 3.987482 2.561636 3.780538
C 5.168338 1.939733 2.933014
C 5.627539 2.413156 3.181238
C 5.285541 1.925140 3.509679
C 5.141891 2.508702 3.288666
C 6.066192 1.981740 3.152375
C 6.160284 2.491527 3.065124
C 6.632572 2.065858 3.376349
C 5.899889 2.353270 3.759553
C 6.853203 2.174227 2.813277
C 7.415068 2.398826 2.743868
C 7.489847 2.059052 3.726514
C 7.002624 2.558638 3.492425
C 0.040577 3.118009 3.160709
C 0.558685 3.641095 3.270480
C 0.414615 3.258404 3.460692
C 0.134165 3.626554 3.651874
C 0.828226 3.136951 3.037652
C 1.846055 3.377343 2.968482
C 1.522707 3.035531 3.180525
C 0.968129 3.365475 3.581236
C 2.045514 2.937518 2.756338
C 2.401433 3.585995 2.815262
C 2.369197 3.058049 3.561207
C 1.918293 3.339964 3.418184
C 3.061115 3.156800 2.928280
C 3.604833 3.224450 3.110495
C 3.601779 2.891454 3.468361
C 2.879444 3.464675 3.675942
C 4.159406 2.962183 3.212431
C 4.556532 3.513003 2.906741
C 4.601325 3.047624 3.597431
C 3.895442 3.394072 3.562265
C 5.011192 3.031160 3.118440
C 5.540471 3.691557 3.089120
C 5.611394 2.898866 3.398483
C 5.074368 3.495447 3.261724
C 5.854145 2.817337 2.952894
C 6.332620 3.701605 2.899828
C 6.285959 2.914526 3.691441
C 6.118697 3.567877 3.420412
C 7.003906 3.205439 3.106534
C 7.483364 3.397581 3.120816
C 7.384451 2.708694 3.265612
C 6.929746 3.517578 3.438946
C 0.057114 3.892728 2.836467
C 0.572997 4.389179 2.903235
C 0.769603 3.864338 3.624743
C 0.000222 4.729712 3.624103
C 1.243230 4.059722 3.067589
C 1.681407 4.352899 2.863783
C 1.647469 4.000226 3.586811
C 0.992688 4.303877 3.586133
C 2.003258 3.974989 2.766320
C 2.515255 4.417368 2.792483
C 2.526904 3.860906 3.543112
C 1.975806 4.244728 3.383136
C 2.953887 4.106547 3.029262
C 3.332720 4.440109 2.965160
C 3.682924 4.214906 3.372739
C 3.110453 4.479469 3.417241
C 4.013946 3.964927 3.067835
C 4.312323 4.660691 2.950723
C 4.375179 3.981190 3.586624
C 4.010036 4.532542 3.383896
C 4.791157 3.975289 2.915050
C 5.313712 4.640052 2.902770
C 5.725567 3.803533 3.556686
C 5.066618 4.266239 3.513690
C 5.778153 4.227872 3.141267
C 6.463087 4.309842 2.906502
C 6.532333 3.816471 3.336733
C 6.130594 4.291677 3.451747
C 6.957111 3.942916 3.027679
C 7.465523 4.324700 2.637310
C 7.332727 4.073795 3.355977
C 6.854469 4.439194 3.751813
C 0.122571 4.909612 3.227856
C 0.532431 5.654081 2.904380
C 0.529233 4.962947 3.537134
C 0.106906 5.676536 3.656045
C 0.743095 5.063712 3.007376
C 1.605787 5.641703 3.048548
C 1.509458 5.174797 3.376877
C 0.950751 5.316883 3.331680
C 1.732640 4.997305 3.005945
C 2.627200 5.661117 3.105528
C 2.725465 5.118937 3.678792
C 1.986789 5.537192 3.425266
C 3.117700 4.874058 2.834970
C 3.411965 5.673031 3.235615
C 3.223818 4.959654 3.388800
C 3.121631 5.703066 3.683576
C 3.807225 5.082062 3.011346
C 4.459454 5.352233 3.079292
C 4.559666 5.264846 3.656222
C 3.825762 5.410514 3.332354
C 4.966053 5.203659 2.954196
C 5.685525 5.506482 2.796110
C 5.721746 5.021574 3.381154
C 5.010701 5.353287 3.618633
C 5.889019 5.112197 2.872441
C 6.314758 5.627003 2.982359
C 6.447494 5.093394 3.515674
C 6.040195 5.394461 3.512942
C 6.948420 5.088334 3.154617
C 7.422726 5.422188 2.909256
C 7.232936 4.821543 3.440512
C 6.921005 5.385759 3.513966
C 0.114093 5.986662 3.102434
C 0.501344 6.228306 3.010910
C 0.571257 5.900141 3.647621
C 0.125985 6.472689 3.602381
C 1.045275 5.745296 3.019218
C 1.759089 6.649500 3.129060
C 1.619510 5.969894 3.761425
C 1.120107 6.437402 3.649613
C 1.987867 5.938078 3.204734
C 2.391906 6.280390 2.783992
C 2.281071 6.151377 3.540022
C 2.192498 6.538030 3.762931
C 2.827114 6.117769 3.028150
C 3.331906 6.554276 2.995115
C 3.771985 5.877849 3.559784
C 3.007256 6.770066 3.485530
C 4.062535 6.103330 3.164080
C 4.557526 6.273913 2.887770
C 4.321469 6.115755 3.561092
C 4.164734 6.537917 3.563507
C 4.951424 6.041512 3.165992
C 5.626836 6.445420 3.197087
C 5.631444 6.039340 3.478356
C 5.165051 6.419436 3.322960
C 5.772677 6.044361 3.015010
C 6.713622 6.311261 3.003368
C 6.380612 5.943354 3.617099
C 6.259367 6.366060 3.305822
C 6.935831 5.776665 2.991272
C 7.320798 6.438322 2.828584
C 7.440223 6.033689 3.181314
C 6.814354 6.659188 3.507763
C 0.027515 6.824431 3.021875
C 0.168450 7.309497 2.940179
C 0.557463 7.123518 3.252936
C 0.186510 7.343561 3.431408
C 0.906499 6.827081 2.767876
C 1.447960 7.360226 3.038426
C 1.473097 6.740172 3.522098
C 0.995731 7.313331 3.363661
C 2.042448 6.835543 2.736883
C 2.777161 7.325142 2.950114
C 2.590047 6.901743 3.325897
C 2.040929 7.358684 3.622349
C 2.864217 6.762868 2.885011
C 3.696561 7.484438 3.011854
C 3.479771 6.951046 3.622462
C 3.158476 7.340985 3.415006
C 3.978014 7.098269 3.068110
C 4.456015 7.320989 3.008680
C 4.443529 6.921554 3.512972
C 4.253161 7.486564 3.716463
C 4.981498 6.989238 2.803965
C 5.324513 7.480015 2.938531
C 5.540809 6.878589 3.306944
C 4.799224 7.460718 3.294490
C 5.924364 7.165901 2.992274
C 6.413676 7.286922 3.075725
C 6.544181 7.098748 3.587891
C 6.023465 7.408342 3.423230
C 6.905031 6.895661 2.974854
C 7.416662 7.422724 2.981098
C 7.284708 6.876999 3.289166
C 6.828917 7.468215 3.539076
C 0.065131 0.067641 4.252250
C 0.660738 0.361720 4.187787
C 0.524741 0.086977 4.681505
C 0.235098 0.463745 4.493202
C 1.141713 0.105239 3.872584
C 1.747955 0.364270 3.813077
C 1.275208 0.086200 4.298746
C 0.923524 0.609500 4.445030
C 2.255511 0.153990 4.070060
C 2.608223 0.485119 3.846900
C 2.522303 0.052995 4.603094
C 2.000170 0.775004 4.250831
C 2.826596 0.076441 3.780330
C 3.644831 0.388109 3.976781
C 3.545970 0.050736 4.361972
C 2.915965 0.480352 4.226459
C 4.138147 0.072850 3.803012
C 4.667269 0.552461 4.217201
C 4.195888 0.018189 4.528206
C 4.038845 0.441773 4.583070
C 5.100307 0.116707 3.863720
C 5.709913 0.765191 4.021305
C 5.445753 0.373378 4.362686
C 5.170839 0.604433 4.660493
C 5.758186 0.056484 3.885017
C 6.572182 0.333420 3.791660
C 6.180362 0.058107 4.343689
C 5.956082 0.614705 4.617848
C 6.887623 0.180479 4.106629
C 7.489997 0.408518 3.821051
C 7.289769 0.222754 4.432338
C 6.972395 0.584864 4.540373
C 0.053531 0.809043 3.818048
C 0.405799 1.525977 3.917504
C 0.453772 1.125815 4.523235
C 0.066032 1.530784 4.489610
C 0.959468 1.141022 3.905455
C 1.771838 1.491319 4.248532
C 1.188133 1.063330 4.468241
C 1.237903 1.497583 4.409616
C 2.033846 1.305784 3.910117
C 2.692904 1.610690 3.935288
C 2.484566 0.990562 4.523294
C 2.126474 1.426525 4.530765
C 2.926195 1.005981 4.154896
C 3.548611 1.629963 3.979785
C 3.368511 0.811362 4.658350
C 3.084837 1.238743 4.578211
C 3.960134 0.731448 3.943095
C 4.601506 1.370301 4.091508
C 4.646692 1.006708 4.466428
C 4.229777 1.637860 4.426457
C 4.855310 0.980035 3.897277
C 5.293809 1.463633 4.159910
C 5.601259 0.850824 4.764139
C 4.797175 1.528944 4.550930
C 6.104381 0.938600 3.848628
C 6.615256 1.352403 4.293541
C 6.563671 0.841092 4.657921
C 5.868023 1.609575 4.356289
C 6.996048 0.888867 3.990155
C 7.473524 1.547214 4.165427
C 7.408713 0.864248 4.645447
C 7.134006 1.591015 4.582926
C 0.003265 1.767516 3.876317
C 0.458811 2.325433 4.190696
C 0.603158 1.862346 4.301120
C 0.132448 2.622301 4.371347
C 0.927485 2.096741 3.938331
C 1.395098 2.677142 3.733851
C 1.547760 1.957497 4.238434
C 1.102361 2.474976 4.490447
C 2.198178 2.109046 3.913891
C 2.192979 2.759879 3.888164
C 2.606363 1.996145 4.508611
C 2.289214 2.563973 4.617651
C 2.861601 2.282519 4.057132
C 3.549980 2.334775 3.926279
C 3.377379 2.180887 4.515369
C 3.188793 2.715732 4.685142
C 3.976038 1.806940 3.836289
C 4.766975 2.412418 3.966284
C 4.628222 2.032150 4.459824
C 4.212529 2.570858 4.357415
C 5.122430 2.155087 4.251579
C 5.584181 2.271110 4.138779
C 5.444064 1.656134 4.579961
C 5.213106 2.507282 4.537013
C 6.088191 1.910380 4.018362
C 6.576142 2.670201 3.951789
C 6.363031 1.909113 4.629857
C 5.977232 2.260661 4.520412
C 7.214650 1.949861 4.164917
C 7.358827 2.383326 4.278704
C 7.453781 2.059202 4.644747
C 6.825307 2.501697 4.508504
C 0.301145 3.094622 3.892040
C 0.571804 3.466139 4.085765
C 0.418462 3.010814 4.434044
C 0.170624 3.761343 4.427740
C 1.007505 2.895567 4.171516
C 1.312923 3.290641 4.034596
C 1.548697 2.904118 4.342480
C 0.963221 3.451978 4.341567
C 1.949324 3.151790 4.083962
C 2.402877 3.818872 4.006205
C 2.603748 2.847312 4.456364
C 1.928912 3.771113 4.463589
C 3.197174 3.181057 3.906576
C 3.573570 3.555787 4.200798
C 3.730772 3.168723 4.553475
C 2.878797 3.580747 4.225663
C 4.256295 3.040999 4.051126
C 4.540152 3.535164 4.124018
C 4.462253 3.022403 4.517838
C 3.985381 3.532908 4.640518
C 4.954436 2.911367 4.201274
C 5.445102 3.512480 3.966347
C 5.669535 2.876882 4.605604
C 5.152608 3.439482 4.599119
C 6.113648 3.147924 4.160725
C 6.347557 3.383275 3.781538
C 6.356992 2.963850 4.731165
C 5.872970 3.444839 4.402109
C 7.049985 2.923168 3.830980
C 7.245573 3.557753 3.845489
C 7.471536 2.875395 4.272175
C 7.060978 3.244287 4.646671
C 0.160733 4.323646 4.047336
C 0.561588 4.514842 3.764837
C 0.552065 4.037676 4.240020
C 0.155505 4.252597 4.612073
C 1.129758 3.766443 4.003266
C 1.285012 4.484694 3.972456
C 1.200428 4.032899 4.529229
C 1.177331 4.579934 4.634560
C 1.970849 4.116215 4.092867
C 2.461668 4.370742 3.919408
C 2.608980 3.938485 4.397755
C 1.872171 4.598791 4.717363
C 2.958714 4.048234 4.079924
C 3.479568 4.413048 3.797778
C 3.516027 3.985261 4.416149
C 2.891698 4.541702 4.517679
C 4.001505 4.188003 3.966296
C 4.451807 4.372760 3.856883
C 4.569012 4.286432 4.500311
C 3.975069 4.375072 4.424223
C 5.283971 3.944529 3.981903
C 5.484816 4.356720 4.308053
C 5.575989 3.934776 4.455610
C 4.980320 4.697906 4.541975
C 5.910310 3.875203 4.024387
C 6.413905 4.643974 4.198808
C 6.384451 4.049881 4.698699
C 6.039848 4.787787 4.509493
C 6.730632 4.000296 4.029470
C 7.350721 4.441484 4.008731
C 7.190118 4.005603 4.466196
C 6.896203 4.539100 4.560912
C 0.026548 5.289276 3.996650
C 0.426530 5.606883 3.999922
C 0.631669 5.021060 4.593025
C 0.231546 5.364127 4.604037
C 0.929836 4.752645 4.104595
C 1.426743 5.399287 3.804344
C 1.350845 5.028857 4.411744
C 1.011127 5.386758 4.374138
C 2.021768 5.001755 3.814258
C 2.258053 5.338394 4.129297
C 2.575372 5.002630 4.309761
C 1.797143 5.574482 4.726779
C 2.912593 4.789757 3.967143
C 3.463753 5.501894 4.031768
C 3.334667 4.865159 4.588392
C 2.888856 5.541949 4.231087
C 3.880433 4.811158 3.893562
C 4.522808 5.454470 4.087646
C 4.418445 4.951252 4.497006
C 4.073037 5.315755 4.348827
C 4.999463 4.739555 3.835699
C 5.321978 5.294083 4.062898
C 5.491165 4.922305 4.241856
C 4.800242 5.449391 4.515601
C 5.909037 5.015389 3.949796
C 6.276017 5.446222 3.949103
C 6.456311 5.049868 4.474061
C 5.940160 5.571260 4.664948
C 6.940831 5.053042 4.126766
C 7.466826 5.563123 4.049293
C 7.280618 4.874060 4.382935
C 6.824277 5.582781 4.499191
C 0.215696 5.926188 4.254580
C 0.292332 6.451403 4.029021
C 0.676972 6.160659 4.345767
C 0.180434 6.720689 4.664735
C 0.901432 5.874096 4.096645
C 1.366867 6.552267 4.183537
C 1.556418 6.030841 4.387427
C 0.863320 6.665910 4.576979
C 2.189957 5.817681 4.190711
C 2.656056 6.515469 3.920427
C 2.617533 5.898643 4.400874
C 2.122581 6.633633 4.657140
C 3.094665 6.017132 4.307547
C 3.593397 6.270326 3.940142
C 3.535204 6.110931 4.574529
C 2.813828 6.334068 4.319962
C 4.174590 5.854221 4.175239
C 4.704821 6.553744 3.890677
C 4.464165 6.126337 4.441269
C 3.999596 6.690892 4.417926
C 4.952855 5.852324 4.299126
C 5.306190 6.407992 3.842725
C 5.768453 5.982575 4.478650
C 4.844521 6.574613 4.419327
C 5.808149 5.836365 3.977298
C 6.267079 6.520556 4.014887
C 6.363645 5.851106 4.420047
C 6.008891 6.362563 4.365698
C 6.992746 5.729282 3.971396
C 7.431132 6.894612 4.090132
C 7.433290 5.818652 4.622405
C 6.936106 6.736956 4.324449
C 0.110829 6.918066 3.651310
C 0.445118 7.482056 3.788376
C 0.402399 7.075148 4.164446
C 0.124161 7.490664 4.572417
C 0.875813 6.842582 4.087180
C 1.639267 7.141483 4.187861
C 1.258401 6.975701 4.434405
C 1.270075 7.438532 4.533479
C 1.967640 6.943615 3.769768
C 2.393885 7.245990 3.935581
C 2.413090 7.172782 4.693876
C 2.090082 7.302372 4.403784
C 2.978278 6.857621 4.003207
C 3.649534 7.438145 3.873616
C 3.397736 7.142419 4.642418
C 2.933897 7.422090 4.491592
C 3.991048 7.129870 3.718372
C 4.706615 7.436029 4.244727
C 4.398974 7.210300 4.478186
C 3.967870 7.442876 4.660894
C 5.163207 6.909724 3.894120
C 5.477766 7.268140 4.025223
C 5.504154 7.222268 4.538446
C 5.028886 7.395989 4.572431
C 5.819039 6.860991 3.766115
C 6.548112 7.360184 3.966007
C 6.387708 6.861478 4.574358
C 6.124092 7.464279 4.276586
C 7.143979 7.032270 3.801601
C 7.483340 7.456999 4.106359
C 7.421293 6.816911 4.549796
C 7.215562 7.451406 4.594865
C 0.239041 0.229323 5.204573
C 0.526355 0.711614 5.060782
C 0.565017 0.271997 5.758349
C 0.173393 0.699490 5.640445
C 0.986799 0.031665 5.046835
C 1.609419 0.504147 4.994832
C 1.591415 0.386214 5.452101
C 1.203731 0.536146 5.626184
C 1.832881 0.145613 4.697050
C 2.529694 0.546555 4.743423
C 2.620332 0.047672 5.187521
C 2.070928 0.332204 5.376261
C 3.265595 0.274738 4.922007
C 3.608926 0.408998 4.674209
C 3.316616 0.054365 5.386950
C 2.809154 0.452930 5.424612
C 3.909558 0.254727 4.972573
C 4.374199 0.531133 4.934085
C 4.597579 0.207563 5.429667
C 4.049150 0.588156 5.292771
C 5.019027 0.002522 5.351042
C 5.440379 0.349874 4.908731
C 5.343406 0.264672 5.672521
C 5.163113 0.677689 5.542409
C 5.869850 0.202626 4.909307
C 6.563677 0.298123 4.822533
C 6.647119 0.134440 5.706763
C 5.855464 0.408286 5.337963
C 7.214573 0.016871 5.151795
C 7.479806 0.466909 4.952604
C 7.339975 0.218877 5.675997
C 7.020210 0.410787 5.307301
C 0.024411 0.796118 5.014199
C 0.358333 1.473583 5.082401
C 0.323729 1.095955 5.390852
C 0.335052 1.602689 5.520839
C 1.071807 0.886383 4.885309
C 1.563120 1.462851 5.142448
C 1.322661 0.953941 5.402346
C 0.777463 1.388814 5.297031
C 2.082519 0.767241 5.060562
C 2.513907 1.452677 4.798456
C 2.671823 1.008713 5.391894
C 2.039476 1.569059 5.720217
C 2.928690 0.786042 4.772281
C 3.348244 1.323740 4.986727
C 3.648669 1.165794 5.505337
C 2.983303 1.445207 5.624333
C 3.680370 0.913335 5.000919
C 4.411351 1.504730 4.879285
C 4.338213 0.802506 5.546746
C 4.091474 1.342220 5.465680
C 5.025010 1.043395 5.049961
C 5.543039 1.715968 5.015408
C 5.437284 1.039666 5.292682
C 5.168827 1.490773 5.354617
C 5.860390 1.052337 5.089174
C 6.620695 1.653482 4.898372
C 6.555852 1.100393 5.294441
C 5.752518 1.409390 5.359502
C 6.915759 1.184879 5.012822
C 7.455310 1.541899 4.901804
C 7.393571 0.940194 5.517627
C 6.970915 1.724625 5.325757
C 0.071260 1.943663 4.783704
C 0.302174 2.494903 4.874788
C 0.372833 1.955350 5.288866
C 0.021901 2.620307 5.573162
C 1.108371 1.818730 5.009756
C 1.660890 2.468835 4.985165
C 1.261192 1.818877 5.469668
C 0.994417 2.533944 5.456730
C 1.968038 1.982746 5.193931
C 2.228982 2.648803 5.095680
C 2.307643 1.826562 5.459788
C 1.961893 2.580412 5.523169
C 2.757714 2.066532 5.145896
C 3.574384 2.262047 4.972926
C 3.389516 1.774362 5.439007
C 3.147437 2.377785 5.224959
C 4.095038 1.919248 4.855077
C 4.321934 2.443503 5.175567
C 4.530064 1.957131 5.189263
C 3.884219 2.286343 5.468945
C 5.092562 1.821617 4.815408
C 5.632100 2.269902 4.832973
C 5.675812 1.826370 5.509908
C 5.050628 2.680191 5.406011
C 5.944970 2.067180 5.118333
C 6.614542 2.631274 5.071617
C 6.477140 1.818039 5.288284
C 6.136322 2.570033 5.434826
C 6.996427 2.033940 4.756489
C 7.353725 2.232795 5.067221
C 7.420873 1.704561 5.419930
C 6.965459 2.284329 5.530976
C 0.047319 3.146381 4.866637
C 0.394934 3.563869 5.038648
C 0.474838 2.920939 5.697452
C 0.028295 3.473510 5.308861
C 0.962984 2.853181 5.106545
C 1.576556 3.379602 5.083129
C 1.542167 2.920378 5.278969
C 0.848327 3.421535 5.493642
C 1.951874 3.091549 5.276525
C 2.472921 3.677395 4.937833
C 2.371391 3.037528 5.446406
C 1.698996 3.527825 5.625155
C 3.086680 3.135765 5.154756
C 3.524658 3.297864 5.019673
C 3.221266 2.890138 5.506938
C 3.056885 3.534230 5.404020
C 4.015346 3.209162 5.015638
C 4.439906 3.665224 5.006219
C 4.603858 2.991357 5.618391
C 4.086194 3.572506 5.537178
C 5.146175 3.183650 5.005619
C 5.571166 3.178130 4.949943
C 5.544889 2.804946 5.350900
C 5.098523 3.442816 5.436927
C 5.982049 2.989407 5.088032
C 6.313069 3.469012 4.993766
C 6.485437 2.883695 5.529418
C 5.905715 3.585397 5.232269
C 6.822822 2.890059 4.787859
C 7.153873 3.622816 4.901764
C 7.471334 2.918898 5.474394
C 7.053815 3.666505 5.639753
C 0.107109 3.931752 4.947174
C 0.515471 4.701769 5.018243
C 0.551913 3.806127 5.404949
C 0.276567 4.671014 5.412233
C 0.792945 3.963811 4.749143
C 1.703116 4.379702 5.065044
C 1.670767 3.967502 5.606630
C 0.756431 4.402214 5.660028
C 1.955193 3.926478 5.160136
C 2.508487 4.453172 4.956527
C 2.364930 3.780921 5.423537
C 2.016921 4.297746 5.462427
C 3.153245 4.121066 5.028376
C 3.723183 4.624089 4.906425
C 3.449034 3.838361 5.556947
C 2.931221 4.619731 5.755247
C 3.856068 4.020763 4.801512
C 4.566382 4.548445 4.961820
C 4.409725 3.903087 5.644721
C 4.040052 4.371136 5.262263
C 4.834870 4.089467 5.035276
C 5.442243 4.627424 4.913424
C 5.725229 3.903882 5.639313
C 5.018282 4.487552 5.656563
C 5.834712 4.046832 4.846178
C 6.598652 4.524300 4.959686
C 6.577499 3.863030 5.255576
C 5.991520 4.460748 5.418859
C 7.204388 4.127108 5.080744
C 7.206903 4.530469 4.912155
C 7.286070 4.178865 5.594648
C 7.234695 4.669156 5.339897
C 0.077799 4.886614 5.008922
C 0.673181 5.507053 4.764291
C 0.604805 4.976308 5.817581
C 0.011091 5.677587 5.530592
C 0.836264 5.168953 4.993651
C 1.190784 5.495068 5.071099
C 1.358192 5.159936 5.571830
C 0.872585 5.316081 5.629387
C 1.951710 5.121555 5.175658
C 2.442859 5.185322 5.032075
C 2.472987 5.120260 5.524104
C 1.793413 5.638283 5.513728
C 3.014532 4.946115 5.012647
C 3.323891 5.656919 4.781752
C 3.439189 4.850358 5.675308
C 2.836569 5.464296 5.367463
C 4.010956 5.062578 4.854238
C 4.665296 5.633814 4.929787
C 4.698378 4.919546 5.336904
C 3.949875 5.723763 5.539532
C 4.864083 5.107952 4.832730
C 5.496061 5.566806 5.122721
C 5.554969 4.993265 5.466590
C 5.119534 5.237020 5.394293
C 6.219853 5.060145 5.052234
C 6.514624 5.354326 4.819019
C 6.420019 5.216822 5.598655
C 6.018612 5.560714 5.409267
C 7.119618 5.195008 4.825476
C 7.230906 5.303097 5.222067
C 7.435893 5.093154 5.623458
C 6.869359 5.256811 5.600490
C 0.131218 6.122755 4.831793
C 0.476265 6.358914 5.200494
C 0.348332 5.961762 5.682611
C 0.148658 6.336669 5.517865
C 0.964480 6.274089 5.149667
C 1.352421 6.308711 4.957045
C 1.390891 5.932181 5.447165
C 0.952783 6.677009 5.394471
C 2.122742 6.124806 4.725649
C 2.513745 6.310170 5.236962
C 2.584355 5.905416 5.483717
C 2.098840 6.504527 5.720274
C 2.832584 5.923914 4.843957
C 3.362564 6.551564 4.713595
C 3.548929 5.970291 5.440991
C 2.992738 6.437364 5.313969
C 4.033815 6.149000 4.874081
C 4.360269 6.515614 5.173918
C 4.565306 5.897993 5.287114
C 4.224998 6.545031 5.609644
C 4.981274 5.896431 5.115884
C 5.321019 6.659928 4.919609
C 5.614779 6.032782 5.518772
C 4.815742 6.517999 5.341370
C 5.637284 6.010571 4.938476
C 6.237210 6.441414 4.846609
C 6.643503 6.145895 5.729579
C 5.935379 6.626439 5.170097
C 7.108429 6.017270 4.991853
C 7.373369 6.341331 5.239349
C 7.430754 5.968929 5.532244
C 6.853452 6.515965 5.238439
C 0.003220 6.887638 5.161395
C 0.664648 7.306778 4.912563
C 0.516141 6.762668 5.540501
C 0.186117 7.476583 5.158026
C 1.202265 6.803566 4.854686
C 1.494925 7.327070 4.953482
C 1.405042 6.937073 5.355948
C 0.995971 7.366240 5.604369
C 2.026825 7.088834 5.088468
C 2.725381 7.360770 4.924608
C 2.289200 7.048522 5.549211
C 1.947907 7.469226 5.360893
C 2.858674 6.792801 4.968102
C 3.212204 7.471160 4.884470
C 3.409965 6.921067 5.439494
C 3.119585 7.345457 5.659357
C 4.065105 6.948199 4.806384
C 4.459601 7.318822 4.940670
C 4.503610 6.939970 5.520892
C 4.075077 7.475854 5.548584
C 4.864562 6.978901 5.127901
C 5.206211 7.393076 5.016777
C 5.440446 7.040019 5.448213
C 4.927013 7.343269 5.421187
C 6.154619 7.209177 5.093349
C 6.397983 7.451612 4.736903
C 6.505131 7.065492 5.631664
C 5.826363 7.214853 5.595886
C 7.095028 7.001337 4.805851
C 7.451165 7.423742 5.031403
C 7.445681 6.856827 5.335045
C 6.917169 7.466766 5.347573
C 0.179697 0.077914 5.727610
C 0.323406 0.607385 6.061945
C 0.358634 0.054598 6.464147
C 0.013942 0.529869 6.617784
C 1.020326 0.032471 6.004020
C 1.342573 0.499876 6.205678
C 1.752413 0.022967 6.705253
C 1.058556 0.802079 6.614796
C 2.151682 0.200757 5.824512
C 2.708334 0.367169 5.868338
C 2.505666 0.163558 6.526695
C 1.889779 0.554581 6.504484
C 2.925141 0.179098 6.302844
C 3.388433 0.306042 5.869108
C 3.300333 0.073244 6.558484
C 2.824527 0.672434 6.245049
C 3.722492 0.104831 6.099154
C 4.617245 0.572992 5.857295
C 4.467013 0.469981 6.393851
C 4.095192 0.580897 6.639509
C 4.863106 0.110186 5.970424
C 5.480590 0.492803 6.235159
C 5.578097 0.007260 6.277631
C 4.999377 0.446572 6.267211
C 5.830931 0.099185 5.865732
C 6.626621 0.480391 6.042454
C 6.553771 0.095054 6.530929
C 5.906903 0.388813 6.434490
C 7.129406 0.150653 6.082332
C 7.497930 0.521850 6.131108
C 7.456020 0.104666 6.424249
C 6.872423 0.418385 6.464126
C 0.133923 1.338638 5.846863
C 0.355331 1.333959 6.200935
C 0.288831 0.926376 6.478366
C 0.071623 1.327423 6.701083
C 1.017115 0.841335 6.140070
C 1.338380 1.467840 6.112837
C 1.664142 1.087841 6.428606
C 1.189280 1.344261 6.601217
C 2.021826 1.120072 5.811384
C 2.703339 1.525278 6.105349
C 2.386330 0.998239 6.249784
C 1.944762 1.438426 6.512160
C 3.041507 1.131689 5.987033
C 3.376554 1.527661 6.109929
C 3.339590 0.792203 6.407693
C 3.011916 1.636028 6.421062
C 3.972022 0.929180 5.972814
C 4.402268 1.350470 5.949611
C 4.634889 0.884091 6.589907
C 4.196540 1.593798 6.611975
C 5.034738 0.989808 6.177770
C 5.394213 1.402096 5.892997
C 5.427433 1.027683 6.422804
C 5.059763 1.509116 6.217936
C 5.974193 1.082886 5.744603
C 6.327439 1.663097 6.195125
C 6.654723 0.752003 6.713835
C 5.845246 1.749286 6.339213
C 6.949808 0.855996 6.208925
C 7.323833 1.539291 5.990561
C 7.482136 1.142101 6.656054
C 6.764804 1.261889 6.332239
C 0.126984 2.141746 5.794874
C 0.620941 2.549810 6.171769
C 0.559681 1.664956 6.554248
C 0.119749 2.242628 6.465427
C 0.819730 1.867829 6.254975
C 1.589876 2.401747 5.825034
C 1.434355 1.938769 6.496513
C 0.895672 2.674000 6.697022
C 2.106076 2.150825 5.954643
C 2.556119 2.614367 5.830519
C 2.422156 2.184696 6.315071
C 1.771954 2.720994 6.447945
C 2.859806 2.204358 5.943148
C 3.378228 2.550943 5.761365
C 3.398861 2.239661 6.653586
C 2.925771 2.702285 6.524993
C 4.058611 1.888800 5.807094
C 4.589321 2.340061 5.982138
C 4.400408 2.064603 6.396446
C 3.960617 2.739661 6.498968
C 5.065193 1.941655 6.176684
C 5.316334 2.379706 5.867911
C 5.301030 1.931262 6.703169
C 4.942118 2.625104 6.773477
C 5.998133 2.061140 5.725224
C 6.565937 2.444932 5.778123
C 6.669152 1.779101 6.468456
C 6.061566 2.442128 6.725661
C 7.144175 2.160990 5.963308
C 7.209814 2.662468 5.919669
C 7.473219 2.093048 6.339811
C 6.756027 2.284983 6.564999
C 0.047389 3.135664 5.697393
C 0.376412 3.564997 5.943184
C 0.498800 2.898110 6.455710
C 0.017655 3.542264 6.411687
C 1.096748 3.091920 5.837187
C 1.445394 3.521398 6.335577
C 1.381342 2.871972 6.673219
C 0.833639 3.427473 6.404113
C 1.936051 3.081408 6.196773
C 2.512439 3.270326 6.233166
C 2.342345 2.871499 6.295868
C 1.985550 3.700401 6.702750
C 2.775787 2.919064 6.122195
C 3.720426 3.437282 5.882814
C 3.368803 2.770209 6.552433
C 2.792093 3.484710 6.599154
C 3.878999 3.020443 5.837016
C 4.594267 3.634360 6.061566
C 4.497189 2.944194 6.709434
C 4.086931 3.224578 6.518120
C 5.052823 2.808996 5.835942
C 5.533945 3.278076 5.809520
C 5.604198 3.133702 6.314836
C 4.905843 3.556134 6.497455
C 6.176538 2.751807 6.043807
C 6.519933 3.279417 5.962346
C 6.714442 2.897787 6.475491
C 6.093459 3.358508 6.573615
C 7.023034 3.063334 5.819863
C 7.313324 3.294372 6.097561
C 7.298849 2.988531 6.608438
C 6.790014 3.460175 6.517522
C 0.170932 3.961163 5.656449
C 0.430262 4.276849 6.145021
C 0.680933 3.901402 6.537252
C 0.135669 4.272851 6.498279
C 0.883250 4.073304 6.008614
C 1.403219 4.686756 5.897494
C 1.569245 3.886969 6.680814
C 0.973605 4.681839 6.546054
C 2.072108 3.815146 6.133101
C 2.531998 4.490903 6.140769
C 2.416394 3.835224 6.473671
C 2.136312 4.346662 6.676942
C 2.836231 4.093613 6.004259
C 3.482254 4.300428 6.084775
C 3.770109 3.959230 6.385031
C 2.964663 4.459619 6.405802
C 3.859306 4.028719 5.870296
C 4.346009 4.602553 5.941913
C 4.519457 3.850695 6.484423
C 3.893994 4.462622 6.353325
C 4.986948 4.010865 6.245464
C 5.539723 4.521810 6.201334
C 5.507513 4.127173 6.635080
C 4.765189 4.668041 6.609563
C 6.059483 4.189284 6.005096
C 6.498033 4.619570 6.210658
C 6.483644 4.121991 6.363820
C 5.892188 4.363258 6.542219
C 6.882249 4.168254 6.125285
C 7.412182 4.347436 6.009819
C 7.295042 3.778175 6.348298
C 7.150395 4.303022 6.520751
C 0.015270 5.080962 6.239891
C 0.312769 5.273865 5.932312
C 0.321946 5.028753 6.609913
C 0.112914 5.639171 6.749362
C 0.967454 4.789371 6.106669
C 1.292617 5.525145 6.063370
C 1.269859 5.031873 6.548006
C 0.872876 5.691074 6.468510
C 2.064833 5.063760 5.994078
C 2.560521 5.618663 5.920940
C 2.247763 5.110174 6.457398
C 1.985864 5.645735 6.552387
C 2.938491 5.100960 5.890696
C 3.417823 5.301018 5.887991
C 3.661734 4.813792 6.613508
C 3.038435 5.529727 6.370421
C 3.993366 4.963616 5.841491
C 4.644436 5.359273 5.791565
C 4.302949 5.086328 6.627262
C 4.199133 5.645615 6.416208
C 4.965040 4.954944 5.846812
C 5.447198 5.447090 6.233090
C 5.629008 4.989275 6.315949
C 5.037909 5.567749 6.231068
C 6.110407 4.978015 6.057364
C 6.654484 5.678634 5.989975
C 6.675142 5.154225 6.594644
C 5.755358 5.466874 6.598800
C 6.985367 4.860367 5.852868
C 7.472718 5.421306 6.212331
C 7.306871 4.895889 6.636740
C 7.126077 5.316428 6.545687
C 0.229800 5.761496 6.202318
C 0.385115 6.610772 6.010792
C 0.505224 6.101460 6.838029
C 0.053935 6.731929 6.578433
C 1.335124 6.011529 5.948279
C 1.667463 6.553905 6.144285
C 1.578862 5.840142 6.618732
C 0.867045 6.491644 6.631271
C 2.031413 5.955597 6.205592
C 2.531409 6.515068 5.736345
C 2.556566 5.966167 6.600600
C 2.083679 6.417905 6.454236
C 2.985427 6.050162 5.853820
C 3.575713 6.562765 5.743009
C 3.380868 5.928665 6.607067
C 2.976329 6.379199 6.615658
C 4.014963 6.070202 6.098095
C 4.463093 6.471741 6.110911
C 4.676998 6.198709 6.394666
C 3.851054 6.241105 6.584848
C 5.151865 6.123630 6.101080
C 5.279833 6.571736 6.039007
C 5.565284 5.932875 6.340215
C 5.132068 6.469264 6.564440
C 6.132731 6.012394 5.836317
C 6.638875 6.779916 5.984652
C 6.729224 6.010903 6.586620
C 5.852094 6.628202 6.477992
C 6.889768 6.122400 6.131524
C 7.203970 6.579958 5.885268
C 7.480472 6.323342 6.477291
C 6.840485 6.537060 6.499024
C 0.144606 7.107606 6.205176
C 0.606568 7.415406 5.833556
C 0.664283 7.049110 6.540371
C 0.025417 7.487305 6.619797
C 0.828042 7.036034 6.103781
C 1.514198 7.420303 6.003038
C 1.492740 7.270846 6.530408
C 1.021989 7.445980 6.484980
C 2.238191 6.908953 6.019869
C 2.538043 7.454067 5.939770
C 2.604348 6.768644 6.544308
C 1.905221 7.240696 6.434055
C 2.941916 6.910387 5.785622
C 3.647927 7.464158 5.868039
C 3.604237 7.054422 6.492847
C 2.760856 7.354777 6.461264
C 3.914880 6.832605 6.013956
C 4.178791 7.253070 5.974239
C 4.358768 6.942560 6.461705
C 4.030083 7.274780 6.631626
C 4.821101 7.177813 6.109889
C 5.332107 7.186940 6.004767
C 5.381669 6.843248 6.399819
C 4.865037 7.385232 6.591276
C 6.186523 7.074276 6.048643
C 6.391449 7.495416 6.181755
C 6.511648 6.922174 6.389206
C 5.866784 7.481536 6.580330
C 6.983742 7.269864 6.060640
C 7.440103 7.420043 6.353301
C 7.229962 6.810886 6.466685
C 6.824649 7.336498 6.474509
C 0.400247 0.289612 6.888812
C 0.599283 0.700184 6.827427
C 0.496855 0.332542 7.478432
C 0.037811 0.246884 7.418295
C 0.977717 0.175115 7.027124
C 1.490219 0.430235 6.889599
C 1.735967 0.121503 7.327995
C 0.914852 0.823997 7.448238
C 2.062674 0.284468 6.965301
C 2.695039 0.539447 7.279574
C 2.242263 0.200224 7.401474
C 2.017663 0.674785 7.210025
C 2.887272 0.258178 6.893618
C 3.230768 0.545141 6.993552
C 3.367959 0.055762 7.216668
C 3.088537 0.686093 7.478851
C 4.070514 0.014991 7.075615
C 4.695411 0.873735 7.133354
C 4.214389 0.526974 7.313408
C 3.727363 0.453541 7.268395
C 4.740942 0.193263 6.846974
C 5.403552 0.733400 7.097124
C 5.641153 0.159466 7.370309
C 4.946817 0.473173 7.330675
C 6.086287 0.044212 7.056190
C 6.411547 0.459029 7.238008
C 6.576591 0.009647 7.169542
C 5.987722 0.634699 7.350698
C 7.001636 0.059727 6.857803
C 7.251123 0.554085 6.861644
C 7.404272 0.106909 7.068361
C 7.210508 0.624622 7.403859
C 0.089125 0.865241 7.199310
C 0.500765 1.736354 7.163071
C 0.526076 1.194138 7.296389
C 0.104881 1.606746 7.065438
C 0.989957 0.665312 7.056088
C 1.581092 1.236848 6.967687
C 1.408152 1.050099 7.351065
C 0.997012 1.368990 7.386972
C 2.096414 1.303630 6.965509
C 2.708255 1.702844 6.861795
C 2.511439 1.005270 7.131082
C 1.819554 1.469022 7.335761
C 3.068732 0.904828 6.760048
C 3.650334 1.544248 6.865371
C 3.366085 1.032156 7.335679
C 2.943809 1.398764 7.484445
C 4.005802 1.083960 6.740889
C 4.508323 1.360723 7.008561
C 4.232938 1.188698 7.352015
C 4.163667 1.637512 7.418357
C 5.051576 1.158362 6.823870
C 5.673202 1.656793 6.748468
C 5.711611 1.025729 7.332251
C 5.141757 1.556469 7.365781
C 6.164042 1.175230 7.089930
C 6.455924 1.517404 7.177854
C 6.363707 0.945973 7.477351
C 6.093369 1.423517 7.487832
C 6.942243 1.153650 6.785376
C 7.425762 1.501133 7.152730
C 7.162624 1.047026 7.435136
C 6.861348 1.696081 7.266291
C 0.116331 1.772723 6.504902
C 0.533593 2.284459 6.833115
C 0.575901 2.125535 7.444207
C 0.240980 2.687822 7.044074
C 0.987153 1.977634 7.254397
C 1.587675 2.748550 7.105610
C 1.400314 1.837519 7.298374
C 0.832116 2.626122 7.478585
C 1.898516 1.966439 7.150911
C 2.553042 2.320708 7.116737
C 2.742466 2.066021 7.492572
C 2.270482 2.344422 7.484921
C 2.984664 2.052035 7.095897
C 3.409931 2.539137 7.130437
C 3.819335 2.018700 7.425952
C 2.913121 2.558452 7.386158
C 3.789122 2.097301 6.977409
C 4.543679 2.399776 6.838310
C 4.367222 2.252902 7.384013
C 3.749761 2.671196 7.452891
C 4.891646 1.999523 7.123801
C 5.556489 2.468679 6.757740
C 5.603116 2.015734 7.342950
C 4.764796 2.531011 7.339225
C 6.082150 1.895052 6.892847
C 6.662380 2.415051 7.128478
C 6.496480 2.088671 7.403222
C 5.736512 2.506973 7.382826
C 6.670447 1.978284 6.970079
C 7.225288 2.565951 6.522189
C 7.281553 2.201197 7.211637
C 6.983960 2.705253 7.364717
C 0.014821 3.118619 6.707272
C 0.504583 3.701013 6.985275
C 0.638468 3.057050 7.436321
C 0.070370 3.303283 7.373056
C 1.053740 2.871884 7.065632
C 1.776644 3.492338 7.053250
C 1.762629 3.183384 7.457387
C 0.777750 3.566373 7.339282
C 1.867617 3.168452 6.782670
C 2.528025 3.583588 7.027023
C 2.513274 3.106347 7.450150
C 2.110727 3.769591 7.299268
C 2.916975 3.084167 6.912429
C 3.522773 3.488273 7.053720
C 3.579594 3.250377 7.435572
C 2.881668 3.526580 7.444799
C 4.092968 3.238165 6.945572
C 4.385091 3.797196 6.942958
C 4.556637 3.087044 7.221469
C 3.928158 3.595820 7.326535
C 4.940540 3.068533 6.963311
C 5.732608 3.411464 7.075358
C 5.695475 2.972707 7.393993
C 5.056687 3.593530 7.390233
C 6.200298 2.794903 7.005067
C 6.236204 3.616850 6.922602
C 6.397883 2.681013 7.458245
C 6.033050 3.909077 7.462438
C 6.933258 2.878188 6.881820
C 7.155822 3.740833 6.770572
C 7.355033 2.987364 7.338076
C 7.101408 3.384710 7.406437
C 0.287298 4.088838 6.890412
C 0.412127 4.668490 7.116406
C 0.308801 4.252163 7.314901
C 0.131319 4.719369 7.472867
C 0.972024 4.077419 7.214470
C 1.310098 4.344393 7.029000
C 1.346525 4.008140 7.484169
C 0.876794 4.525004 7.168425
C 1.745294 3.939510 7.165480
C 2.241486 4.649323 7.081324
C 2.411606 4.173104 7.253228
C 1.780406 4.807592 7.446476
C 3.062810 3.998271 6.798929
C 3.411934 4.409084 7.100492
C 3.300090 3.885348 7.281987
C 3.011908 4.314431 7.469490
C 3.810698 4.052213 6.810920
C 4.651474 4.508513 7.131252
C 4.603554 4.088794 7.370682
C 4.303253 4.523439 7.444913
C 4.958235 4.124941 7.053057
C 5.737786 4.370995 6.984450
C 5.505445 3.752409 7.316614
C 5.263212 4.254785 7.406057
C 6.193412 4.145884 6.970389
C 6.686679 4.467467 6.895706
C 6.630339 3.898775 7.214332
C 5.894785 4.693083 7.287197
C 7.056742 4.087210 7.010808
C 7.314768 4.669830 7.089369
C 7.181320 4.108177 7.475065
C 6.716134 4.628834 7.481970
C 0.231004 5.149847 7.038986
C 0.439693 5.658283 7.136590
C 0.857796 4.967024 7.334069
C 0.036060 5.532791 7.283007
C 0.861865 5.102912 6.917068
C 1.289204 5.374328 6.887015
C 1.406975 5.133438 7.464587
C 1.127212 5.480191 7.352387
C 2.185809 5.138223 7.027176
C 2.540746 5.459172 6.890149
C 2.210106 4.967499 7.461883
C 1.892252 5.313127 7.410245
C 3.033290 4.995612 6.909840
C 3.152529 5.611364 6.971774
C 3.429527 5.118925 7.225545
C 3.176048 5.456220 7.479468
C 3.941626 5.252874 6.898448
C 4.356191 5.686459 7.118262
C 4.498371 5.296592 7.430712
C 4.038527 5.450719 7.453301
C 4.829520 5.030293 7.216167
C 5.336338 5.656909 7.012766
C 5.378776 5.196472 7.394197
C 4.745918 5.730185 7.349357
C 6.161009 4.903130 6.998271
C 6.354851 5.455036 7.026952
C 6.342041 4.426850 7.383228
C 5.921628 5.517036 7.334392
C 6.871573 5.049294 7.051215
C 7.414336 5.780077 6.771063
C 7.394310 5.206888 7.445349
C 6.976000 5.525974 7.029841
C 0.050383 6.072576 6.868522
C 0.440124 6.558041 6.712320
C 0.696041 6.122094 7.387766
C 0.147609 6.327205 7.341760
C 0.961269 6.044970 6.831708
C 1.275797 6.450127 6.939880
C 1.547213 5.869489 7.328882
C 0.662026 6.641208 7.476013
C 2.169214 6.125962 6.841205
C 2.485644 6.570664 7.009991
C 2.406004 6.087720 7.412069
C 2.157253 6.559703 7.441863
C 2.694590 6.143277 7.055568
C 3.347869 6.363829 7.124335
C 3.340187 6.017516 7.494941
C 2.908129 6.170522 7.479812
C 4.111082 5.870524 6.815367
C 4.545441 6.450681 7.012454
C 4.340825 6.008807 7.453427
C 3.908793 6.457748 7.288098
C 5.101612 6.064748 7.006268
C 5.624946 6.331635 7.189254
C 5.324658 6.008296 7.470321
C 5.121420 6.431728 7.305347
C 6.044397 6.106431 7.150562
C 6.443675 6.644552 6.838320
C 6.511755 5.774900 7.490930
C 6.164802 6.427525 7.459485
C 7.133116 5.941210 7.119082
C 7.438196 6.520733 6.974900
C 7.367897 6.061625 7.489399
C 7.064272 6.555463 7.377624
C 0.342833 7.125325 7.034796
C 0.743042 7.456633 6.963962
C 0.774826 7.100142 7.300926
C 0.254288 7.496913 7.363720
C 0.952501 6.775550 7.055023
C 1.255738 7.466752 6.909886
C 1.426203 6.876873 7.417859
C 1.306269 7.383670 7.338208
C 1.890849 6.869254 7.226725
C 2.812976 7.359574 7.039690
C 2.662842 6.784781 7.467426
C 2.202104 7.214317 7.270373
C 2.891860 6.845799 6.925713
C 3.659858 7.325990 6.959078
C 3.832749 7.040582 7.291766
C 2.686168 7.438952 7.441266
C 4.249561 6.936173 6.914103
C 4.276786 7.276968 7.252581
C 4.339602 6.727420 7.407698
C 3.672738 7.499669 7.435540
C 4.859843 7.223300 7.100382
C 5.273302 7.408941 6.882961
C 5.390447 6.923144 7.428876
C 5.223134 7.361487 7.478279
C 6.211094 7.041781 6.990137
C 6.856706 7.323022 6.900255
C 6.161439 7.017033 7.483024
C 5.770688 7.461376 7.374707
C 7.013108 6.845938 6.887403
C 7.340981 7.483871 7.065733
C 7.243014 6.992100 7.309184
C 6.716406 7.434657 7.279162
2048
Frame 10/10
C 0.213513 0.239168 0.252840
C 0.535055 0.391124 0.017730
C 0.427558 0.074530 0.619678
C 0.039545 0.769032 0.624484
C 0.840744 0.021210 0.037295
C 1.261508 0.712058 0.270293
C 1.477102 0.134865 0.463482
C 1.079140 0.471533 0.717522
C 1.890244 0.009549 0.005487
C 2.612394 0.449947 0.154603
C 2.754410 0.138514 0.600553
C 2.122603 0.400681 0.672935
C 3.308162 0.088696 0.313297
C 3.279804 0.562866 0.114565
C 3.796838 0.280687 0.340834
C 3.067948 0.564551 0.845834
C 4.489608 0.004920 0.023570
C 4.273927 0.731062 0.099463
C 4.631266 0.130499 0.655497
C 4.122529 0.404523 0.693628
C 5.267511 0.174064 0.001738
C 5.322558 0.785377 0.207563
C 5.695538 0.092712 0.489200
C 4.992084 0.308624 0.399242
C 5.731002 0.301849 0.047840
C 6.464411 0.721892 0.065164
C 6.469115 0.049119 0.622640
C 6.053952 0.493600 0.481480
C 7.331222 0.020958 0.070910
C 7.335049 0.743088 0.320602
C 7.125567 0.105649 0.668293
C 6.854762 0.582777 0.478495
C 0.223580 0.741737 0.216023
C 0.767107 1.663372 0.031948
C 0.402898 1.152671 0.488567
C 0.273290 1.468706 0.196657
C 1.019858 0.969972 0.028186
C 1.519381 1.603398 0.108678
C 1.720489 1.325576 0.554657
C 0.980878 1.539164 0.739220
C 1.835406 1.162311 0.033906
C 2.703813 1.613816 0.033839
C 2.616420 0.827953 0.637116
C 2.141476 1.457691 0.209461
C 2.842843 0.821353 0.009139
C 3.237133 1.652691 0.447614
C 3.531320 0.658017 0.454643
C 2.841048 1.364679 0.357298
C 3.816218 1.178403 0.338140
C 4.459598 1.401929 0.000676
C 4.780389 1.012080 0.430290
C 3.841522 1.618152 0.373717
C 5.097208 1.338520 0.081409
C 5.412313 1.647661 0.171376
C 5.741575 1.111870 0.471537
C 5.104637 1.479423 0.492445
C 5.860768 0.806662 0.179191
C 6.425867 1.582045 0.281797
C 6.342199 1.124262 0.215960
C 6.078304 1.651135 0.516571
C 6.802907 0.970563 0.144853
C 7.412214 1.652449 0.020014
C 7.209980 1.113206 0.489287
C 6.792626 1.730130 0.575351
C 0.238167 2.319075 0.041333
C 0.598311 2.672655 0.051318
C 0.394425 1.906336 0.286432
C 0.153065 2.196502 0.570119
C 0.914977 2.156423 0.109147
C 1.496061 2.445576 0.317044
C 1.681457 2.063807 0.433214
C 0.774721 2.303000 0.578860
C 2.118059 2.120229 0.263616
C 2.316825 2.456188 0.027104
C 2.657055 2.097253 0.895074
C 2.092695 2.802106 0.708316
C 2.830701 2.026949 0.273778
C 3.618472 2.777112 0.039852
C 3.175545 2.104572 0.514389
C 3.249199 2.728575 0.478534
C 4.122240 1.848611 0.112609
C 4.387190 2.379297 0.099995
C 4.252076 1.838833 0.617015
C 3.916268 2.670243 0.482927
C 5.196142 2.014019 0.141865
C 5.103553 2.525253 0.099317
C 5.640350 2.094285 0.552510
C 5.145884 2.827985 0.484237
C 5.875249 2.196215 0.125176
C 6.539038 2.480462 0.123791
C 6.622254 2.122993 0.793727
C 5.901213 2.511467 0.611085
C 6.622548 1.913280 0.052655
C 7.425724 2.423695 0.196667
C 7.256572 1.862191 0.478466
C 7.040649 2.322108 0.376147
C 0.352190 3.105268 0.142786
C 0.594206 3.935607 0.132953
C 0.541440 3.291262 0.560897
C 0.126194 3.160241 0.736727
C 0.944641 2.963081 0.141660
C 1.336829 3.740737 0.049578
C 1.372510 3.155527 0.453609
C 0.943300 3.384321 0.240639
C 1.809848 2.706205 0.098175
C 2.419000 3.822388 0.142703
C 2.674529 2.893768 0.396183
C 2.147834 3.409472 0.522516
C 2.927886 2.799961 0.020952
C 3.203941 3.577324 0.057249
C 3.257479 3.144648 0.604758
C 3.048937 3.595174 0.588460
C 3.928101 3.172298 0.051111
C 4.852656 3.528456 0.135245
C 4.663966 3.144836 0.306785
C 4.194743 3.678010 0.585002
C 5.270214 3.226609 0.278416
C 5.654775 3.641204 0.031026
C 5.779431 2.976483 0.623207
C 5.124464 3.641151 0.506737
C 5.670299 2.954162 0.002370
C 6.651875 3.296733 0.337181
C 6.167666 2.821794 0.409480
C 6.183819 3.253189 0.413033
C 7.099121 3.122163 0.023474
C 7.382419 3.695249 0.238441
C 7.340210 2.798305 0.417929
C 7.119140 3.449515 0.589984
C 0.140252 3.746743 0.316543
C 0.299749 4.432427 0.034240
C 0.700283 4.183683 0.487686
C 0.276914 4.440778 0.548133
C 1.023979 4.093916 0.175400
C 1.518423 4.170110 0.185997
C 1.298747 3.835663 0.464508
C 0.867275 4.576673 0.361486
C 1.981734 4.068125 0.327030
C 2.724478 4.554945 0.199938
C 2.411544 4.362809 0.525677
C 1.827102 4.722774 0.444705
C 2.821225 4.123471 0.068493
C 3.452928 4.442246 0.016735
C 3.416604 4.014711 0.201810
C 3.086344 4.262741 0.481946
C 3.908380 4.283221 0.045910
C 4.465047 4.491994 0.016958
C 4.748294 3.961939 0.505201
C 4.186526 4.670533 0.528045
C 4.947312 4.035550 0.116042
C 5.516436 4.411734 0.310517
C 5.554341 3.782758 0.470428
C 4.827202 4.695924 0.385234
C 6.079015 3.846701 0.257887
C 6.662897 4.543424 0.110993
C 6.335562 4.252632 0.465106
C 5.965513 4.471378 0.261725
C 6.733017 4.109788 0.171393
C 7.271396 4.710343 0.005661
C 7.306349 4.199386 0.333547
C 6.896021 4.759698 0.469706
C 0.048419 4.897381 0.416157
C 0.423002 5.699456 0.008235
C 0.685716 5.143466 0.773674
C 0.076029 5.500447 0.694817
C 0.885058 5.123242 0.151284
C 1.173124 5.708379 0.167914
C 1.586613 5.297519 0.376010
C 0.806013 5.555035 0.358214
C 2.211225 5.338311 0.094794
C 2.687730 5.578278 0.234210
C 2.615382 5.170278 0.419977
C 1.997183 5.418750 0.561420
C 2.954611 4.948704 0.270276
C 3.352729 5.280959 0.154253
C 3.397924 5.125683 0.652227
C 3.023496 5.473218 0.708226
C 3.854116 4.999311 0.312840
C 4.675308 5.670304 0.074668
C 4.568851 5.041553 0.706819
C 3.735073 5.454656 0.626872
C 5.127779 4.835176 0.110165
C 5.584563 5.555378 0.071699
C 5.522018 5.068641 0.166163
C 5.071360 5.444741 0.334764
C 6.118267 4.777922 0.008481
C 6.449817 5.208651 0.175989
C 6.437589 4.702688 0.498516
C 5.620066 5.537644 0.613335
C 6.915986 5.181045 0.044959
C 7.345098 5.686150 0.125738
C 7.302996 4.791632 0.721732
C 7.045497 5.608268 0.472488
C 0.005795 5.714062 0.203409
C 0.394374 6.475528 0.162530
C 0.620042 6.015261 0.462990
C 0.085109 6.273993 0.416266
C 0.817055 6.089358 0.090313
C 1.257857 6.243135 0.301644
C 1.852924 5.994046 0.391028
C 0.963152 6.317976 0.736463
C 1.990731 5.717447 0.059314
C 2.619037 6.421998 0.056880
C 2.607251 5.995349 0.366335
C 2.117588 6.527682 0.574099
C 3.210359 6.244183 0.143587
C 3.640366 6.164719 0.083015
C 3.297031 5.928624 0.437818
C 3.274804 6.540201 0.480772
C 4.052952 6.063093 0.355374
C 4.543522 6.687809 0.034455
C 4.623279 5.845943 0.546490
C 3.780646 6.603117 0.253867
C 4.996391 6.064678 0.022372
C 5.288956 6.650992 0.110343
C 5.159591 5.894632 0.615796
C 5.082044 6.355081 0.405664
C 6.206094 6.035952 0.082213
C 6.239935 6.689171 0.136122
C 6.633074 5.916110 0.330006
C 5.779832 6.506897 0.564385
C 7.115768 6.238245 0.071506
C 7.456243 6.814663 0.162987
C 7.298259 6.050277 0.851919
C 6.722431 6.505887 0.265669
C 0.298125 6.994910 0.001124
C 0.868280 7.434153 0.037787
C 0.335189 6.868836 0.408326
C 0.022502 7.460423 0.431992
C 0.890842 6.626752 0.073414
C 1.418726 6.958853 0.033163
C 1.672880 7.125266 0.636655
C 1.274758 7.286467 0.653594
C 2.270125 6.844259 0.279043
C 2.363720 7.269472 0.404886
C 2.269299 7.093852 0.810114
C 1.912667 7.348730 0.291990
C 3.382795 6.915659 0.090891
C 3.651861 7.348363 0.117384
C 3.337972 7.030553 0.561459
C 2.915124 7.492200 0.084989
C 4.302150 7.042321 0.178830
C 4.817113 7.483257 0.223849
C 4.361348 6.786249 0.539354
C 3.943182 7.413885 0.694393
C 4.957599 6.865636 0.295404
C 5.333272 7.430476 0.040126
C 5.688623 6.912949 0.345153
C 5.272212 7.379513 0.544831
C 5.769820 7.265919 0.114473
C 6.556577 7.420494 0.132002
C 6.699596 6.964527 0.550316
C 5.814831 7.458949 0.647760
C 7.003330 6.957205 0.039773
C 6.974279 7.289448 0.304697
C 7.154780 6.601323 0.542258
C 7.050810 7.315154 0.896821
C 0.021804 0.251813 0.838118
C 0.289488 0.527157 1.078271
C 0.418817 0.034483 1.532174
C 0.007970 0.431226 1.445360
C 1.070667 0.060205 1.022003
C 1.715606 0.522320 0.860551
C 1.611572 0.058767 1.739713
C 0.736480 0.636228 1.407971
C 2.185342 0.210803 1.150118
C 2.628014 0.272711 1.053065
C 2.626071 0.081629 1.634439
C 2.073213 0.811092 1.650952
C 3.102397 0.100201 0.935642
C 3.768660 0.714659 1.050955
C 3.753829 0.247968 1.391797
C 2.826833 0.539911 1.532869
C 3.777040 0.201182 0.949320
C 4.690823 0.250356 1.078469
C 4.114808 0.089935 1.590057
C 4.041710 0.749426 1.807524
C 5.270291 0.085605 0.755766
C 5.753127 0.396518 0.926271
C 5.302457 0.056863 1.481147
C 4.927554 0.287614 1.501009
C 5.925326 0.164492 1.342884
C 6.745480 0.426718 0.905666
C 6.589731 0.045208 1.838413
C 5.862489 0.851731 1.444966
C 6.813412 0.004180 1.326800
C 7.490880 0.297222 0.980611
C 7.128530 0.358111 1.256089
C 6.762885 0.432694 1.711418
C 0.156828 1.080446 0.891557
C 0.608504 1.507629 1.059015
C 0.366898 0.927537 1.275497
C 0.150896 1.294720 1.258713
C 0.886480 0.865937 0.848709
C 1.349138 1.445229 1.126588
C 1.417516 0.990607 1.721074
C 0.778046 1.511273 1.572956
C 1.684874 1.020074 0.930155
C 2.697662 1.581330 1.097350
C 2.518579 0.789083 1.275968
C 2.006767 1.339727 1.336210
C 2.952777 1.135922 0.934990
C 3.466586 1.435903 0.930099
C 3.688325 0.857323 1.583652
C 3.028863 1.432636 1.778025
C 4.021553 1.111451 1.080493
C 4.628349 1.589000 0.937843
C 4.480940 0.915997 1.470708
C 4.110770 1.585145 1.187680
C 4.734325 1.182866 1.070228
C 5.713140 1.575737 0.959275
C 5.721090 1.264450 1.723573
C 5.227429 1.416006 1.230885
C 6.161534 0.782450 0.989077
C 6.494403 1.699066 0.969502
C 6.460487 0.745792 1.434431
C 5.808741 1.627764 1.499137
C 7.190256 0.867672 0.989751
C 7.304120 1.586598 1.146302
C 7.383805 0.696864 1.543943
C 6.994100 1.714574 1.465228
C 0.152196 1.936533 1.322092
C 0.480992 2.209580 0.909096
C 0.609952 2.016573 1.708682
C 0.020528 2.433458 1.546714
C 1.150520 2.013776 0.937910
C 1.393017 2.532785 0.893277
C 1.452233 1.822630 1.634013
C 1.237661 2.418759 1.369586
C 2.156241 1.773637 0.903138
C 2.418332 2.517938 1.040310
C 2.320079 1.988242 1.442430
C 2.208531 2.499706 1.587572
C 3.231839 2.039133 1.066442
C 3.423007 2.420379 0.735510
C 3.784713 1.850533 1.568692
C 3.156120 2.250081 1.511449
C 3.966506 2.264098 0.853024
C 4.319207 2.529905 0.720144
C 4.267394 1.934507 1.432381
C 3.982816 2.542158 1.532536
C 4.881333 1.882779 1.190132
C 5.516683 2.697042 0.958362
C 5.359035 1.836253 1.298272
C 5.114525 2.188054 1.462036
C 5.737699 2.130793 1.021002
C 6.824403 2.582330 0.915561
C 6.620403 2.144003 1.569301
C 6.192041 2.402274 1.573658
C 6.886051 1.860975 1.040569
C 7.454122 2.791956 0.902112
C 7.416904 1.968336 1.763736
C 6.687187 2.653857 1.577219
C 0.133366 3.296800 1.143253
C 0.734750 3.315091 1.190797
C 0.600963 2.963659 1.744212
C 0.068700 3.809691 1.494692
C 1.101526 2.937646 0.883392
C 1.374101 3.466713 0.844534
C 1.390079 2.815974 1.264730
C 1.017196 3.169595 1.685422
C 1.974683 3.062538 1.191059
C 2.628972 3.698179 0.756424
C 2.492993 2.984634 1.431541
C 2.228497 3.437845 1.528267
C 2.910538 2.865570 1.312974
C 3.223134 3.306861 1.189759
C 3.539561 2.791132 1.371604
C 2.737737 3.689428 1.569526
C 3.892310 2.986578 0.880421
C 4.684700 3.574816 1.174352
C 4.409355 3.225379 1.273552
C 4.038959 3.598194 1.752176
C 5.006307 3.071019 0.983620
C 5.346379 3.641787 1.102780
C 5.474323 3.170273 1.446449
C 5.241826 3.666778 1.522387
C 5.899162 3.089665 1.095314
C 6.595489 3.191614 0.810707
C 6.097650 2.942674 1.444227
C 5.920471 3.372229 1.548757
C 6.945297 2.977300 0.617299
C 7.471086 3.258246 0.851858
C 7.260693 3.015335 1.470451
C 6.770205 3.689579 1.584356
C 0.112427 3.956823 0.752867
C 0.554186 4.701718 0.745604
C 0.754094 3.982208 1.663067
C 0.092997 4.559605 1.217528
C 1.240283 3.931478 1.164961
C 1.508163 4.453722 1.235174
C 1.591937 3.878944 1.537271
C 0.991877 4.700370 1.536046
C 2.112194 3.704748 0.886121
C 2.429000 4.735722 0.766054
C 2.388004 3.862707 1.382826
C 2.045798 4.621508 1.501973
C 2.855691 3.918558 1.145466
C 3.223807 4.292967 1.115635
C 3.605937 3.831095 1.627163
C 3.063223 4.380699 1.735315
C 3.953700 4.180853 1.139959
C 4.690948 4.451145 1.064894
C 4.229425 3.817403 1.367784
C 3.672341 4.360057 1.493954
C 5.084219 4.058492 1.150739
C 5.551540 4.168704 0.996255
C 5.347795 4.241029 1.498078
C 5.288263 4.684068 1.557500
C 5.834520 3.925898 1.324038
C 6.474456 4.306187 1.201174
C 6.323309 3.718617 1.661693
C 6.220678 4.487770 1.495726
C 6.816389 3.986557 1.057303
C 7.374549 4.244618 0.755645
C 7.287378 3.899140 1.619429
C 6.905147 4.237543 1.471385
C 0.157751 4.860613 0.838839
C 0.465790 5.751070 0.819056
C 0.498052 5.260337 1.293206
C 0.267770 5.425143 1.708235
C 0.934857 4.760457 0.974482
C 1.674381 5.743927 1.218378
C 1.394970 4.967325 1.398551
C 1.077996 5.558753 1.207752
C 2.189963 4.930817 1.195818
C 2.329296 5.699439 0.943900
C 2.579197 4.971918 1.721339
C 2.225005 5.460544 1.360757
C 3.018031 5.173392 1.149832
C 3.400670 5.515188 1.074907
C 3.409598 5.114200 1.421172
C 3.024384 5.307408 1.556149
C 3.741501 5.224996 1.011020
C 4.419205 5.486461 0.797630
C 4.666294 4.990448 1.700127
C 4.140908 5.465289 1.367763
C 5.177202 4.956054 1.197871
C 5.234303 5.349147 0.883956
C 5.587408 5.359622 1.288433
C 4.803352 5.542534 1.244307
C 5.941167 5.097877 1.250178
C 6.487096 5.699410 0.756711
C 6.480845 5.059893 1.231043
C 5.844654 5.645540 1.509817
C 7.253946 5.053163 1.093321
C 7.385436 5.494173 1.058158
C 7.274463 4.903988 1.800117
C 7.172773 5.402898 1.535162
C 0.082869 6.434157 0.905802
C 0.511170 6.405926 0.777579
C 0.410746 5.800319 1.505689
C 0.030175 6.340475 1.346363
C 0.939542 5.988246 1.190838
C 1.431798 6.349441 0.881339
C 1.384135 6.173631 1.271912
C 0.848795 6.342901 1.619853
C 1.964802 6.029256 0.803923
C 2.454594 6.717812 0.909930
C 2.449275 6.118208 1.262199
C 2.058886 6.514929 1.362818
C 2.742967 5.825014 0.936443
C 3.344962 6.331630 0.984675
C 3.713919 5.921501 1.504921
C 3.089884 6.319630 1.781254
C 4.008388 5.720887 0.975462
C 4.254810 6.560789 1.050518
C 4.692593 5.994606 1.517305
C 3.831350 6.412786 1.284067
C 4.930500 6.142101 0.966159
C 5.342254 6.463660 1.127397
C 5.458138 5.841233 1.384651
C 4.827598 6.593878 1.493106
C 5.980462 6.023390 0.779073
C 6.348414 6.344947 1.185851
C 6.429067 5.878136 1.621727
C 5.855455 6.471392 1.468362
C 6.714992 5.761832 1.131867
C 7.454651 6.704730 0.983815
C 7.396353 5.819070 1.693196
C 7.191673 6.390737 1.477589
C 0.360861 6.992805 1.080238
C 0.531534 7.231669 0.609024
C 0.620995 6.951980 1.480882
C 0.253459 7.449806 1.311035
C 0.840927 7.142714 0.991858
C 1.447693 7.479019 1.391715
C 1.561998 7.008561 1.239049
C 0.761416 7.472628 1.460965
C 1.864399 6.641398 0.955068
C 2.626054 7.449656 1.006806
C 2.585283 6.879254 1.515484
C 1.968916 7.344416 1.700790
C 2.959430 7.101708 0.855210
C 3.354179 7.428335 0.877646
C 3.567252 6.795214 1.366205
C 2.907001 7.221184 1.402556
C 4.283941 7.035141 1.129807
C 4.702327 7.463839 1.156089
C 4.830773 7.016719 1.312339
C 4.149668 7.404304 1.469640
C 5.179920 7.174005 1.033481
C 5.590104 7.416747 1.099338
C 5.273736 6.914971 1.624402
C 4.975721 7.471355 1.591647
C 6.009504 7.159744 1.156805
C 6.610491 7.435349 1.041594
C 6.583870 7.114163 1.324806
C 6.162750 7.485104 1.432894
C 6.957906 6.678197 1.202564
C 7.116090 7.178535 1.309730
C 7.233873 6.838421 1.692323
C 6.924618 7.353047 1.932933
C 0.051864 0.162093 2.347398
C 0.734965 0.344204 1.966923
C 0.482007 0.159389 2.378691
C 0.072644 0.591767 2.331166
C 1.094493 0.138340 1.761257
C 1.394761 0.446939 1.833813
C 1.542310 0.250407 2.594708
C 0.840968 0.791102 2.309791
C 2.233284 0.073532 1.948309
C 2.285656 0.548579 1.979658
C 2.380070 0.083774 2.516617
C 1.847475 0.604658 2.775223
C 2.944373 0.050440 2.316778
C 3.329159 0.368073 1.925443
C 3.575216 0.113294 2.206022
C 2.906686 0.661619 2.623359
C 4.045864 0.337310 2.213346
C 4.399133 0.398855 1.768260
C 4.577164 0.051223 2.419106
C 3.859833 0.530718 2.618066
C 5.189454 0.041030 2.092098
C 5.667177 0.440546 2.152822
C 5.554199 0.018586 2.451482
C 5.067866 0.308456 2.486265
C 5.867031 0.156284 1.863307
C 6.262871 0.473246 1.798266
C 6.294371 0.193656 2.243024
C 5.891715 0.265460 2.566891
C 6.932746 0.105107 2.263090
C 7.139236 0.559270 2.070411
C 7.355931 0.159507 2.053911
C 6.808368 0.709133 2.788120
C 0.117519 1.158163 1.667987
C 0.201753 1.555045 1.946851
C 0.372931 0.859307 2.567709
C 0.180727 1.240718 2.420962
C 0.819984 1.142402 2.070742
C 1.249216 1.473985 1.866215
C 1.342009 0.858646 2.330077
C 0.897821 1.442450 2.700035
C 1.928515 1.350617 2.000711
C 2.623655 1.726045 2.199269
C 2.158113 0.914646 2.445664
C 2.109721 1.461545 2.586084
C 3.178908 0.842321 1.980718
C 3.453286 1.393830 2.106311
C 3.618167 0.846028 2.307085
C 2.950354 1.358376 2.236343
C 3.794795 1.066504 1.960931
C 4.197377 1.493490 1.950148
C 4.672013 1.122617 2.597008
C 4.151823 1.726944 2.626428
C 5.121779 1.237205 2.028455
C 5.241291 1.687723 2.118045
C 5.500024 0.707913 2.465033
C 5.082075 1.563058 2.497453
C 6.149672 1.134639 2.088303
C 6.612192 1.524090 1.926886
C 6.323763 0.915784 2.831547
C 6.148371 1.339714 2.503950
C 6.755926 0.948868 1.759354
C 7.436753 1.278136 1.780732
C 7.442870 0.886999 2.444425
C 7.116291 1.682332 2.742790
C 0.021877 2.072141 1.850497
C 0.571242 2.477542 1.753728
C 0.374915 1.854730 2.585566
C 0.270046 2.313103 2.613534
C 1.301967 1.963479 2.094351
C 1.553759 2.754126 2.041846
C 1.473920 1.662050 2.353759
C 0.818287 2.528547 2.467962
C 2.213400 1.871763 1.954509
C 2.580215 2.225101 2.002543
C 2.523431 1.934726 2.882870
C 1.905459 2.343626 2.402692
C 2.957276 1.848526 1.913194
C 3.532022 2.527909 1.835265
C 3.553510 1.810798 2.529470
C 2.823503 2.341117 2.518617
C 4.063738 2.111912 1.933756
C 4.323425 2.519954 2.041367
C 4.643608 1.938614 2.688214
C 3.884168 2.284363 2.425458
C 4.900463 1.772699 1.753378
C 5.414035 2.383898 1.983707
C 5.645410 1.955727 2.378899
C 5.060769 2.255421 2.343642
C 6.233936 2.103448 1.989307
C 6.352090 2.615105 2.072062
C 6.487673 2.138403 2.536333
C 6.080020 2.298836 2.505874
C 6.862403 1.787028 2.299780
C 7.494380 2.417197 2.092931
C 7.419158 1.974181 2.556684
C 7.017216 2.615077 2.821071
C 0.098575 2.727277 2.203573
C 0.650013 3.414868 2.231680
C 0.352519 3.068712 2.342697
C 0.000282 3.357633 2.400904
C 0.852963 3.024671 2.289214
C 1.380818 3.428933 2.023365
C 1.589315 2.882540 2.473824
C 0.762315 3.569089 2.699162
C 2.054548 3.000624 1.767465
C 2.584035 3.293841 1.878083
C 2.590232 2.920549 2.701987
C 1.704285 3.521948 2.606232
C 2.989393 3.297265 2.099418
C 3.665849 3.552805 2.107057
C 3.354236 3.166444 2.587015
C 3.067895 3.549119 2.557639
C 4.238049 2.957274 1.860834
C 4.494730 3.622503 1.859752
C 4.431697 3.069703 2.294952
C 4.122717 3.442894 2.178180
C 4.678632 2.929643 1.915348
C 5.562246 3.219114 2.063330
C 5.618538 2.549523 2.581899
C 4.876103 3.361086 2.542960
C 6.027707 2.894994 2.211903
C 6.521849 3.518335 2.207548
C 6.429964 3.131876 2.649680
C 5.947773 3.314232 2.230043
C 7.109807 3.230983 1.907282
C 7.494624 3.430664 1.659301
C 7.364259 3.002543 2.364951
C 7.110054 3.512536 2.576225
C 0.058084 3.951151 2.202933
C 0.505005 4.281157 2.096502
C 0.535654 3.849048 2.173557
C 0.253376 4.282855 2.560771
C 0.951721 3.888591 2.094337
C 1.513920 4.347061 2.204065
C 1.678952 3.893701 2.302620
C 1.283081 4.512326 2.627307
C 1.873616 3.931653 1.861329
C 2.627660 4.319814 1.826972
C 2.527767 4.339235 2.307503
C 2.168354 4.573804 2.499499
C 3.036863 3.958952 2.266704
C 3.422248 4.516294 2.273868
C 3.658516 4.132034 2.543734
C 2.898864 4.216515 2.620891
C 4.073578 4.170621 1.792164
C 4.443495 4.355333 1.895967
C 4.380330 3.752196 2.415044
C 3.952947 4.463079 2.545519
C 5.158135 3.795943 1.938814
C 5.588743 4.626763 2.032066
C 5.286387 4.161304 2.745444
C 4.919649 4.567378 2.344220
C 6.006725 3.882766 1.900928
C 6.394097 4.223027 1.787623
C 6.512567 3.867306 2.540501
C 6.085599 4.484857 2.770405
C 7.055076 4.036805 1.967818
C 7.246449 4.559148 2.101535
C 7.483238 3.712377 2.343004
C 6.670213 4.595907 2.595124
C 0.058593 4.935115 1.693125
C 0.405150 5.317386 2.175659
C 0.373104 5.182917 2.642796
C 0.130405 5.815922 2.638432
C 1.017243 5.020683 1.983482
C 1.421664 5.534371 1.813619
C 1.508009 5.050874 2.276587
C 1.082369 5.473019 2.366314
C 1.992554 5.148669 2.218846
C 2.651752 5.573164 1.984473
C 2.342505 4.984656 2.592300
C 1.813902 5.420729 2.547973
C 3.055215 4.982857 1.886955
C 3.407362 5.822489 2.017126
C 3.463483 5.054212 2.602829
C 3.065094 5.242198 2.564672
C 3.788033 4.959395 2.245355
C 4.471042 5.526307 2.193820
C 4.321840 5.123550 2.568895
C 3.963363 5.414482 2.346393
C 5.206680 4.939121 2.244484
C 5.702618 5.339606 1.791129
C 5.436995 5.082723 2.626880
C 4.830586 5.444653 2.574214
C 6.168844 4.701483 2.029494
C 6.421343 5.317666 2.180157
C 6.501454 4.959196 2.816416
C 6.187639 5.352713 2.572079
C 6.686314 4.782597 2.209300
C 7.293790 5.200972 2.165277
C 7.292423 4.689967 2.782940
C 7.259068 5.589001 2.470895
C 0.256731 5.900355 2.008705
C 0.248294 6.376210 2.073603
C 0.397318 6.174645 2.421645
C 0.166791 6.505879 2.634146
C 1.074941 5.995224 2.204390
C 1.363662 6.549438 1.977099
C 1.532694 6.054882 2.394543
C 0.950619 6.600010 2.128737
C 2.189469 6.206053 1.971484
C 2.621323 6.552805 2.176485
C 2.573559 5.969787 2.397642
C 2.028211 6.594264 2.245375
C 2.980901 6.192896 2.232599
C 3.421088 6.600550 2.232520
C 3.643952 6.128363 2.321504
C 2.756114 6.353617 2.585945
C 3.941730 5.807560 2.137361
C 4.507289 6.479638 2.158823
C 4.527307 5.972362 2.544996
C 3.732827 6.431653 2.634862
C 5.156787 5.830493 1.758298
C 5.352546 6.499228 2.101264
C 5.301430 5.988035 2.713196
C 4.985774 6.376696 2.408041
C 5.846184 5.874842 1.870572
C 6.494728 6.344789 2.228952
C 6.777404 5.762088 2.490783
C 5.956993 6.487377 2.807049
C 6.974989 5.907107 2.072334
C 7.262932 6.405578 2.007203
C 7.425310 6.173787 2.369380
C 6.892452 6.532538 2.338148
C 0.079187 7.151105 1.696444
C 0.487378 7.308095 1.759965
C 0.544989 7.117043 2.787410
C 0.278695 7.174911 2.401255
C 1.021969 7.001485 2.310821
C 1.737547 7.360054 2.091823
C 1.420913 6.859844 2.386584
C 1.071770 7.486594 2.703271
C 2.092579 6.917599 1.727799
C 2.442841 7.345540 2.032376
C 2.685436 7.145381 2.434052
C 2.039003 7.442248 2.492546
C 2.761463 6.913397 1.924576
C 3.377576 7.263844 2.232751
C 3.710470 7.204190 2.569228
C 3.311014 7.378099 2.644435
C 3.767366 7.118395 1.944317
C 4.352950 7.408557 1.863969
C 4.381301 6.881976 2.449321
C 3.970128 7.445265 2.291611
C 4.897581 6.875069 1.838360
C 5.433856 7.277656 2.228531
C 5.390988 7.056290 2.591328
C 4.839256 7.173120 2.339232
C 5.945714 6.852466 2.080210
C 6.167578 7.330598 1.980214
C 6.393094 6.894956 2.584942
C 5.676388 7.463027 2.536133
C 6.930954 6.933193 2.064477
C 7.391897 7.311134 1.846766
C 7.464256 7.185447 2.541853
C 6.905175 7.237217 2.724273
C 0.187026 0.011833 2.964010
C 0.378139 0.443563 2.803570
C 0.753783 0.152108 3.664481
C 0.240688 0.545117 3.432504
C 1.100192 0.301389 2.906736
C 1.417155 0.737941 2.845536
C 1.291848 0.254810 3.342754
C 0.864650 0.498900 3.303405
C 1.988588 0.105123 2.860154
C 2.562790 0.404657 2.727030
C 2.317854 0.034592 3.352445
C 2.170554 0.602399 3.564050
C 3.181507 0.168640 2.798977
C 3.413713 0.638263 2.751785
C 3.480135 0.105471 3.512690
C 3.138051 0.477717 3.641407
C 3.821591 0.010639 2.687687
C 4.343178 0.588219 3.182465
C 4.366645 0.142485 3.093195
C 3.894662 0.482343 3.123271
C 4.890148 0.007449 3.129826
C 5.382917 0.526437 3.002150
C 5.492472 0.207411 3.387540
C 4.993861 0.728996 3.370525
C 5.873722 0.003560 3.091660
C 6.590056 0.285255 2.948988
C 6.802797 0.050503 3.471871
C 5.763730 0.712330 3.586438
C 7.151116 0.221700 2.692302
C 7.440345 0.313740 2.996110
C 7.350034 0.014539 3.620442
C 7.152206 0.402058 3.524326
C 0.003765 1.225738 3.339577
C 0.363813 1.245560 2.838840
C 0.408346 1.055933 3.368427
C 0.200757 1.676672 3.455705
C 1.061215 0.961858 2.763669
C 1.673964 1.450169 2.806614
C 1.765507 0.963489 3.437288
C 1.220307 1.439599 3.616695
C 2.178580 0.854261 2.872433
C 2.546841 1.293254 2.959948
C 2.630595 0.948513 3.476806
C 2.242918 1.441626 3.288712
C 2.957399 0.719182 3.209821
C 3.598813 1.384843 2.861801
C 3.407900 0.928907 3.643237
C 3.022971 1.594864 3.520047
C 4.039438 1.066068 3.291185
C 4.496906 1.566298 2.887304
C 4.791416 1.119312 3.481918
C 3.694429 1.349131 3.396458
C 5.162766 1.370233 3.160289
C 5.587229 1.327318 2.733777
C 5.544149 1.229334 3.492330
C 5.010767 1.401103 3.737759
C 5.856643 0.847429 2.997204
C 6.780579 1.482803 3.013999
C 6.655842 0.814165 3.486049
C 6.303830 1.400041 3.628117
C 6.998108 1.069842 2.639421
C 7.492930 1.151059 2.983956
C 7.407578 0.904058 3.675195
C 6.999516 1.627442 3.530652
C 0.018882 2.230120 3.181843
C 0.720945 2.667835 3.044650
C 0.486854 2.064708 3.312387
C 0.041393 2.796049 3.609798
C 0.760124 1.959117 2.992386
C 1.725101 2.614047 3.228629
C 1.712435 2.063905 3.380157
C 0.841804 2.325105 3.446309
C 2.039109 1.823841 2.962798
C 2.604155 2.578781 3.028750
C 2.556673 2.079951 3.356327
C 2.166678 2.675780 3.384998
C 3.031079 1.812713 3.139859
C 3.480242 2.632943 2.963149
C 3.344348 1.925128 3.671434
C 3.010864 2.616881 3.771087
C 3.796090 2.162946 2.900451
C 4.126276 2.494690 3.152455
C 4.763618 2.274540 3.455389
C 3.985917 2.569340 3.815605
C 5.189381 1.932200 2.924641
C 5.643482 2.402300 3.203893
C 5.258734 1.915782 3.510889
C 5.159627 2.509790 3.262249
C 6.074466 1.979458 3.171422
C 6.117819 2.490468 3.073264
C 6.649144 2.074090 3.360892
C 5.887375 2.334928 3.791997
C 6.834853 2.196005 2.789937
C 7.404452 2.386179 2.711851
C 7.488577 2.066433 3.754829
C 7.002952 2.565967 3.491478
C 0.045649 3.132760 3.180798
C 0.566021 3.658731 3.304289
C 0.403942 3.290705 3.455779
C 0.150936 3.642373 3.670858
C 0.806754 3.154070 3.042359
C 1.889312 3.362010 2.964543
C 1.525546 3.039973 3.140591
C 0.964145 3.348659 3.591390
C 2.051204 2.929708 2.725881
C 2.389112 3.596744 2.792169
C 2.352847 3.065305 3.568857
C 1.908080 3.319960 3.407957
C 3.068754 3.176399 2.919315
C 3.617938 3.190007 3.124307
C 3.614501 2.877885 3.464406
C 2.864374 3.460259 3.697934
C 4.179332 2.957456 3.238985
C 4.563599 3.514628 2.895084
C 4.613990 3.053577 3.609609
C 3.882372 3.380831 3.570048
C 5.012591 3.035055 3.133245
C 5.545530 3.715502 3.100260
C 5.625319 2.886224 3.385793
C 5.083664 3.494877 3.231940
C 5.835913 2.794504 2.947006
C 6.311698 3.726805 2.887306
C 6.259204 2.903841 3.715371
C 6.133534 3.576362 3.410464
C 7.004395 3.231119 3.119851
C 7.481285 3.384779 3.135919
C 7.370007 2.672281 3.236314
C 6.920964 3.519776 3.431315
C 0.064253 3.879320 2.816025
C 0.582121 4.375326 2.891139
C 0.803303 3.847381 3.640336
C 0.000250 4.758426 3.639615
C 1.273634 4.067187 3.076037
C 1.704083 4.334511 2.846756
C 1.665903 4.000254 3.597662
C 0.991775 4.279362 3.596900
C 2.003665 3.971862 2.737109
C 2.517162 4.407039 2.766543
C 2.530267 3.843519 3.548502
C 1.972782 4.212819 3.368528
C 2.948122 4.119865 3.032920
C 3.311810 4.432622 2.960805
C 3.705790 4.241769 3.356832
C 3.124260 4.476902 3.406896
C 4.015690 3.960542 3.076314
C 4.288864 4.680778 2.944563
C 4.359577 3.978839 3.597453
C 4.011290 4.536609 3.369383
C 4.765051 3.972200 2.904431
C 5.290426 4.657558 2.890616
C 5.753763 3.778974 3.563772
C 5.074946 4.237019 3.515401
C 5.750422 4.256355 3.158926
C 6.458472 4.286072 2.894815
C 6.536375 3.793529 3.316324
C 6.146918 4.265637 3.445716
C 6.951750 3.935781 3.031139
C 7.461214 4.302788 2.591973
C 7.311817 4.083020 3.337974
C 6.836277 4.431593 3.783289
C 0.137892 4.898313 3.256338
C 0.536485 5.673341 2.892428
C 0.532887 4.958316 3.541775
C 0.120269 5.698603 3.675551
C 0.710982 5.071676 3.008299
C 1.619011 5.659416 3.054616
C 1.510640 5.196646 3.361486
C 0.944595 5.293994 3.310640
C 1.699220 4.996968 3.006688
C 2.643100 5.681257 3.118719
C 2.753648 5.133804 3.701141
C 1.985138 5.541841 3.415924
C 3.132413 4.858315 2.814341
C 3.400960 5.694659 3.265067
C 3.189295 4.954610 3.374901
C 3.136834 5.728449 3.706523
C 3.783128 5.092319 3.012765
C 4.454386 5.333763 3.089203
C 4.567124 5.297952 3.675749
C 3.803982 5.399328 3.311398
C 4.961810 5.229116 2.948470
C 5.708715 5.507292 2.770624
C 5.749464 5.024270 3.366298
C 5.012038 5.334948 3.633462
C 5.875146 5.126222 2.856496
C 6.291603 5.642878 2.980153
C 6.440931 5.105068 3.517634
C 6.045219 5.381269 3.514560
C 6.941973 5.099375 3.173945
C 7.413067 5.412462 2.897913
C 7.199553 4.799236 3.433076
C 6.911130 5.371479 3.515712
C 0.128354 5.984994 3.115238
C 0.501512 6.194344 3.012274
C 0.580164 5.887659 3.666074
C 0.141733 6.469275 3.615179
C 1.050934 5.713458 3.021620
C 1.791475 6.668188 3.145192
C 1.634448 5.966130 3.794103
C 1.135120 6.429577 3.668315
C 1.986351 5.930338 3.230326
C 2.378394 6.252939 2.756991
C 2.253705 6.170299 3.545025
C 2.216560 6.542784 3.795797
C 2.805503 6.132491 3.031669
C 3.310894 6.561061 2.994504
C 3.805983 5.862581 3.567256
C 3.008163 6.803824 3.483721
C 4.070351 6.116247 3.184590
C 4.564717 6.245653 2.873741
C 4.299153 6.130224 3.568728
C 4.185326 6.542657 3.571446
C 4.945352 6.046701 3.186741
C 5.642690 6.438597 3.221723
C 5.647875 6.044258 3.475650
C 5.185682 6.409365 3.300830
C 5.744261 6.049906 3.016887
C 6.740325 6.287668 3.003789
C 6.365688 5.936273 3.631736
C 6.291788 6.349318 3.281550
C 6.927810 5.748748 2.990181
C 7.298397 6.430612 2.807157
C 7.432751 6.037901 3.141478
C 6.791149 6.679086 3.508733
C 0.030955 6.802485 3.024610
C 0.127006 7.285684 2.932701
C 0.564646 7.138958 3.222052
C 0.209824 7.324006 3.422834
C 0.894811 6.805466 2.738860
C 1.441455 7.342755 3.043230
C 1.469734 6.707694 3.524861
C 0.995197 7.289997 3.346619
C 2.047754 6.814985 2.703993
C 2.811806 7.303285 2.943878
C 2.601303 6.889461 3.304134
C 2.046045 7.341019 3.637643
C 2.847244 6.733227 2.870638
C 3.721131 7.482492 3.013336
C 3.477242 6.944927 3.637769
C 3.178286 7.321108 3.404382
C 3.975266 7.110552 3.076624
C 4.450516 7.298612 3.009765
C 4.436470 6.911748 3.514593
C 4.284807 7.484884 3.743521
C 4.979185 6.987893 2.779460
C 5.302578 7.477517 2.930847
C 5.545910 6.863413 3.282812
C 4.774127 7.455808 3.268802
C 5.914910 7.186638 2.991309
C 6.402885 7.260288 3.085191
C 6.549703 7.111092 3.598877
C 6.026399 7.396885 3.413634
C 6.893159 6.882619 2.971711
C 7.406244 7.413064 2.978735
C 7.257796 6.861624 3.262812
C 6.807532 7.464242 3.543961
C 0.073272 0.076097 4.283781
C 0.680830 0.344435 4.211260
C 0.527834 0.097850 4.704193
C 0.264486 0.459213 4.492352
C 1.159427 0.118394 3.856657
C 1.778949 0.347303 3.789712
C 1.247109 0.096975 4.273589
C 0.913964 0.623187 4.438158
C 2.287450 0.173239 4.078817
C 2.621751 0.483259 3.827762
C 2.525091 0.059619 4.615981
C 2.000191 0.809380 4.219684
C 2.804921 0.085996 3.752871
C 3.662935 0.374123 3.973878
C 3.551716 0.057077 4.344718
C 2.905461 0.477897 4.192267
C 4.155415 0.081956 3.778388
C 4.688177 0.559019 4.244351
C 4.157875 0.020463 4.531732
C 4.043700 0.434495 4.593454
C 5.112846 0.131295 3.846685
C 5.736152 0.798340 4.023968
C 5.438972 0.420051 4.345522
C 5.192194 0.617487 4.680555
C 5.727959 0.063545 3.870644
C 6.581204 0.312597 3.765618
C 6.140407 0.065371 4.324150
C 5.950593 0.629043 4.632579
C 6.873576 0.203039 4.119958
C 7.488747 0.397083 3.798682
C 7.263490 0.250599 4.423880
C 6.968944 0.595472 4.545420
C 0.060223 0.785174 3.795304
C 0.394024 1.529224 3.907192
C 0.447994 1.141542 4.526140
C 0.074286 1.534631 4.488311
C 0.954401 1.158650 3.893636
C 1.805818 1.490234 4.279599
C 1.149150 1.071246 4.464272
C 1.267641 1.497280 4.398318
C 2.038077 1.344007 3.898881
C 2.717017 1.624526 3.927199
C 2.482637 0.989382 4.526206
C 2.142283 1.417341 4.534611
C 2.916969 1.006729 4.174258
C 3.554688 1.646208 3.977258
C 3.352075 0.787782 4.678143
C 3.095441 1.206086 4.587988
C 3.955151 0.697879 3.935981
C 4.614194 1.354089 4.102946
C 4.665029 1.007546 4.462232
C 4.258499 1.655092 4.417265
C 4.837224 0.977540 3.884436
C 5.268035 1.459087 4.179899
C 5.613916 0.832177 4.797156
C 4.771822 1.532561 4.557296
C 6.117429 0.930925 3.829707
C 6.629662 1.333953 4.330233
C 6.571629 0.821229 4.677661
C 5.851526 1.623272 4.338326
C 6.995554 0.874975 3.988924
C 7.470215 1.553116 4.186106
C 7.397302 0.847279 4.663628
C 7.150757 1.602392 4.593292
C 0.003673 1.738455 3.860856
C 0.453662 2.303612 4.214533
C 0.616053 1.845140 4.276260
C 0.149004 2.637589 4.355265
C 0.918420 2.108834 3.930622
C 1.381986 2.699285 3.700582
C 1.553730 1.952185 4.205739
C 1.115156 2.471848 4.489252
C 2.222950 2.122677 3.903128
C 2.154602 2.792364 3.874184
C 2.619658 1.995663 4.509687
C 2.325366 2.571970 4.632357
C 2.844302 2.317834 4.064273
C 3.556228 2.314122 3.917064
C 3.362051 2.203497 4.517291
C 3.212392 2.742698 4.708284
C 3.973043 1.782808 3.815825
C 4.800347 2.401471 3.962069
C 4.644250 2.036169 4.454802
C 4.239095 2.579715 4.339592
C 5.137734 2.174472 4.283026
C 5.594704 2.242499 4.156127
C 5.437071 1.613151 4.589957
C 5.239745 2.508192 4.541639
C 6.099215 1.899178 4.020658
C 6.585660 2.691477 3.945763
C 6.345910 1.897752 4.646089
C 5.974387 2.230743 4.522963
C 7.241482 1.943593 4.185531
C 7.341180 2.368742 4.313542
C 7.448004 2.066602 4.662840
C 6.803470 2.501909 4.509567
C 0.338788 3.106450 3.878545
C 0.580780 3.461906 4.096485
C 0.408269 3.012166 4.425800
C 0.191952 3.794011 4.418707
C 1.008443 2.882513 4.192955
C 1.289538 3.264472 4.038920
C 1.554785 2.892133 4.322790
C 0.958624 3.445975 4.321763
C 1.942990 3.170764 4.094458
C 2.390736 3.858731 4.006980
C 2.616717 2.828226 4.450909
C 1.920026 3.805002 4.459037
C 3.221821 3.203689 3.894897
C 3.582766 3.562761 4.225898
C 3.759619 3.189813 4.560159
C 2.863647 3.590840 4.191371
C 4.288332 3.046124 4.057516
C 4.545170 3.539560 4.139520
C 4.457535 3.025203 4.520067
C 3.983554 3.537021 4.658082
C 4.948741 2.900288 4.226433
C 5.438240 3.514040 3.962140
C 5.690727 2.861492 4.618804
C 5.171684 3.431917 4.611509
C 6.127854 3.166414 4.180816
C 6.328502 3.368684 3.754230
C 6.339116 2.959331 4.760061
C 5.857091 3.437943 4.389873
C 7.056233 2.913564 3.809853
C 7.213770 3.564972 3.826175
C 7.467978 2.859820 4.243697
C 7.068600 3.212323 4.665005
C 0.180825 4.364102 4.053253
C 0.569287 4.516698 3.735442
C 0.558573 4.042385 4.207522
C 0.174943 4.221672 4.626082
C 1.145978 3.737249 4.003675
C 1.258139 4.482781 3.969013
C 1.162981 4.037011 4.532882
C 1.199497 4.589925 4.651379
C 1.967205 4.130742 4.104476
C 2.456877 4.354585 3.909334
C 2.622603 3.930796 4.384975
C 1.856193 4.611140 4.744533
C 2.953553 4.054263 4.089915
C 3.477014 4.402180 3.772500
C 3.518030 3.983418 4.405668
C 2.878161 4.546915 4.519889
C 4.001693 4.211503 3.962083
C 4.445783 4.356855 3.838994
C 4.577639 4.322236 4.500350
C 3.971953 4.359456 4.414751
C 5.319467 3.937595 3.979640
C 5.482918 4.338810 4.346560
C 5.585488 3.926623 4.450061
C 4.977860 4.722645 4.547222
C 5.899099 3.859603 4.027436
C 6.403143 4.661971 4.223659
C 6.370007 4.056116 4.723537
C 6.044828 4.823760 4.510680
C 6.696960 4.000333 4.033154
C 7.332061 4.434169 4.009822
C 7.151382 4.006304 4.461971
C 6.883228 4.543987 4.568527
C 0.029867 5.325436 3.996232
C 0.417346 5.620243 3.999912
C 0.648127 5.023692 4.604654
C 0.260489 5.347143 4.617042
C 0.921065 4.721725 4.117670
C 1.417585 5.386698 3.779887
C 1.332201 5.032464 4.400712
C 1.012518 5.372603 4.358405
C 2.024489 5.001974 3.791041
C 2.227810 5.318194 4.145460
C 2.584793 5.002959 4.285982
C 1.771786 5.583793 4.755126
C 2.901667 4.763477 3.963036
C 3.459222 5.502131 4.035739
C 3.314000 4.848304 4.599441
C 2.874963 5.547193 4.197472
C 3.865487 4.787553 3.880257
C 4.525659 5.448779 4.098602
C 4.408250 4.945158 4.496632
C 4.082167 5.292725 4.329931
C 4.999395 4.706999 3.815162
C 5.299725 5.268344 4.070760
C 5.490060 4.912593 4.209587
C 4.775272 5.443065 4.517552
C 5.897667 5.017312 3.943521
C 6.248019 5.439500 3.942741
C 6.450849 5.056101 4.470819
C 5.932680 5.580167 4.685566
C 6.933435 5.059672 4.142611
C 7.462679 5.571013 4.055454
C 7.253195 4.858318 4.368302
C 6.802312 5.593129 4.499090
C 0.242658 5.916962 4.286403
C 0.266373 6.445329 4.032648
C 0.699094 6.180742 4.326488
C 0.202988 6.748275 4.685327
C 0.889111 5.858358 4.108725
C 1.350226 6.558801 4.206479
C 1.563470 6.034696 4.373356
C 0.846235 6.686649 4.586602
C 2.213702 5.794891 4.214549
C 2.675563 6.517403 3.910480
C 2.632224 5.885974 4.388483
C 2.137903 6.650337 4.676783
C 3.106498 6.019274 4.345990
C 3.605072 6.241617 3.932660
C 3.539604 6.124798 4.583846
C 2.790556 6.313326 4.297458
C 4.196414 5.835999 4.197144
C 4.730423 6.560462 3.877012
C 4.459686 6.142129 4.433928
C 3.999545 6.714754 4.407666
C 4.946962 5.833865 4.336517
C 5.281964 6.396491 3.823066
C 5.802010 5.980397 4.475981
C 4.825086 6.583940 4.409243
C 5.784168 5.815911 3.974460
C 6.237964 6.523125 4.016748
C 6.346600 5.832495 4.410053
C 6.010002 6.345384 4.348911
C 6.991840 5.695443 3.967821
C 7.422524 6.943939 4.101399
C 7.424951 5.795984 4.637705
C 6.928120 6.766575 4.302506
C 0.124683 6.907824 3.607724
C 0.438257 7.479813 3.761923
C 0.390198 7.084541 4.122502
C 0.139681 7.489497 4.581469
C 0.860290 6.822905 4.098077
C 1.656676 7.096668 4.211343
C 1.228201 6.972664 4.426206
C 1.303835 7.430849 4.537664
C 1.963594 6.936566 3.740989
C 2.380621 7.214239 3.927529
C 2.402226 7.194380 4.718110
C 2.101343 7.277668 4.391757
C 2.975563 6.839824 4.003608
C 3.668225 7.430413 3.857818
C 3.384953 7.160222 4.660221
C 2.925634 7.412352 4.490541
C 3.989929 7.146104 3.683169
C 4.732442 7.428032 4.275318
C 4.386346 7.236588 4.475459
C 3.963854 7.435735 4.681006
C 5.183607 6.898439 3.880885
C 5.474986 7.239158 4.028376
C 5.504673 7.250052 4.543251
C 5.032497 7.382987 4.581484
C 5.796419 6.843615 3.736879
C 6.554126 7.342707 3.961758
C 6.373672 6.844162 4.583653
C 6.139603 7.459814 4.248659
C 7.161976 7.036303 3.776801
C 7.481257 7.451624 4.119654
C 7.411455 6.794024 4.556020
C 7.242507 7.445332 4.606724
C 0.268921 0.257988 5.230144
C 0.529650 0.738066 5.068380
C 0.573144 0.305996 5.790643
C 0.195068 0.724426 5.658001
C 0.985149 0.035623 5.052689
C 1.623097 0.504666 4.994186
C 1.602842 0.434491 5.446114
C 1.229198 0.540664 5.641957
C 1.811991 0.163814 4.659181
C 2.533406 0.552374 4.711350
C 2.635374 0.053631 5.148461
C 2.079794 0.311230 5.360794
C 3.298795 0.309080 4.912258
C 3.622542 0.397622 4.633485
C 3.293694 0.061161 5.372819
C 2.785299 0.447046 5.415189
C 3.898252 0.286568 4.969145
C 4.358474 0.535024 4.925846
C 4.609776 0.233508 5.420876
C 4.055293 0.599176 5.266867
C 5.021405 0.002837 5.394922
C 5.432926 0.331109 4.897323
C 5.323831 0.297756 5.694086
C 5.183502 0.699900 5.547710
C 5.853581 0.227954 4.897970
C 6.571636 0.272889 4.800350
C 6.665509 0.151245 5.732608
C 5.837397 0.396822 5.317708
C 7.241394 0.018980 5.170769
C 7.477282 0.462773 4.946680
C 7.319972 0.246236 5.697996
C 7.022736 0.399636 5.283213
C 0.027463 0.770633 5.015974
C 0.340625 1.470281 5.092701
C 0.301695 1.107949 5.377208
C 0.376934 1.615525 5.523444
C 1.080783 0.872181 4.870973
C 1.571010 1.458208 5.160253
C 1.300494 0.948184 5.390139
C 0.749646 1.374915 5.271660
C 2.092834 0.738147 5.068133
C 2.515646 1.446761 4.773263
C 2.693300 1.009802 5.378381
C 2.044410 1.577692 5.747744
C 2.919777 0.759297 4.743817
C 3.329275 1.301708 4.985068
C 3.667252 1.186519 5.506004
C 2.981216 1.438357 5.639874
C 3.640417 0.902502 5.001034
C 4.400270 1.505321 4.864195
C 4.317989 0.777819 5.552589
C 4.102908 1.322497 5.461390
C 5.028136 1.048820 5.056207
C 5.548419 1.742963 5.017334
C 5.429444 1.044624 5.266767
C 5.189931 1.489619 5.336445
C 5.842938 1.058879 5.100321
C 6.635782 1.672667 4.885669
C 6.562834 1.112942 5.268746
C 5.721582 1.398063 5.341939
C 6.905229 1.207989 5.014425
C 7.449724 1.547137 4.889529
C 7.380267 0.932718 5.519831
C 6.967280 1.752703 5.303977
C 0.080168 1.936621 4.756667
C 0.277446 2.494265 4.859136
C 0.356937 1.949769 5.262474
C 0.024639 2.635346 5.582308
C 1.121918 1.796072 5.010976
C 1.681001 2.464940 4.983311
C 1.231341 1.796236 5.465876
C 0.993719 2.538187 5.451321
C 1.964043 1.980589 5.218172
C 2.195104 2.667403 5.107640
C 2.283598 1.804882 5.454762
C 1.957130 2.590463 5.526065
C 2.727428 2.074849 5.164133
C 3.583682 2.232302 4.969541
C 3.375705 1.746157 5.431383
C 3.165867 2.362508 5.190579
C 4.106917 1.909154 4.836961
C 4.299676 2.436441 5.197513
C 4.533822 1.951772 5.150421
C 3.869747 2.259635 5.465063
C 5.104132 1.799319 4.792334
C 5.648612 2.241140 4.812094
C 5.697788 1.804666 5.511146
C 5.056957 2.702715 5.394262
C 5.938091 2.075578 5.133125
C 6.628860 2.647683 5.080569
C 6.474282 1.795294 5.261820
C 6.153362 2.578787 5.426680
C 6.995980 2.038182 4.726050
C 7.335440 2.199394 5.075623
C 7.410982 1.667631 5.409922
C 6.961142 2.257370 5.534848
C 0.053233 3.164679 4.849966
C 0.381800 3.571852 5.043479
C 0.471692 2.911056 5.722133
C 0.031832 3.470199 5.284969
C 0.958357 2.834828 5.119863
C 1.586126 3.364552 5.093520
C 1.547438 2.910425 5.251340
C 0.829368 3.411727 5.492847
C 1.945858 3.102993 5.311090
C 2.469537 3.699569 4.930062
C 2.355315 3.042219 5.439706
C 1.661371 3.531303 5.640799
C 3.097515 3.152735 5.174100
C 3.527741 3.272597 5.022132
C 3.186424 2.876406 5.507805
C 3.063995 3.538508 5.392023
C 4.017264 3.235307 5.017593
C 4.432394 3.685877 5.006997
C 4.616840 2.990276 5.633190
C 4.096968 3.581570 5.541825
C 5.164446 3.206606 5.006322
C 5.580061 3.137896 4.943686
C 5.550500 2.780564 5.332262
C 5.110839 3.435668 5.429043
C 5.979805 2.988082 5.099036
C 6.289703 3.465139 4.992987
C 6.483616 2.869157 5.533095
C 5.893929 3.596071 5.198802
C 6.800675 2.876317 4.761342
C 7.110607 3.638168 4.889485
C 7.467750 2.908760 5.471193
C 7.060541 3.687318 5.657223
C 0.120497 3.923221 4.940571
C 0.517405 4.726990 5.020524
C 0.558402 3.781893 5.393068
C 0.311138 4.692391 5.401262
C 0.767063 3.959287 4.717786
C 1.728505 4.364664 5.073174
C 1.692112 3.963440 5.619958
C 0.725984 4.389990 5.680032
C 1.949592 3.917288 5.180153
C 2.509548 4.447318 4.951093
C 2.348046 3.753537 5.413980
C 2.019036 4.272464 5.457731
C 3.172400 4.136199 5.031923
C 3.751081 4.639600 4.894728
C 3.442663 3.818156 5.564066
C 2.922623 4.634697 5.787153
C 3.838076 4.023358 4.776702
C 4.574680 4.554501 4.957047
C 4.398440 3.890973 5.662811
C 4.045058 4.355028 5.232546
C 4.814229 4.100651 5.039685
C 5.435023 4.643352 4.902602
C 5.753382 3.891867 5.656727
C 5.020567 4.485996 5.676133
C 5.814051 4.052686 4.826950
C 6.610984 4.527338 4.954647
C 6.587186 3.845908 5.225023
C 5.990460 4.455841 5.408716
C 7.229937 4.142997 5.090837
C 7.170266 4.534277 4.901174
C 7.259329 4.201223 5.606479
C 7.264032 4.690301 5.319884
C 0.087524 4.872441 5.010037
C 0.694829 5.507934 4.734828
C 0.617905 4.973347 5.857279
C 0.012478 5.699785 5.534416
C 0.815797 5.190072 4.992858
C 1.152132 5.494451 5.079986
C 1.340466 5.179928 5.580809
C 0.856658 5.293091 5.645560
C 1.945673 5.136749 5.197615
C 2.435716 5.145988 5.036084
C 2.469611 5.135293 5.527118
C 1.767590 5.655568 5.515444
C 3.016349 4.939380 5.014228
C 3.301878 5.676534 4.754472
C 3.431587 4.831653 5.697222
C 2.816141 5.459833 5.350896
C 4.012326 5.070400 4.836018
C 4.685958 5.650540 4.921010
C 4.723176 4.909489 5.316518
C 3.943609 5.751733 5.544473
C 4.847094 5.121445 4.811821
C 5.495569 5.575157 5.138061
C 5.561840 4.992423 5.462413
C 5.134476 5.204147 5.381080
C 6.247334 5.067663 5.058764
C 6.516452 5.336116 4.796396
C 6.410021 5.243924 5.610987
C 6.020938 5.568303 5.397926
C 7.134570 5.219384 4.803660
C 7.197269 5.278484 5.249826
C 7.427880 5.104799 5.638890
C 6.853028 5.226412 5.613051
C 0.147620 6.138100 4.810767
C 0.473298 6.341279 5.225556
C 0.329373 5.956982 5.705437
C 0.167240 6.316253 5.520098
C 0.960040 6.308350 5.168375
C 1.333974 6.284800 4.951676
C 1.377252 5.923704 5.440561
C 0.946881 6.699135 5.381280
C 2.138084 6.140407 4.691356
C 2.515463 6.286441 5.266582
C 2.594900 5.893593 5.481681
C 2.111195 6.505093 5.747809
C 2.811657 5.914404 4.824451
C 3.345385 6.558009 4.677794
C 3.555046 5.966578 5.433615
C 2.991830 6.429534 5.290715
C 4.038042 6.167625 4.858341
C 4.342803 6.517566 5.195657
C 4.573469 5.885243 5.260503
C 4.253122 6.550660 5.623349
C 4.978933 5.883485 5.130369
C 5.298646 6.679919 4.909560
C 5.629126 6.036880 5.521119
C 4.792710 6.520249 5.321542
C 5.591945 6.011892 4.930785
C 6.204361 6.434091 4.827435
C 6.661441 6.164132 5.758277
C 5.927301 6.642244 5.128859
C 7.121982 6.019429 4.990834
C 7.357540 6.321498 5.269267
C 7.422099 5.965045 5.536275
C 6.835134 6.517961 5.205744
C 0.003622 6.873592 5.181570
C 0.685229 7.282625 4.901634
C 0.518159 6.733001 5.545563
C 0.209382 7.473656 5.115280
C 1.227548 6.779011 4.836521
C 1.494291 7.305454 4.947667
C 1.393172 6.929207 5.337942
C 0.995468 7.349520 5.617415
C 2.030178 7.099938 5.099526
C 2.753553 7.343366 4.915184
C 2.262850 7.054587 5.555362
C 1.941396 7.465379 5.343505
C 2.841008 6.766901 4.964114
C 3.176230 7.467555 4.870028
C 3.398711 6.911200 5.431930
C 3.134533 7.326140 5.679277
C 4.073243 6.941724 4.782181
C 4.454551 7.296175 4.933253
C 4.504061 6.932467 5.523503
C 4.084462 7.472835 5.554657
C 4.847633 6.976264 5.143889
C 5.169488 7.379711 5.018874
C 5.433001 7.045022 5.441740
C 4.917889 7.323677 5.411335
C 6.173947 7.235324 5.105018
C 6.385231 7.445564 4.704015
C 6.505772 7.073679 5.648122
C 5.804659 7.179209 5.607872
C 7.106906 7.001504 4.781582
C 7.445061 7.414210 5.035328
C 7.438891 6.838930 5.314426
C 6.906815 7.462612 5.328519
C 0.202159 0.087653 5.693562
C 0.301332 0.620808 6.069689
C 0.340964 0.061423 6.459665
C 0.015684 0.533603 6.632508
C 1.022867 0.036530 6.004523
C 1.322895 0.499860 6.231387
C 1.783965 0.025837 6.730909
C 1.065875 0.839839 6.629145
C 2.170642 0.225852 5.802576
C 2.734376 0.350565 5.851880
C 2.506374 0.184003 6.530032
C 1.876001 0.561404 6.505045
C 2.915784 0.201486 6.340700
C 3.374487 0.281797 5.852746
C 3.275374 0.082400 6.565795
C 2.802593 0.693989 6.213180
C 3.687804 0.117935 6.111548
C 4.631900 0.582116 5.839457
C 4.462890 0.528729 6.380582
C 4.107091 0.591009 6.656948
C 4.845994 0.123959 5.966727
C 5.478164 0.491903 6.264554
C 5.587859 0.008168 6.249835
C 4.999299 0.439894 6.238112
C 5.809798 0.111583 5.848948
C 6.642448 0.477939 6.047761
C 6.560493 0.106936 6.534795
C 5.895266 0.374915 6.426301
C 7.145582 0.169484 6.092624
C 7.497671 0.524581 6.147497
C 7.450522 0.117749 6.414780
C 6.856476 0.408183 6.459642
C 0.150663 1.380968 5.827721
C 0.337247 1.313204 6.226052
C 0.262434 0.917173 6.475662
C 0.080576 1.305851 6.726218
C 1.019255 0.821502 6.157578
C 1.318178 1.463820 6.126942
C 1.684660 1.098821 6.419682
C 1.212940 1.324794 6.613869
C 2.024554 1.135081 5.787807
C 2.728757 1.528438 6.118517
C 2.372121 0.998019 6.218507
C 1.937858 1.430729 6.513680
C 3.046695 1.148151 5.985412
C 3.361123 1.531118 6.123670
C 3.319538 0.766228 6.396155
C 3.013405 1.653032 6.411195
C 3.968524 0.920328 5.969416
C 4.390052 1.331778 5.943312
C 4.651751 0.869603 6.601146
C 4.221108 1.605522 6.625972
C 5.039081 0.988534 6.199992
C 5.380990 1.389858 5.879622
C 5.418363 1.031144 6.413155
C 5.067233 1.510255 6.182678
C 5.970967 1.093247 5.712679
C 6.305869 1.683484 6.219515
C 6.674064 0.721003 6.740565
C 5.825901 1.780446 6.319115
C 6.943534 0.837996 6.235041
C 7.301812 1.544202 5.989381
C 7.479903 1.159864 6.675561
C 6.735404 1.232125 6.311269
C 0.142858 2.159465 5.769233
C 0.636059 2.556036 6.193240
C 0.567141 1.623076 6.561029
C 0.134717 2.210457 6.461105
C 0.797197 1.851308 6.286847
C 1.601111 2.389465 5.803163
C 1.426149 1.931115 6.496077
C 0.882631 2.695750 6.721649
C 2.119336 2.169678 5.948974
C 2.563134 2.628663 5.809334
C 2.412426 2.207783 6.291955
C 1.743448 2.748618 6.441438
C 2.842281 2.229903 5.936042
C 3.363007 2.557311 5.731536
C 3.386219 2.269619 6.672784
C 2.916492 2.727571 6.528117
C 4.065938 1.874900 5.782981
C 4.600486 2.320069 5.979906
C 4.387959 2.072678 6.383502
C 3.955695 2.769618 6.498838
C 5.073342 1.934362 6.198769
C 5.293376 2.364669 5.851400
C 5.276159 1.922670 6.728565
C 4.934883 2.640742 6.807661
C 5.997900 2.068782 5.690876
C 6.574179 2.438049 5.750388
C 6.690296 1.751489 6.464514
C 6.069262 2.434894 6.753869
C 7.162197 2.181114 5.958721
C 7.173540 2.682777 5.909627
C 7.469871 2.104679 6.319787
C 6.725531 2.258106 6.573124
C 0.053312 3.152622 5.659568
C 0.360964 3.573122 5.936082
C 0.498650 2.885373 6.450174
C 0.019862 3.547547 6.400648
C 1.108842 3.103410 5.816836
C 1.438568 3.524072 6.377524
C 1.366510 2.855968 6.694871
C 0.812844 3.418408 6.392127
C 1.928057 3.091584 6.221370
C 2.513994 3.241617 6.262312
C 2.322638 2.855437 6.270351
C 1.983744 3.725451 6.728093
C 2.747760 2.908947 6.137469
C 3.747979 3.429442 5.868165
C 3.352404 2.741485 6.558987
C 2.766105 3.482799 6.611548
C 3.863874 3.022999 5.816642
C 4.606050 3.651155 6.069261
C 4.496838 2.937218 6.735613
C 4.097797 3.190151 6.520385
C 5.059426 2.785120 5.815434
C 5.538188 3.250336 5.785710
C 5.617223 3.150414 6.291690
C 4.894073 3.563151 6.497137
C 6.198605 2.720783 6.049283
C 6.522425 3.251844 5.957639
C 6.741247 2.885011 6.472427
C 6.105142 3.340821 6.582817
C 7.025914 3.071251 5.797346
C 7.289989 3.268668 6.109757
C 7.273705 2.987097 6.621992
C 6.763766 3.455196 6.519712
C 0.192298 3.956309 5.613506
C 0.421545 4.248955 6.163149
C 0.703549 3.889077 6.541909
C 0.152627 4.244458 6.498064
C 0.868656 4.082467 6.009691
C 1.391121 4.710101 5.884680
C 1.577900 3.872840 6.703415
C 0.970305 4.704569 6.551811
C 2.081121 3.792040 6.149738
C 2.535998 4.489766 6.158365
C 2.405943 3.814627 6.470380
C 2.153351 4.327495 6.699059
C 2.815760 4.105315 6.004792
C 3.480036 4.275482 6.095372
C 3.803873 3.954134 6.370660
C 2.960245 4.454571 6.394028
C 3.841720 4.032309 5.854083
C 4.326760 4.615372 5.934653
C 4.521889 3.832032 6.482475
C 3.880743 4.457950 6.334990
C 4.985316 4.012223 6.276147
C 5.544688 4.524536 6.226501
C 5.508452 4.143070 6.651965
C 4.735838 4.689046 6.623258
C 6.066918 4.212944 6.005733
C 6.497787 4.634516 6.236990
C 6.481599 4.137240 6.346797
C 5.878711 4.346166 6.547496
C 6.867530 4.189286 6.140946
C 7.401204 4.328366 6.011046
C 7.269422 3.750446 6.329336
C 7.169195 4.278400 6.523345
C 0.017179 5.091083 6.269877
C 0.289365 5.245598 5.923851
C 0.299689 5.032347 6.623653
C 0.127028 5.656567 6.780532
C 0.963385 4.763043 6.120003
C 1.266694 5.528288 6.071291
C 1.241092 5.035857 6.554006
C 0.856985 5.714958 6.464574
C 2.072937 5.071731 5.993338
C 2.568086 5.633496 5.911058
C 2.216233 5.123946 6.452073
C 1.984097 5.663952 6.558935
C 2.930803 5.113580 5.877033
C 3.407550 5.276145 5.873990
C 3.681951 4.790517 6.627696
C 3.043239 5.533442 6.354224
C 3.992537 4.959068 5.821678
C 4.662491 5.341683 5.765510
C 4.278318 5.097119 6.643169
C 4.224024 5.663816 6.405734
C 4.960670 4.949312 5.827663
C 5.440597 5.440476 6.262226
C 5.645134 4.987934 6.292943
C 5.042648 5.576218 6.197451
C 6.124208 4.975267 6.064534
C 6.673794 5.700963 5.988721
C 6.697035 5.173503 6.606475
C 5.724778 5.462733 6.611150
C 6.983538 4.842912 5.834476
C 7.469308 5.411470 6.238873
C 7.282729 4.882875 6.653833
C 7.141836 5.293481 6.551398
C 0.258525 5.731683 6.227608
C 0.370754 6.624618 6.012141
C 0.505877 6.114142 6.880282
C 0.060677 6.760920 6.588237
C 1.377014 6.012970 5.941814
C 1.688396 6.560643 6.162321
C 1.588720 5.820159 6.633573
C 0.850425 6.490600 6.647680
C 2.035340 5.950047 6.231291
C 2.535335 6.516951 5.703389
C 2.563637 5.961938 6.613176
C 2.094138 6.407644 6.448516
C 2.983605 6.056433 5.835548
C 3.585177 6.570611 5.710885
C 3.365977 5.919748 6.620451
C 2.973370 6.364099 6.630115
C 4.016833 6.078977 6.110357
C 4.458480 6.468209 6.124775
C 4.699122 6.223548 6.381499
C 3.832436 6.208743 6.595455
C 5.170848 6.139084 6.113715
C 5.252312 6.580703 6.043883
C 5.573444 5.924484 6.320242
C 5.148577 6.465422 6.572495
C 6.149322 6.013943 5.815857
C 6.656234 6.814905 5.982734
C 6.757877 6.012266 6.597448
C 5.833606 6.644227 6.475241
C 6.875989 6.137700 6.147965
C 7.166966 6.589953 5.870926
C 7.478031 6.363760 6.474453
C 6.820545 6.541693 6.498902
C 0.162682 7.121056 6.230823
C 0.619889 7.404832 5.812750
C 0.684818 7.055248 6.545417
C 0.028594 7.485718 6.634771
C 0.806547 7.040539 6.116754
C 1.515972 7.410340 6.003418
C 1.491833 7.304702 6.534209
C 1.024738 7.439228 6.483102
C 2.267965 6.897572 6.022352
C 2.542798 7.448325 5.932241
C 2.617392 6.739725 6.549846
C 1.893374 7.208283 6.425812
C 2.934655 6.899186 5.758825
C 3.666418 7.459678 5.851544
C 3.617267 7.061225 6.491953
C 2.730964 7.336624 6.456422
C 3.904240 6.811680 6.015700
C 4.138640 7.222204 5.971019
C 4.341114 6.935380 6.456918
C 4.033844 7.246627 6.648079
C 4.798739 7.200039 6.123625
C 5.311120 7.147808 6.005363
C 5.366877 6.823654 6.387297
C 4.848167 7.370886 6.602686
C 6.209838 7.083561 6.054724
C 6.377880 7.494843 6.204475
C 6.513104 6.912446 6.375357
C 5.850133 7.479228 6.590371
C 6.981710 7.303597 6.068220
C 7.432615 7.410048 6.397464
C 7.196208 6.787247 6.462521
C 6.802730 7.316060 6.471323
C 0.450277 0.325813 6.874913
C 0.611694 0.725208 6.805855
C 0.496462 0.374110 7.475736
C 0.042537 0.215245 7.408082
C 0.974932 0.197004 7.030514
C 1.488997 0.421515 6.875798
C 1.765463 0.136691 7.306494
C 0.904209 0.864496 7.441767
C 2.070508 0.320026 6.960963
C 2.719419 0.544378 7.314521
C 2.210046 0.225252 7.389158
C 2.019871 0.696633 7.173778
C 2.873181 0.290450 6.880320
C 3.197114 0.550784 6.992746
C 3.351454 0.062732 7.181252
C 3.099604 0.709354 7.476208
C 4.079328 0.016865 7.085067
C 4.719838 0.920451 7.150023
C 4.178687 0.592846 7.290084
C 3.693284 0.447734 7.239445
C 4.708559 0.217420 6.827845
C 5.391496 0.762575 7.109264
C 5.658797 0.179399 7.354098
C 4.940169 0.469820 7.309509
C 6.097073 0.049738 7.063213
C 6.400491 0.453907 7.267759
C 6.586164 0.010853 7.128235
C 5.986187 0.651536 7.332035
C 7.001840 0.067193 6.840028
C 7.220013 0.560845 6.844349
C 7.392306 0.120272 7.014406
C 7.236821 0.640200 7.391842
C 0.100265 0.848396 7.224223
C 0.500861 1.765898 7.183455
C 0.529336 1.218405 7.270938
C 0.117991 1.620089 7.011118
C 0.988702 0.623476 7.063100
C 1.591228 1.203954 6.963648
C 1.396671 1.056361 7.332448
C 0.996639 1.352613 7.372844
C 2.108466 1.341584 6.961197
C 2.734287 1.728200 6.844519
C 2.512868 1.005928 7.084967
C 1.796998 1.465149 7.315231
C 3.077324 0.892932 6.730054
C 3.669125 1.549779 6.848542
C 3.349346 1.036176 7.315139
C 2.936785 1.386110 7.482501
C 4.006527 1.094455 6.708501
C 4.509363 1.343313 7.009631
C 4.199556 1.212286 7.333517
C 4.184125 1.654701 7.408152
C 5.058023 1.178157 6.801854
C 5.694852 1.676392 6.717026
C 5.738063 1.028945 7.311282
C 5.159477 1.563527 7.349004
C 6.184548 1.197134 7.101171
C 6.450415 1.519579 7.200086
C 6.346670 0.939219 7.474520
C 6.105040 1.413957 7.486311
C 6.935024 1.172856 6.758548
C 7.416482 1.501274 7.171821
C 7.120452 1.052904 7.427029
C 6.844017 1.720591 7.237077
C 0.130872 1.744313 6.443015
C 0.537792 2.257516 6.812254
C 0.585389 2.141227 7.437233
C 0.271103 2.711300 6.987083
C 0.985547 1.974838 7.286196
C 1.598634 2.779618 7.118812
C 1.387854 1.817209 7.273171
C 0.811130 2.641887 7.475908
C 1.885831 1.962244 7.169775
C 2.559672 2.298297 7.131329
C 2.772774 2.074273 7.491644
C 2.304292 2.324975 7.483036
C 2.982746 2.058540 7.107884
C 3.398673 2.544029 7.146742
C 3.859252 2.021038 7.416696
C 2.902261 2.565759 7.371928
C 3.762763 2.109464 6.974585
C 4.549139 2.387248 6.818099
C 4.350625 2.284515 7.369514
C 3.718481 2.692595 7.447003
C 4.878101 1.999463 7.139276
C 5.563550 2.464764 6.727457
C 5.616005 2.017701 7.323318
C 4.735396 2.534887 7.319128
C 6.092419 1.881933 6.879453
C 6.682677 2.404432 7.144538
C 6.496040 2.099755 7.391125
C 5.703577 2.507845 7.368179
C 6.629253 1.975570 6.966339
C 7.190949 2.574195 6.462463
C 7.254247 2.226347 7.175592
C 6.981955 2.730910 7.347807
C 0.016673 3.133446 6.670681
C 0.505156 3.726140 6.983434
C 0.655776 3.064181 7.428361
C 0.079166 3.278693 7.357188
C 1.060457 2.855870 7.073836
C 1.811225 3.491381 7.059906
C 1.795458 3.206307 7.452060
C 0.749969 3.574670 7.319193
C 1.851069 3.189509 6.755504
C 2.531529 3.594036 7.030401
C 2.514933 3.119640 7.443918
C 2.124567 3.803289 7.274177
C 2.906597 3.094687 6.901483
C 3.525619 3.486807 7.060435
C 3.589543 3.281674 7.427519
C 2.866876 3.529902 7.437899
C 4.104590 3.267936 6.938769
C 4.370727 3.834345 6.935828
C 4.563717 3.097925 7.186653
C 3.919178 3.607797 7.304852
C 4.933108 3.077099 6.958725
C 5.761684 3.400397 7.084778
C 5.719909 2.969295 7.380743
C 5.063773 3.605221 7.376513
C 6.225335 2.769266 7.005701
C 6.203229 3.631456 6.912928
C 6.385118 2.641139 7.453026
C 6.037181 3.960212 7.457742
C 6.924916 2.862961 6.867048
C 7.112800 3.770937 6.741894
C 7.336912 2.985785 7.317835
C 7.114084 3.370299 7.394741
C 0.323211 4.099943 6.876714
C 0.401143 4.689552 7.130957
C 0.284901 4.283683 7.291764
C 0.147734 4.746790 7.469475
C 0.968527 4.087097 7.241279
C 1.286360 4.324943 7.032625
C 1.327341 4.009157 7.482190
C 0.861394 4.528130 7.126979
C 1.713456 3.931949 7.186165
C 2.209171 4.667988 7.091490
C 2.400557 4.194742 7.222382
C 1.752957 4.846041 7.439786
C 3.070661 3.998055 6.773795
C 3.400925 4.397720 7.113054
C 3.275101 3.871016 7.254735
C 3.013397 4.291235 7.465676
C 3.787035 4.058740 6.787285
C 4.670408 4.509578 7.147658
C 4.616498 4.099893 7.354517
C 4.341159 4.526369 7.438027
C 4.953015 4.140558 7.059689
C 5.767509 4.354869 6.982507
C 5.506126 3.721460 7.293691
C 5.296114 4.224133 7.394314
C 6.217589 4.164119 6.966688
C 6.710013 4.463401 6.882670
C 6.646631 3.886122 7.178623
C 5.881633 4.717218 7.260597
C 7.063834 4.098111 7.012158
C 7.291614 4.691059 7.100540
C 7.141485 4.121699 7.471948
C 6.680651 4.644938 7.479716
C 0.259879 5.168578 7.043859
C 0.432155 5.678069 7.153664
C 0.902521 4.962902 7.313328
C 0.040567 5.536889 7.255882
C 0.844599 5.115776 6.906702
C 1.262854 5.358619 6.872892
C 1.395346 5.150117 7.460161
C 1.143114 5.477715 7.333935
C 2.209035 5.155501 7.030573
C 2.545840 5.454069 6.876417
C 2.173869 4.963436 7.457118
C 1.878783 5.289768 7.399026
C 3.037451 4.995063 6.898570
C 3.109096 5.625284 6.968246
C 3.420718 5.133791 7.191238
C 3.198053 5.450748 7.476902
C 3.934329 5.284483 6.885754
C 4.338215 5.709767 7.133045
C 4.498167 5.333666 7.422051
C 4.043342 5.444559 7.447463
C 4.808210 5.034080 7.243188
C 5.315880 5.676522 7.014361
C 5.363623 5.221031 7.380972
C 4.714158 5.758958 7.330527
C 6.181135 4.891022 6.998054
C 6.336708 5.449416 7.030321
C 6.322297 4.355206 7.368632
C 5.911831 5.519166 7.313691
C 6.855519 5.055456 7.057617
C 7.403628 5.815087 6.742446
C 7.381099 5.232749 7.438517
C 6.973000 5.529221 6.971071
C 0.056681 6.081648 6.852088
C 0.432639 6.565296 6.676360
C 0.720546 6.137355 7.373737
C 0.166060 6.305605 7.321979
C 0.956428 6.050592 6.810672
C 1.247772 6.443893 6.932365
C 1.553115 5.853175 7.307492
C 0.619779 6.658859 7.473015
C 2.190365 6.141707 6.821355
C 2.483850 6.579497 7.011240
C 2.394255 6.098685 7.401077
C 2.176910 6.567165 7.434596
C 2.656414 6.161186 7.062514
C 3.328853 6.346807 7.139877
C 3.320210 6.019706 7.494309
C 2.896645 6.129338 7.477289
C 4.124967 5.854339 6.792288
C 4.551121 6.444516 7.014011
C 4.320928 6.009908 7.447605
C 3.897392 6.452466 7.261611
C 5.114313 6.072841 7.007052
C 5.640565 6.310589 7.212911
C 5.302740 6.009333 7.466611
C 5.136597 6.423194 7.281016
C 6.049946 6.119734 7.169383
C 6.436635 6.662621 6.818110
C 6.513224 5.746762 7.489797
C 6.185402 6.418466 7.454421
C 7.149755 5.933861 7.133968
C 7.430471 6.523325 6.971763
C 7.351384 6.069328 7.488074
C 7.072306 6.562396 7.362327
C 0.385687 7.140991 7.039145
C 0.773422 7.451212 6.959457
C 0.809179 7.112660 7.276042
C 0.286074 7.496527 7.346685
C 0.946563 6.747494 7.061901
C 1.225205 7.462596 6.898622
C 1.416978 6.861482 7.407591
C 1.344553 7.369129 7.317984
C 1.877205 6.852910 7.255065
C 2.852098 7.342021 7.044651
C 2.683197 6.757879 7.463354
C 2.227367 7.178607 7.241669
C 2.878343 6.826524 6.916427
C 3.679840 7.304239 6.953963
C 3.874342 7.045655 7.265737
C 2.646939 7.431320 7.433924
C 4.280757 6.928195 6.903366
C 4.248885 7.249089 7.284153
C 4.319553 6.693347 7.396161
C 3.631830 7.499627 7.427483
C 4.842323 7.251212 7.112929
C 5.244965 7.397559 6.868332
C 5.376753 6.913537 7.419985
C 5.251026 7.344173 7.475563
C 6.237480 7.047004 6.988904
C 6.901294 7.300899 6.887787
C 6.119119 7.019162 7.480902
C 5.742024 7.456548 7.359046
C 7.014747 6.826681 6.873328
C 7.321103 7.481855 7.073949
C 7.210891 6.991113 7.285332
C 6.680957 7.426489 7.251558
