512
Frame 1/10
C 0.000000 0.000000 0.000000
C 1.000000 0.000000 0.000000
C 2.000000 0.000000 0.000000
C 3.000000 0.000000 0.000000
C 4.000000 0.000000 0.000000
C 5.000000 0.000000 0.000000
C 6.000000 0.000000 0.000000
C 7.000000 0.000000 0.000000
C 0.000000 1.000000 0.000000
C 1.000000 1.000000 0.000000
C 2.000000 1.000000 0.000000
C 3.000000 1.000000 0.000000
C 4.000000 1.000000 0.000000
C 5.000000 1.000000 0.000000
C 6.000000 1.000000 0.000000
C 7.000000 1.000000 0.000000
C 0.000000 2.000000 0.000000
C 1.000000 2.000000 0.000000
C 2.000000 2.000000 0.000000
C 3.000000 2.000000 0.000000
C 4.000000 2.000000 0.000000
C 5.000000 2.000000 0.000000
C 6.000000 2.000000 0.000000
C 7.000000 2.000000 0.000000
C 0.000000 3.000000 0.000000
C 1.000000 3.000000 0.000000
C 2.000000 3.000000 0.000000
C 3.000000 3.000000 0.000000
C 4.000000 3.000000 0.000000
C 5.000000 3.000000 0.000000
C 6.000000 3.000000 0.000000
C 7.000000 3.000000 0.000000
C 0.000000 4.000000 0.000000
C 1.000000 4.000000 0.000000
C 2.000000 4.000000 0.000000
C 3.000000 4.000000 0.000000
C 4.000000 4.000000 0.000000
C 5.000000 4.000000 0.000000
C 6.000000 4.000000 0.000000
C 7.000000 4.000000 0.000000
C 0.000000 5.000000 0.000000
C 1.000000 5.000000 0.000000
C 2.000000 5.000000 0.000000
C 3.000000 5.000000 0.000000
C 4.000000 5.000000 0.000000
C 5.000000 5.000000 0.000000
C 6.000000 5.000000 0.000000
C 7.000000 5.000000 0.000000
C 0.000000 6.000000 0.000000
C 1.000000 6.000000 0.000000
C 2.000000 6.000000 0.000000
C 3.000000 6.000000 0.000000
C 4.000000 6.000000 0.000000
C 5.000000 6.000000 0.000000
C 6.000000 6.000000 0.000000
C 7.000000 6.000000 0.000000
C 0.000000 7.000000 0.000000
C 1.000000 7.000000 0.000000
C 2.000000 7.000000 0.000000
C 3.000000 7.000000 0.000000
C 4.000000 7.000000 0.000000
C 5.000000 7.000000 0.000000
C 6.000000 7.000000 0.000000
C 7.000000 7.000000 0.000000
C 0.000000 0.000000 1.000000
C 1.000000 0.000000 1.000000
C 2.000000 0.000000 1.000000
C 3.000000 0.000000 1.000000
C 4.000000 0.000000 1.000000
C 5.000000 0.000000 1.000000
C 6.000000 0.000000 1.000000
C 7.000000 0.000000 1.000000
C 0.000000 1.000000 1.000000
C 1.000000 1.000000 1.000000
C 2.000000 1.000000 1.000000
C 3.000000 1.000000 1.000000
C 4.000000 1.000000 1.000000
C 5.000000 1.000000 1.000000
C 6.000000 1.000000 1.000000
C 7.000000 1.000000 1.000000
C 0.000000 2.000000 1.000000
C 1.000000 2.000000 1.000000
C 2.000000 2.000000 1.000000
C 3.000000 2.000000 1.000000
C 4.000000 2.000000 1.000000
C 5.000000 2.000000 1.000000
C 6.000000 2.000000 1.000000
C 7.000000 2.000000 1.000000
C 0.000000 3.000000 1.000000
C 1.000000 3.000000 1.000000
C 2.000000 3.000000 1.000000
C 3.000000 3.000000 1.000000
C 4.000000 3.000000 1.000000
C 5.000000 3.000000 1.000000
C 6.000000 3.000000 1.000000
C 7.000000 3.000000 1.000000
C 0.000000 4.000000 1.000000
C 1.000000 4.000000 1.000000
C 2.000000 4.000000 1.000000
C 3.000000 4.000000 1.000000
C 4.000000 4.000000 1.000000
C 5.000000 4.000000 1.000000
C 6.000000 4.000000 1.000000
C 7.000000 4.000000 1.000000
C 0.000000 5.000000 1.000000
C 1.000000 5.000000 1.000000
C 2.000000 5.000000 1.000000
C 3.000000 5.000000 1.000000
C 4.000000 5.000000 1.000000
C 5.000000 5.000000 1.000000
C 6.000000 5.000000 1.000000
C 7.000000 5.000000 1.000000
C 0.000000 6.000000 1.000000
C 1.000000 6.000000 1.000000
C 2.000000 6.000000 1.000000
C 3.000000 6.000000 1.000000
C 4.000000 6.000000 1.000000
C 5.000000 6.000000 1.000000
C 6.000000 6.000000 1.000000
C 7.000000 6.000000 1.000000
C 0.000000 7.000000 1.000000
C 1.000000 7.000000 1.000000
C 2.000000 7.000000 1.000000
C 3.000000 7.000000 1.000000
C 4.000000 7.000000 1.000000
C 5.000000 7.000000 1.000000
C 6.000000 7.000000 1.000000
C 7.000000 7.000000 1.000000
C 0.000000 0.000000 2.000000
C 1.000000 0.000000 2.000000
C 2.000000 0.000000 2.000000
C 3.000000 0.000000 2.000000
C 4.000000 0.000000 2.000000
C 5.000000 0.000000 2.000000
C 6.000000 0.000000 2.000000
C 7.000000 0.000000 2.000000
C 0.000000 1.000000 2.000000
C 1.000000 1.000000 2.000000
C 2.000000 1.000000 2.000000
C 3.000000 1.000000 2.000000
C 4.000000 1.000000 2.000000
C 5.000000 1.000000 2.000000
C 6.000000 1.000000 2.000000
C 7.000000 1.000000 2.000000
C 0.000000 2.000000 2.000000
C 1.000000 2.000000 2.000000
C 2.000000 2.000000 2.000000
C 3.000000 2.000000 2.000000
C 4.000000 2.000000 2.000000
C 5.000000 2.000000 2.000000
C 6.000000 2.000000 2.000000
C 7.000000 2.000000 2.000000
C 0.000000 3.000000 2.000000
C 1.000000 3.000000 2.000000
C 2.000000 3.000000 2.000000
C 3.000000 3.000000 2.000000
C 4.000000 3.000000 2.000000
C 5.000000 3.000000 2.000000
C 6.000000 3.000000 2.000000
C 7.000000 3.000000 2.000000
C 0.000000 4.000000 2.000000
C 1.000000 4.000000 2.000000
C 2.000000 4.000000 2.000000
C 3.000000 4.000000 2.000000
C 4.000000 4.000000 2.000000
C 5.000000 4.000000 2.000000
C 6.000000 4.000000 2.000000
C 7.000000 4.000000 2.000000
C 0.000000 5.000000 2.000000
C 1.000000 5.000000 2.000000
C 2.000000 5.000000 2.000000
C 3.000000 5.000000 2.000000
C 4.000000 5.000000 2.000000
C 5.000000 5.000000 2.000000
C 6.000000 5.000000 2.000000
C 7.000000 5.000000 2.000000
C 0.000000 6.000000 2.000000
C 1.000000 6.000000 2.000000
C 2.000000 6.000000 2.000000
C 3.000000 6.000000 2.000000
C 4.000000 6.000000 2.000000
C 5.000000 6.000000 2.000000
C 6.000000 6.000000 2.000000
C 7.000000 6.000000 2.000000
C 0.000000 7.000000 2.000000
C 1.000000 7.000000 2.000000
C 2.000000 7.000000 2.000000
C 3.000000 7.000000 2.000000
C 4.000000 7.000000 2.000000
C 5.000000 7.000000 2.000000
C 6.000000 7.000000 2.000000
C 7.000000 7.000000 2.000000
C 0.000000 0.000000 3.000000
C 1.000000 0.000000 3.000000
C 2.000000 0.000000 3.000000
C 3.000000 0.000000 3.000000
C 4.000000 0.000000 3.000000
C 5.000000 0.000000 3.000000
C 6.000000 0.000000 3.000000
C 7.000000 0.000000 3.000000
C 0.000000 1.000000 3.000000
C 1.000000 1.000000 3.000000
C 2.000000 1.000000 3.000000
C 3.000000 1.000000 3.000000
C 4.000000 1.000000 3.000000
C 5.000000 1.000000 3.000000
C 6.000000 1.000000 3.000000
C 7.000000 1.000000 3.000000
C 0.000000 2.000000 3.000000
C 1.000000 2.000000 3.000000
C 2.000000 2.000000 3.000000
C 3.000000 2.000000 3.000000
C 4.000000 2.000000 3.000000
C 5.000000 2.000000 3.000000
C 6.000000 2.000000 3.000000
C 7.000000 2.000000 3.000000
C 0.000000 3.000000 3.000000
C 1.000000 3.000000 3.000000
C 2.000000 3.000000 3.000000
C 3.000000 3.000000 3.000000
C 4.000000 3.000000 3.000000
C 5.000000 3.000000 3.000000
C 6.000000 3.000000 3.000000
C 7.000000 3.000000 3.000000
C 0.000000 4.000000 3.000000
C 1.000000 4.000000 3.000000
C 2.000000 4.000000 3.000000
C 3.000000 4.000000 3.000000
C 4.000000 4.000000 3.000000
C 5.000000 4.000000 3.000000
C 6.000000 4.000000 3.000000
C 7.000000 4.000000 3.000000
C 0.000000 5.000000 3.000000
C 1.000000 5.000000 3.000000
C 2.000000 5.000000 3.000000
C 3.000000 5.000000 3.000000
C 4.000000 5.000000 3.000000
C 5.000000 5.000000 3.000000
C 6.000000 5.000000 3.000000
C 7.000000 5.000000 3.000000
C 0.000000 6.000000 3.000000
C 1.000000 6.000000 3.000000
C 2.000000 6.000000 3.000000
C 3.000000 6.000000 3.000000
C 4.000000 6.000000 3.000000
C 5.000000 6.000000 3.000000
C 6.000000 6.000000 3.000000
C 7.000000 6.000000 3.000000
C 0.000000 7.000000 3.000000
C 1.000000 7.000000 3.000000
C 2.000000 7.000000 3.000000
C 3.000000 7.000000 3.000000
C 4.000000 7.000000 3.000000
C 5.000000 7.000000 3.000000
C 6.000000 7.000000 3.000000
C 7.000000 7.000000 3.000000
C 0.000000 0.000000 4.000000
C 1.000000 0.000000 4.000000
C 2.000000 0.000000 4.000000
C 3.000000 0.000000 4.000000
C 4.000000 0.000000 4.000000
C 5.000000 0.000000 4.000000
C 6.000000 0.000000 4.000000
C 7.000000 0.000000 4.000000
C 0.000000 1.000000 4.000000
C 1.000000 1.000000 4.000000
C 2.000000 1.000000 4.000000
C 3.000000 1.000000 4.000000
C 4.000000 1.000000 4.000000
C 5.000000 1.000000 4.000000
C 6.000000 1.000000 4.000000
C 7.000000 1.000000 4.000000
C 0.000000 2.000000 4.000000
C 1.000000 2.000000 4.000000
C 2.000000 2.000000 4.000000
C 3.000000 2.000000 4.000000
C 4.000000 2.000000 4.000000
C 5.000000 2.000000 4.000000
C 6.000000 2.000000 4.000000
C 7.000000 2.000000 4.000000
C 0.000000 3.000000 4.000000
C 1.000000 3.000000 4.000000
C 2.000000 3.000000 4.000000
C 3.000000 3.000000 4.000000
C 4.000000 3.000000 4.000000
C 5.000000 3.000000 4.000000
C 6.000000 3.000000 4.000000
C 7.000000 3.000000 4.000000
C 0.000000 4.000000 4.000000
C 1.000000 4.000000 4.000000
C 2.000000 4.000000 4.000000
C 3.000000 4.000000 4.000000
C 4.000000 4.000000 4.000000
C 5.000000 4.000000 4.000000
C 6.000000 4.000000 4.000000
C 7.000000 4.000000 4.000000
C 0.000000 5.000000 4.000000
C 1.000000 5.000000 4.000000
C 2.000000 5.000000 4.000000
C 3.000000 5.000000 4.000000
C 4.000000 5.000000 4.000000
C 5.000000 5.000000 4.000000
C 6.000000 5.000000 4.000000
C 7.000000 5.000000 4.000000
C 0.000000 6.000000 4.000000
C 1.000000 6.000000 4.000000
C 2.000000 6.000000 4.000000
C 3.000000 6.000000 4.000000
C 4.000000 6.000000 4.000000
C 5.000000 6.000000 4.000000
C 6.000000 6.000000 4.000000
C 7.000000 6.000000 4.000000
C 0.000000 7.000000 4.000000
C 1.000000 7.000000 4.000000
C 2.000000 7.000000 4.000000
C 3.000000 7.000000 4.000000
C 4.000000 7.000000 4.000000
C 5.000000 7.000000 4.000000
C 6.000000 7.000000 4.000000
C 7.000000 7.000000 4.000000
C 0.000000 0.000000 5.000000
C 1.000000 0.000000 5.000000
C 2.000000 0.000000 5.000000
C 3.000000 0.000000 5.000000
C 4.000000 0.000000 5.000000
C 5.000000 0.000000 5.000000
C 6.000000 0.000000 5.000000
C 7.000000 0.000000 5.000000
C 0.000000 1.000000 5.000000
C 1.000000 1.000000 5.000000
C 2.000000 1.000000 5.000000
C 3.000000 1.000000 5.000000
C 4.000000 1.000000 5.000000
C 5.000000 1.000000 5.000000
C 6.000000 1.000000 5.000000
C 7.000000 1.000000 5.000000
C 0.000000 2.000000 5.000000
C 1.000000 2.000000 5.000000
C 2.000000 2.000000 5.000000
C 3.000000 2.000000 5.000000
C 4.000000 2.000000 5.000000
C 5.000000 2.000000 5.000000
C 6.000000 2.000000 5.000000
C 7.000000 2.000000 5.000000
C 0.000000 3.000000 5.000000
C 1.000000 3.000000 5.000000
C 2.000000 3.000000 5.000000
C 3.000000 3.000000 5.000000
C 4.000000 3.000000 5.000000
C 5.000000 3.000000 5.000000
C 6.000000 3.000000 5.000000
C 7.000000 3.000000 5.000000
C 0.000000 4.000000 5.000000
C 1.000000 4.000000 5.000000
C 2.000000 4.000000 5.000000
C 3.000000 4.000000 5.000000
C 4.000000 4.000000 5.000000
C 5.000000 4.000000 5.000000
C 6.000000 4.000000 5.000000
C 7.000000 4.000000 5.000000
C 0.000000 5.000000 5.000000
C 1.000000 5.000000 5.000000
C 2.000000 5.000000 5.000000
C 3.000000 5.000000 5.000000
C 4.000000 5.000000 5.000000
C 5.000000 5.000000 5.000000
C 6.000000 5.000000 5.000000
C 7.000000 5.000000 5.000000
C 0.000000 6.000000 5.000000
C 1.000000 6.000000 5.000000
C 2.000000 6.000000 5.000000
C 3.000000 6.000000 5.000000
C 4.000000 6.000000 5.000000
C 5.000000 6.000000 5.000000
C 6.000000 6.000000 5.000000
C 7.000000 6.000000 5.000000
C 0.000000 7.000000 5.000000
C 1.000000 7.000000 5.000000
C 2.000000 7.000000 5.000000
C 3.000000 7.000000 5.000000
C 4.000000 7.000000 5.000000
C 5.000000 7.000000 5.000000
C 6.000000 7.000000 5.000000
C 7.000000 7.000000 5.000000
C 0.000000 0.000000 6.000000
C 1.000000 0.000000 6.000000
C 2.000000 0.000000 6.000000
C 3.000000 0.000000 6.000000
C 4.000000 0.000000 6.000000
C 5.000000 0.000000 6.000000
C 6.000000 0.000000 6.000000
C 7.000000 0.000000 6.000000
C 0.000000 1.000000 6.000000
C 1.000000 1.000000 6.000000
C 2.000000 1.000000 6.000000
C 3.000000 1.000000 6.000000
C 4.000000 1.000000 6.000000
C 5.000000 1.000000 6.000000
C 6.000000 1.000000 6.000000
C 7.000000 1.000000 6.000000
C 0.000000 2.000000 6.000000
C 1.000000 2.000000 6.000000
C 2.000000 2.000000 6.000000
C 3.000000 2.000000 6.000000
C 4.000000 2.000000 6.000000
C 5.000000 2.000000 6.000000
C 6.000000 2.000000 6.000000
C 7.000000 2.000000 6.000000
C 0.000000 3.000000 6.000000
C 1.000000 3.000000 6.000000
C 2.000000 3.000000 6.000000
C 3.000000 3.000000 6.000000
C 4.000000 3.000000 6.000000
C 5.000000 3.000000 6.000000
C 6.000000 3.000000 6.000000
C 7.000000 3.000000 6.000000
C 0.000000 4.000000 6.000000
C 1.000000 4.000000 6.000000
C 2.000000 4.000000 6.000000
C 3.000000 4.000000 6.000000
C 4.000000 4.000000 6.000000
C 5.000000 4.000000 6.000000
C 6.000000 4.000000 6.000000
C 7.000000 4.000000 6.000000
C 0.000000 5.000000 6.000000
C 1.000000 5.000000 6.000000
C 2.000000 5.000000 6.000000
C 3.000000 5.000000 6.000000
C 4.000000 5.000000 6.000000
C 5.000000 5.000000 6.000000
C 6.000000 5.000000 6.000000
C 7.000000 5.000000 6.000000
C 0.000000 6.000000 6.000000
C 1.000000 6.000000 6.000000
C 2.000000 6.000000 6.000000
C 3.000000 6.000000 6.000000
C 4.000000 6.000000 6.000000
C 5.000000 6.000000 6.000000
C 6.000000 6.000000 6.000000
C 7.000000 6.000000 6.000000
C 0.000000 7.000000 6.000000
C 1.000000 7.000000 6.000000
C 2.000000 7.000000 6.000000
C 3.000000 7.000000 6.000000
C 4.000000 7.000000 6.000000
C 5.000000 7.000000 6.000000
C 6.000000 7.000000 6.000000
C 7.000000 7.000000 6.000000
C 0.000000 0.000000 7.000000
C 1.000000 0.000000 7.000000
C 2.000000 0.000000 7.000000
C 3.000000 0.000000 7.000000
C 4.000000 0.000000 7.000000
C 5.000000 0.000000 7.000000
C 6.000000 0.000000 7.000000
C 7.000000 0.000000 7.000000
C 0.000000 1.000000 7.000000
C 1.000000 1.000000 7.000000
C 2.000000 1.000000 7.000000
C 3.000000 1.000000 7.000000
C 4.000000 1.000000 7.000000
C 5.000000 1.000000 7.000000
C 6.000000 1.000000 7.000000
C 7.000000 1.000000 7.000000
C 0.000000 2.000000 7.000000
C 1.000000 2.000000 7.000000
C 2.000000 2.000000 7.000000
C 3.000000 2.000000 7.000000
C 4.000000 2.000000 7.000000
C 5.000000 2.000000 7.000000
C 6.000000 2.000000 7.000000
C 7.000000 2.000000 7.000000
C 0.000000 3.000000 7.000000
C 1.000000 3.000000 7.000000
C 2.000000 3.000000 7.000000
C 3.000000 3.000000 7.000000
C 4.000000 3.000000 7.000000
C 5.000000 3.000000 7.000000
C 6.000000 3.000000 7.000000
C 7.000000 3.000000 7.000000
C 0.000000 4.000000 7.000000
C 1.000000 4.000000 7.000000
C 2.000000 4.000000 7.000000
C 3.000000 4.000000 7.000000
C 4.000000 4.000000 7.000000
C 5.000000 4.000000 7.000000
C 6.000000 4.000000 7.000000
C 7.000000 4.000000 7.000000
C 0.000000 5.000000 7.000000
C 1.000000 5.000000 7.000000
C 2.000000 5.000000 7.000000
C 3.000000 5.000000 7.000000
C 4.000000 5.000000 7.000000
C 5.000000 5.000000 7.000000
C 6.000000 5.000000 7.000000
C 7.000000 5.000000 7.000000
C 0.000000 6.000000 7.000000
C 1.000000 6.000000 7.000000
C 2.000000 6.000000 7.000000
C 3.000000 6.000000 7.000000
C 4.000000 6.000000 7.000000
C 5.000000 6.000000 7.000000
C 6.000000 6.000000 7.000000
C 7.000000 6.000000 7.000000
C 0.000000 7.000000 7.000000
C 1.000000 7.000000 7.000000
C 2.000000 7.000000 7.000000
C 3.000000 7.000000 7.000000
C 4.000000 7.000000 7.000000
C 5.000000 7.000000 7.000000
C 6.000000 7.000000 7.000000
C 7.000000 7.000000 7.000000
512
Frame 2/10
C 0.047559 0.005600 0.040717
C 0.990925 0.066868 0.087518
C 1.979465 0.044591 0.006269
C 2.943897 0.003306 0.032588
C 4.006450 0.060670 0.026784
C 4.960416 0.035492 0.055167
C 5.976066 0.002662 0.068342
C 6.924717 0.047948 0.001311
C 0.032132 0.979365 0.046009
C 1.064804 0.985250 0.042382
C 2.001856 1.057238 0.011337
C 3.038834 0.990287 0.043979
C 3.961979 1.028892 0.001031
C 5.014424 0.992582 0.056351
C 5.957124 0.969273 0.010884
C 6.992267 1.034213 0.028171
C 0.053624 1.976253 0.040667
C 1.033219 1.984626 0.046054
C 2.037137 2.013432 0.008213
C 3.031989 1.983456 0.002208
C 4.035160 2.007991 0.033569
C 4.983913 1.951874 0.039836
C 5.975206 1.964389 0.012747
C 6.994456 2.026486 0.008503
C 0.014174 2.969473 0.005342
C 0.984370 2.971267 0.040111
C 1.994008 2.966889 0.026220
C 3.066923 3.004320 0.020681
C 4.031687 3.020390 0.017514
C 5.018644 2.955996 0.047866
C 5.983787 2.993524 0.030140
C 6.936895 3.022175 0.030555
C 0.008911 3.980253 0.017761
C 0.995597 4.034818 0.006754
C 1.989405 4.034547 0.003547
C 3.004887 3.998575 0.039660
C 4.021982 3.976609 0.000919
C 4.984098 3.956513 0.008785
C 5.989230 3.972754 0.014846
C 6.928408 4.018346 0.026019
C 0.029085 4.960605 0.036184
C 0.998334 5.014084 0.048092
C 1.970806 4.996148 0.003021
C 2.969632 4.987042 0.021532
C 3.967308 4.962445 0.010400
C 4.989704 5.031210 0.019728
C 6.001760 4.988593 0.014991
C 6.977505 5.037881 0.018475
C 0.019285 5.922652 0.045607
C 1.001356 5.988173 0.018866
C 1.958236 5.974413 0.001438
C 3.002534 5.999942 0.025325
C 4.036532 5.934648 0.001368
C 4.983534 6.026653 0.028085
C 6.010636 5.971558 0.023240
C 6.986434 6.028903 0.029435
C 0.030229 6.966497 0.003032
C 0.985859 6.950871 0.000665
C 2.020515 6.984835 0.047751
C 3.016596 6.964869 0.007886
C 3.999978 6.950026 0.018659
C 4.988122 6.992089 0.013673
C 5.959680 6.998413 0.020150
C 6.955253 6.973211 0.049957
C 0.006357 0.005094 1.024243
C 0.987471 0.011435 1.040988
C 1.988221 0.018913 0.973618
C 3.008770 0.037600 0.969841
C 4.004667 0.008502 0.963096
C 4.964503 0.034788 1.011491
C 5.987093 0.056641 1.000476
C 6.985126 0.000124 0.968058
C 0.006227 1.046389 0.957308
C 0.968585 1.020888 0.976699
C 2.008253 1.017238 1.009614
C 2.971442 1.026124 1.015759
C 4.035777 0.976961 0.980718
C 5.020947 0.964186 1.015284
C 6.018095 1.026562 0.948148
C 6.977222 1.011125 0.989320
C 0.027206 1.973200 1.011821
C 0.989058 2.015425 1.006663
C 1.995169 2.021676 0.955254
C 2.995062 2.032527 0.998222
C 4.024507 1.967320 1.008634
C 5.008909 1.966380 0.994961
C 6.036375 2.039712 1.015632
C 6.978992 1.990485 1.021292
C 0.007144 3.031285 1.039477
C 1.026273 2.996820 0.977986
C 2.019232 3.034369 1.013358
C 2.991462 3.035349 1.005220
C 4.019000 2.969880 0.969402
C 4.989029 3.024326 1.005595
C 6.006176 3.034140 0.982666
C 6.958767 2.970826 0.968004
C 0.030726 4.011706 0.964083
C 0.991376 4.007841 0.964203
C 1.962900 4.019545 0.966790
C 2.966544 3.997595 1.022505
C 3.993931 3.949422 0.996717
C 4.962144 4.015558 1.024711
C 6.019734 3.989707 0.991921
C 6.978330 3.970478 0.964556
C 0.003324 4.962936 0.999121
C 1.010959 5.048002 1.004839
C 2.044433 4.971283 1.000119
C 3.041838 4.982879 0.986612
C 4.005078 4.971448 0.962394
C 4.999566 4.984512 0.960265
C 6.031851 5.017255 0.968034
C 6.977944 5.051965 0.997911
C 0.054582 5.986420 1.000776
C 1.021301 6.025078 0.994481
C 1.956784 5.965718 0.980433
C 3.011935 5.952596 0.984725
C 3.985635 5.989988 0.991994
C 4.999907 5.975870 0.969308
C 6.031693 5.988878 0.983284
C 6.998574 6.014431 0.994672
C 0.042946 6.996883 0.997028
C 1.020630 6.986580 1.056146
C 2.029188 6.953663 1.021472
C 2.990579 6.956079 0.972816
C 3.996472 6.997789 1.004635
C 4.955885 6.993318 1.000694
C 5.950807 6.965286 0.971660
C 6.994665 6.964245 1.026217
C 0.002875 0.034113 2.028412
C 0.989397 0.002026 2.041310
C 2.058326 0.014562 2.025164
C 3.053656 0.008994 2.026658
C 3.994442 0.017551 1.972403
C 4.997566 0.030687 2.037002
C 5.980841 0.001742 1.998342
C 6.970265 0.017470 1.945939
C 0.008106 1.008500 1.949959
C 1.012590 1.000230 1.970824
C 2.009357 0.997136 2.028062
C 3.026648 0.969627 2.020943
C 3.980559 1.058395 1.993562
C 5.010056 1.008107 1.973470
C 5.971620 0.986060 2.008548
C 6.961292 1.022163 1.971548
C 0.014613 1.962287 1.987981
C 0.988733 1.983729 1.974048
C 1.994616 1.992177 2.017821
C 2.988451 2.016698 2.019048
C 3.977483 2.050453 1.976833
C 5.000292 1.964502 2.009527
C 6.000920 1.988493 1.944680
C 6.986659 2.008776 2.002231
C 0.007719 2.982651 1.982235
C 1.029252 2.981250 2.025475
C 1.992147 2.994451 2.005116
C 2.979743 2.984830 2.021998
C 3.959824 3.021550 1.974564
C 4.948446 3.010244 2.022043
C 6.032067 3.032354 1.991661
C 6.997165 2.982410 2.036544
C 0.023495 4.005413 2.044957
C 1.001152 3.984044 2.017063
C 2.001845 3.973351 2.011565
C 3.015216 3.949325 1.958221
C 3.966819 3.981756 1.990145
C 4.981101 3.993107 1.980168
C 6.013453 3.992351 1.987018
C 6.983320 4.045185 2.005573
C 0.048178 5.032662 1.998812
C 1.017573 4.979313 2.004248
C 1.991183 5.040071 2.021074
C 2.941809 5.010750 2.006924
C 4.000735 4.981873 2.037140
C 4.992910 5.003553 1.962564
C 5.977731 4.998912 2.026430
C 6.989811 5.006973 1.939254
C 0.002126 6.029723 2.008912
C 1.011166 5.982210 1.992800
C 1.973282 6.003427 2.019942
C 2.999614 6.016909 2.010291
C 3.994128 5.994723 1.960994
C 4.968626 5.995132 1.965654
C 6.009567 6.021616 2.005684
C 6.976656 5.988970 2.014481
C 0.039311 6.988358 2.021557
C 1.035697 6.944695 2.025506
C 2.003341 6.991340 1.968214
C 2.953749 6.988584 2.034974
C 4.009189 6.984408 1.969053
C 5.011150 6.983727 2.031399
C 6.026871 6.995742 2.015384
C 6.982422 6.975124 1.998467
C 0.005310 0.012348 2.998382
C 1.002615 0.012342 2.997098
C 2.031803 0.018328 3.016187
C 3.005812 0.036989 2.998173
C 3.998890 0.029607 2.954105
C 4.997799 0.030008 3.025268
C 6.002549 0.032969 2.965756
C 6.963795 0.044200 2.975376
C 0.000063 0.969670 2.967437
C 1.008726 1.013311 2.969986
C 2.006849 0.960110 2.983349
C 3.027036 0.997751 2.971356
C 3.979145 0.972994 2.996333
C 5.030825 1.011816 2.983079
C 5.980978 0.981447 3.000449
C 6.998166 1.057026 2.986621
C 0.010760 1.950818 3.003763
C 0.970626 1.968985 2.996076
C 1.958613 2.007676 2.964143
C 2.980757 2.017329 3.023854
C 3.999207 1.974056 2.963249
C 4.993582 2.004625 3.029444
C 5.999364 1.982838 3.034695
C 6.944034 1.995313 2.983351
C 0.016274 2.998766 3.032297
C 1.041178 2.977961 3.009185
C 1.960232 3.015860 2.962411
C 3.009521 3.007645 2.993488
C 4.016398 2.995315 2.967253
C 4.979470 3.006062 3.046564
C 6.002597 2.991976 3.012150
C 6.990745 3.046355 2.972646
C 0.008682 4.008849 3.056872
C 0.958210 3.977737 2.975639
C 2.000834 3.975367 2.982869
C 2.997503 3.974141 2.992886
C 4.003791 4.041435 2.984796
C 4.993719 4.023545 3.029348
C 5.972245 4.010666 2.975091
C 6.987002 3.981687 3.021027
C 0.032374 5.004014 2.974680
C 1.026982 4.976573 3.040605
C 1.983760 4.997785 3.040614
C 2.948513 5.024553 2.993009
C 4.005424 5.008657 2.987019
C 5.000662 5.030180 2.987601
C 5.998139 4.990669 2.994736
C 6.979593 4.984739 2.974195
C 0.049186 6.019286 3.001633
C 1.021667 6.009076 3.010082
C 1.982728 6.027412 2.991922
C 2.961364 6.042879 2.999692
C 4.022471 6.031956 3.015000
C 5.010166 6.030418 3.030982
C 5.966970 6.020606 3.005711
C 6.986625 5.950524 2.992311
C 0.002987 6.954377 3.029292
C 1.013897 6.992994 3.006625
C 1.979138 6.999968 2.996846
C 2.969985 6.999266 3.013527
C 4.048429 6.988978 2.959739
C 5.006455 6.997283 3.010490
C 5.987091 6.997334 2.962351
C 6.988210 6.950181 2.950798
C 0.054378 0.035213 3.950975
C 1.027439 0.004565 3.958505
C 1.984169 0.010436 4.025414
C 3.024624 0.044831 4.005474
C 3.988301 0.018142 4.052845
C 5.044743 0.006555 3.996098
C 6.006483 0.048405 4.037086
C 6.954946 0.020220 4.068989
C 0.002764 0.990153 3.958430
C 1.011917 1.015722 3.976855
C 2.010767 1.005166 3.999104
C 2.977887 0.992525 3.971319
C 3.963305 0.989644 3.999729
C 5.039841 0.979897 4.019589
C 6.004484 1.039527 3.972498
C 6.990446 0.986857 3.997755
C 0.007139 1.993948 4.020760
C 0.991940 1.977277 4.005909
C 2.011150 2.006913 3.981332
C 2.961882 1.987925 4.013249
C 3.998820 1.982682 4.002485
C 4.999472 2.040312 3.977615
C 6.005976 2.013215 4.019207
C 6.999227 2.046778 4.016563
C 0.005625 2.951307 4.007146
C 0.997532 3.011068 4.020396
C 1.963386 2.961358 4.026211
C 3.028868 3.040810 3.996373
C 3.999272 2.983525 4.020950
C 4.985591 3.044974 4.016426
C 5.979576 2.964317 4.019690
C 6.954790 3.013270 3.985221
C 0.015045 3.941042 3.976686
C 1.006294 4.024260 4.018615
C 1.968038 4.011892 3.973830
C 2.968327 4.024177 3.994614
C 4.028351 3.977803 4.003269
C 5.038158 4.046485 3.997906
C 6.002240 4.025264 3.996032
C 6.997273 3.970288 4.011539
C 0.000725 4.994551 4.018331
C 1.006976 5.013890 3.989562
C 2.022734 4.988133 4.011296
C 2.979042 4.995074 3.996992
C 4.011028 5.014935 4.042093
C 4.985962 4.973197 3.949939
C 5.968287 4.989554 4.004725
C 6.958345 4.963476 4.002956
C 0.025829 6.010618 3.977581
C 0.975938 5.975320 3.995356
C 2.034167 5.988776 4.026503
C 2.999815 5.971216 4.011111
C 4.024265 5.984376 3.974669
C 4.978954 6.009329 4.027330
C 5.998161 5.970792 4.040661
C 6.968265 6.014110 3.946978
C 0.003309 6.962751 4.036614
C 0.964806 6.996861 3.963004
C 2.004691 6.995515 4.008689
C 3.024719 6.983381 3.987200
C 3.978084 6.991605 4.029890
C 5.031310 6.985500 4.010094
C 6.015089 6.958704 3.999432
C 6.970412 6.959310 4.040157
C 0.052679 0.063391 4.987172
C 0.980205 0.008144 4.994087
C 2.029876 0.011130 4.969393
C 3.025786 0.005222 5.031681
C 4.032058 0.039754 4.988256
C 5.022626 0.008714 5.026410
C 5.975591 0.004051 5.048345
C 6.995396 0.025715 5.025602
C 0.049891 1.032854 5.018257
C 1.002047 0.972106 5.023628
C 1.996116 1.024667 4.985837
C 2.971140 1.017730 5.016134
C 3.994297 0.982139 5.025038
C 4.994728 1.003055 5.001133
C 5.969791 0.980008 5.011602
C 6.999809 0.991252 4.988322
C 0.034051 2.022137 4.973065
C 1.001370 1.956880 4.996790
C 1.985965 1.997351 5.042782
C 2.975863 1.993527 5.015258
C 4.000870 1.997516 4.986448
C 4.971975 2.029669 4.994226
C 6.010217 1.972526 4.999011
C 6.970077 2.024328 5.004829
C 0.018026 2.970952 5.012759
C 1.045069 3.007799 4.998092
C 2.016133 2.967831 5.029466
C 3.004657 2.971816 4.962465
C 4.014738 2.996591 5.026684
C 4.976926 2.988112 4.976132
C 6.018755 2.959344 4.963675
C 6.963878 2.993147 5.035508
C 0.018974 3.975769 4.950703
C 0.989886 4.053350 4.978176
C 1.962712 3.979922 5.051537
C 2.953432 3.989525 5.009931
C 4.018736 3.996423 5.020927
C 4.977076 3.970558 5.020886
C 6.000877 4.060063 5.017500
C 6.991952 3.989069 5.007770
C 0.008143 4.975433 4.987569
C 1.024615 5.041809 4.978607
C 2.012368 4.993285 5.024733
C 2.997413 5.005168 5.051046
C 3.946156 5.000160 5.007416
C 5.016356 5.043609 5.008073
C 6.024888 5.013767 4.994256
C 6.973530 4.946566 4.990597
C 0.008371 5.988672 5.002518
C 0.986208 6.022399 4.970476
C 2.037247 6.028507 4.999170
C 3.045801 6.032270 4.982436
C 3.993581 5.965616 5.005139
C 4.987387 6.036432 5.025719
C 5.974839 5.990824 4.994738
C 6.977845 5.991453 4.987082
C 0.037579 6.949803 5.015116
C 1.032528 6.980719 4.977426
C 1.997956 6.982684 4.967233
C 2.998545 6.967157 5.027435
C 4.019621 6.998724 4.987727
C 4.974640 6.994415 4.996967
C 5.992551 6.997759 4.956967
C 6.937282 6.988734 5.018766
C 0.034778 0.047365 5.995847
C 1.011425 0.044240 5.972647
C 1.984993 0.032996 6.029190
C 2.985486 0.051131 5.992490
C 4.050737 0.001109 5.998003
C 5.016035 0.000316 6.005542
C 6.015918 0.025436 6.045768
C 6.993734 0.002374 5.979101
C 0.065373 0.996806 5.993049
C 0.991745 1.051493 5.984385
C 2.038737 0.984886 6.021465
C 3.057264 0.969297 5.987279
C 3.992305 1.012825 6.044373
C 4.980630 0.997071 6.025186
C 5.995010 1.038933 5.966516
C 6.984396 0.956399 5.991153
C 0.044806 2.002089 6.039266
C 1.022258 1.996643 5.957006
C 2.008493 1.996177 6.025318
C 3.006951 2.020908 5.964334
C 4.025324 1.995905 6.017430
C 5.004945 1.972885 5.978507
C 6.037306 1.991464 6.004531
C 6.982477 1.983553 5.959167
C 0.003027 2.961950 5.977591
C 1.043601 2.996172 6.004180
C 2.052667 3.007220 6.019746
C 2.997959 3.034316 5.959644
C 3.989245 2.975140 5.976140
C 5.012307 2.993493 6.035207
C 6.007368 3.000831 5.964768
C 6.958111 2.964546 5.998647
C 0.013351 4.038493 5.956469
C 0.979050 4.050391 5.998880
C 2.020346 4.007838 6.020126
C 2.977104 3.988420 6.024966
C 4.020637 4.001200 6.026753
C 5.034043 4.007243 6.023229
C 6.026408 3.985687 5.994806
C 6.985863 4.009882 5.974870
C 0.048291 5.017069 6.017400
C 1.010239 4.998720 6.020452
C 1.961674 5.026371 6.033653
C 3.039097 4.985923 6.034707
C 4.007742 4.975204 6.022438
C 4.988132 4.976032 6.036605
C 6.032247 5.018158 6.009626
C 6.973217 4.971849 5.956802
C 0.017096 5.975277 5.995669
C 0.982001 5.980227 5.980431
C 1.970379 6.007808 5.995612
C 2.959747 5.985405 5.986851
C 3.952159 6.010572 5.980140
C 4.991830 6.006517 6.052364
C 5.991571 5.976466 6.014918
C 6.971973 6.024772 6.009503
C 0.017722 6.989615 5.970431
C 0.977565 6.998164 6.016091
C 2.015113 6.985191 5.998184
C 3.030152 6.992924 5.973034
C 4.042303 6.998539 5.991455
C 5.003077 6.981283 5.951937
C 6.025229 6.958646 6.006158
C 6.983886 6.995339 5.978191
C 0.002405 0.033617 6.970702
C 1.007198 0.009674 6.969454
C 1.969888 0.033509 6.992317
C 2.955716 0.015481 6.951833
C 4.032228 0.019143 6.957522
C 4.999037 0.029659 6.954975
C 5.961510 0.020710 6.997688
C 6.997477 0.055909 6.960679
C 0.016143 1.008469 6.930837
C 1.004169 0.988069 6.998203
C 1.984727 1.004671 6.995175
C 3.009606 0.978626 6.967337
C 4.024309 0.972742 6.981332
C 4.984888 0.979434 6.988860
C 5.935049 1.034328 6.980962
C 6.990107 1.024092 6.939201
C 0.027280 2.039332 6.990753
C 1.022670 1.987024 6.985833
C 2.045055 2.008416 6.999487
C 3.038158 2.038714 6.949296
C 3.975778 1.998432 6.987979
C 5.022889 1.996659 6.977755
C 5.974294 2.012760 6.955142
C 6.953894 1.980103 6.989729
C 0.026150 3.008673 6.918164
C 0.984384 2.962997 6.971524
C 2.052622 3.003708 6.998842
C 3.015786 2.995784 6.973651
C 4.004136 2.976843 6.958173
C 5.008139 3.031838 6.999948
C 6.012751 2.987500 6.991840
C 6.975020 2.990597 6.946805
C 0.031965 4.056411 6.931185
C 0.987736 4.001007 6.985760
C 2.049743 3.985572 6.997645
C 3.013268 4.000787 6.975930
C 4.027108 4.038264 6.976521
C 5.044933 3.976833 6.980349
C 6.006924 3.982392 6.996847
C 6.965339 3.981093 6.993740
C 0.047111 5.013974 6.986876
C 1.029861 5.018408 6.988044
C 1.990398 5.044447 6.993159
C 2.944670 4.994242 6.996900
C 3.976308 4.977621 6.970786
C 5.005126 4.980699 6.999079
C 5.997673 5.036342 6.994348
C 6.999007 4.967577 6.998079
C 0.004321 5.966692 6.983213
C 0.956453 6.028329 6.972029
C 1.978931 6.003052 6.955051
C 3.027095 5.957333 6.992334
C 4.036154 6.018424 6.985526
C 4.991385 6.043426 6.998105
C 5.981769 6.025740 6.978313
C 6.963970 5.969825 6.991524
C 0.020389 6.981513 6.999121
C 1.048707 6.995673 6.965309
C 2.028273 6.991893 6.955474
C 2.971268 6.925106 6.976116
C 3.954016 6.981121 6.987081
C 4.954209 6.994193 6.999835
C 6.005506 6.981018 6.959300
C 6.991798 6.995945 6.940081
512
Frame 3/10
C 0.095117 0.011200 0.081433
C 0.981850 0.133735 0.175036
C 1.958931 0.089183 0.012538
C 2.887794 0.006611 0.065176
C 4.012901 0.121340 0.053568
C 4.920832 0.070983 0.110333
C 5.952131 0.005324 0.136684
C 6.849433 0.095895 0.002621
C 0.064264 0.958730 0.092018
C 1.129608 0.970500 0.084763
C 2.003712 1.114475 0.022673
C 3.077667 0.980575 0.087957
C 3.923959 1.057784 0.002062
C 5.028847 0.985163 0.112701
C 5.914248 0.938546 0.021768
C 6.984533 1.068427 0.056342
C 0.107249 1.952507 0.081333
C 1.066439 1.969251 0.092107
C 2.074274 2.026864 0.016425
C 3.063977 1.966912 0.004416
C 4.070319 2.015983 0.067138
C 4.967827 1.903748 0.079671
C 5.950411 1.928777 0.025493
C 6.988912 2.052973 0.017007
C 0.028349 2.938946 0.010684
C 0.968741 2.942534 0.080222
C 1.988017 2.933779 0.052440
C 3.133846 3.008640 0.041363
C 4.063374 3.040779 0.035027
C 5.037289 2.911991 0.095733
C 5.967574 2.987048 0.060280
C 6.873790 3.044350 0.061109
C 0.017821 3.960506 0.035522
C 0.991193 4.069636 0.013507
C 1.978809 4.069095 0.007094
C 3.009773 3.997150 0.079321
C 4.043964 3.953217 0.001839
C 4.968196 3.913026 0.017570
C 5.978460 3.945509 0.029693
C 6.856815 4.036693 0.052038
C 0.058169 4.921210 0.072367
C 0.996669 5.028167 0.096183
C 1.941612 4.992296 0.006043
C 2.939263 4.974085 0.043065
C 3.934617 4.924890 0.020800
C 4.979408 5.062419 0.039457
C 6.003519 4.977186 0.029983
C 6.955010 5.075762 0.036951
C 0.038570 5.845304 0.091214
C 1.002713 5.976346 0.037731
C 1.916472 5.948825 0.002875
C 3.005069 5.999884 0.050649
C 4.073064 5.869296 0.002737
C 4.967068 6.053306 0.056169
C 6.021273 5.943115 0.046481
C 6.972868 6.057807 0.058870
C 0.060459 6.932993 0.006064
C 0.971718 6.901743 0.001330
C 2.041031 6.969670 0.095502
C 3.033192 6.929737 0.015773
C 3.999956 6.900051 0.037319
C 4.976243 6.984178 0.027346
C 5.919360 6.996825 0.040300
C 6.910506 6.946421 0.099914
C 0.012714 0.010187 1.048487
C 0.974941 0.022869 1.081976
C 1.976443 0.037827 0.947237
C 3.017539 0.075200 0.939682
C 4.009334 0.017004 0.926191
C 4.929006 0.069576 1.022982
C 5.974186 0.113281 1.000952
C 6.970252 0.000248 0.936116
C 0.012454 1.092779 0.914616
C 0.937169 1.041777 0.953398
C 2.016507 1.034475 1.019227
C 2.942883 1.052248 1.031517
C 4.071554 0.953922 0.961437
C 5.041894 0.928372 1.030567
C 6.036189 1.053124 0.896297
C 6.954444 1.022251 0.978639
C 0.054412 1.946401 1.023642
C 0.978115 2.030850 1.013325
C 1.990339 2.043353 0.910508
C 2.990125 2.065054 0.996443
C 4.049014 1.934639 1.017268
C 5.017819 1.932760 0.989922
C 6.072749 2.079425 1.031265
C 6.957983 1.980970 1.042584
C 0.014288 3.062570 1.078953
C 1.052547 2.993641 0.955971
C 2.038465 3.068738 1.026715
C 2.982924 3.070699 1.010441
C 4.038001 2.939760 0.938804
C 4.978058 3.048652 1.011190
C 6.012352 3.068279 0.965333
C 6.917533 2.941652 0.936007
C 0.061452 4.023413 0.928166
C 0.982752 4.015682 0.928405
C 1.925800 4.039090 0.933581
C 2.933087 3.995190 1.045010
C 3.987863 3.898844 0.993434
C 4.924289 4.031116 1.049422
C 6.039468 3.979414 0.983843
C 6.956660 3.940957 0.929112
C 0.006647 4.925872 0.998241
C 1.021918 5.096004 1.009678
C 2.088865 4.942566 1.000238
C 3.083677 4.965757 0.973224
C 4.010157 4.942896 0.924787
C 4.999133 4.969024 0.920530
C 6.063703 5.034511 0.936068
C 6.955888 5.103931 0.995822
C 0.109165 5.972840 1.001552
C 1.042602 6.050155 0.988963
C 1.913569 5.931436 0.960866
C 3.023871 5.905192 0.969449
C 3.971270 5.979977 0.983989
C 4.999813 5.951739 0.938617
C 6.063386 5.977756 0.966568
C 6.997147 6.028863 0.989344
C 0.085892 6.993766 0.994055
C 1.041259 6.973160 1.112291
C 2.058376 6.907326 1.042943
C 2.981157 6.912158 0.945633
C 3.992944 6.995579 1.009270
C 4.911770 6.986636 1.001387
C 5.901615 6.930572 0.943320
C 6.989329 6.928490 1.052434
C 0.005750 0.068225 2.056824
C 0.978795 0.004052 2.082620
C 2.116651 0.029124 2.050328
C 3.107311 0.017987 2.053316
C 3.988883 0.035102 1.944807
C 4.995132 0.061375 2.074003
C 5.961682 0.003483 1.996684
C 6.940531 0.034941 1.891878
C 0.016212 1.017000 1.899918
C 1.025179 1.000460 1.941647
C 2.018715 0.994272 2.056124
C 3.053296 0.939253 2.041885
C 3.961117 1.116790 1.987125
C 5.020111 1.016213 1.946941
C 5.943241 0.972121 2.017095
C 6.922584 1.044325 1.943096
C 0.029225 1.924573 1.975961
C 0.977467 1.967458 1.948096
C 1.989233 1.984354 2.035643
C 2.976902 2.033396 2.038095
C 3.954965 2.100905 1.953666
C 5.000585 1.929004 2.019053
C 6.001841 1.976986 1.889361
C 6.973318 2.017552 2.004462
C 0.015437 2.965303 1.964470
C 1.058503 2.962500 2.050950
C 1.984293 2.988901 2.010231
C 2.959487 2.969659 2.043997
C 3.919648 3.043101 1.949129
C 4.896891 3.020487 2.044086
C 6.064134 3.064708 1.983322
C 6.994331 2.964821 2.073087
C 0.046991 4.010825 2.089914
C 1.002305 3.968089 2.034125
C 2.003691 3.946703 2.023131
C 3.030433 3.898651 1.916442
C 3.933639 3.963512 1.980289
C 4.962202 3.986214 1.960335
C 6.026905 3.984702 1.974036
C 6.966640 4.090369 2.011146
C 0.096357 5.065324 1.997623
C 1.035146 4.958626 2.008497
C 1.982366 5.080141 2.042147
C 2.883618 5.021500 2.013848
C 4.001471 4.963746 2.074279
C 4.985820 5.007106 1.925128
C 5.955462 4.997824 2.052859
C 6.979621 5.013947 1.878508
C 0.004251 6.059446 2.017824
C 1.022333 5.964420 1.985599
C 1.946563 6.006855 2.039885
C 2.999229 6.033818 2.020582
C 3.988255 5.989447 1.921987
C 4.937253 5.990264 1.931308
C 6.019134 6.043233 2.011368
C 6.953313 5.977941 2.028962
C 0.078622 6.976716 2.043115
C 1.071395 6.889390 2.051011
C 2.006683 6.982680 1.936428
C 2.907499 6.977167 2.069948
C 4.018379 6.968816 1.938106
C 5.022300 6.967453 2.062799
C 6.053743 6.991484 2.030769
C 6.964844 6.950247 1.996934
C 0.010621 0.024695 2.996764
C 1.005230 0.024684 2.994196
C 2.063605 0.036656 3.032374
C 3.011623 0.073979 2.996345
C 3.997781 0.059214 2.908209
C 4.995599 0.060017 3.050536
C 6.005098 0.065937 2.931511
C 6.927590 0.088400 2.950753
C 0.000126 0.939340 2.934875
C 1.017452 1.026623 2.939971
C 2.013697 0.920221 2.966697
C 3.054073 0.995503 2.942711
C 3.958290 0.945989 2.992665
C 5.061649 1.023632 2.966159
C 5.961955 0.962894 3.000898
C 6.996333 1.114053 2.973243
C 0.021520 1.901635 3.007526
C 0.941251 1.937969 2.992152
C 1.917225 2.015353 2.928287
C 2.961514 2.034659 3.047707
C 3.998413 1.948112 2.926498
C 4.987164 2.009250 3.058888
C 5.998729 1.965675 3.069391
C 6.888068 1.990625 2.966703
C 0.032548 2.997532 3.064595
C 1.082356 2.955922 3.018371
C 1.920465 3.031720 2.924822
C 3.019043 3.015291 2.986976
C 4.032796 2.990630 2.934507
C 4.958941 3.012123 3.093128
C 6.005195 2.983951 3.024301
C 6.981489 3.092710 2.945292
C 0.017364 4.017697 3.113745
C 0.916420 3.955475 2.951279
C 2.001668 3.950735 2.965738
C 2.995005 3.948282 2.985773
C 4.007582 4.082869 2.969592
C 4.987437 4.047090 3.058697
C 5.944490 4.021332 2.950181
C 6.974003 3.963373 3.042053
C 0.064747 5.008028 2.949359
C 1.053964 4.953147 3.081209
C 1.967520 4.995571 3.081227
C 2.897025 5.049106 2.986018
C 4.010847 5.017314 2.974037
C 5.001324 5.060360 2.975201
C 5.996278 4.981339 2.989471
C 6.959187 4.969478 2.948389
C 0.098372 6.038572 3.003265
C 1.043335 6.018152 3.020164
C 1.965456 6.054823 2.983844
C 2.922729 6.085758 2.999384
C 4.044941 6.063912 3.030001
C 5.020331 6.060837 3.061965
C 5.933940 6.041213 3.011423
C 6.973250 5.901048 2.984621
C 0.005974 6.908755 3.058583
C 1.027794 6.985989 3.013251
C 1.958276 6.999935 2.993691
C 2.939969 6.998532 3.027054
C 4.096858 6.977956 2.919478
C 5.012909 6.994566 3.020981
C 5.974181 6.994668 2.924701
C 6.976420 6.900361 2.901595
C 0.108757 0.070427 3.901951
C 1.054877 0.009130 3.917011
C 1.968339 0.020872 4.050829
C 3.049249 0.089662 4.010949
C 3.976601 0.036284 4.105691
C 5.089487 0.013110 3.992196
C 6.012966 0.096811 4.074172
C 6.909892 0.040440 4.137978
C 0.005529 0.980306 3.916860
C 1.023833 1.031444 3.953709
C 2.021533 1.010332 3.998208
C 2.955774 0.985050 3.942638
C 3.926610 0.979288 3.999458
C 5.079682 0.959794 4.039179
C 6.008968 1.079054 3.944996
C 6.980893 0.973714 3.995510
C 0.014277 1.987897 4.041521
C 0.983880 1.954553 4.011818
C 2.022301 2.013826 3.962664
C 2.923763 1.975850 4.026498
C 3.997639 1.965365 4.004971
C 4.998944 2.080625 3.955230
C 6.011951 2.026430 4.038414
C 6.998454 2.093557 4.033126
C 0.011250 2.902613 4.014291
C 0.995063 3.022136 4.040792
C 1.926773 2.922717 4.052422
C 3.057736 3.081620 3.992745
C 3.998544 2.967049 4.041899
C 4.971183 3.089949 4.032851
C 5.959152 2.928634 4.039381
C 6.909580 3.026540 3.970443
C 0.030090 3.882084 3.953371
C 1.012588 4.048519 4.037230
C 1.936075 4.023784 3.947660
C 2.936653 4.048353 3.989228
C 4.056702 3.955606 4.006538
C 5.076316 4.092971 3.995812
C 6.004480 4.050529 3.992064
C 6.994547 3.940575 4.023078
C 0.001450 4.989102 4.036661
C 1.013951 5.027781 3.979125
C 2.045468 4.976266 4.022591
C 2.958083 4.990149 3.993985
C 4.022057 5.029870 4.084186
C 4.971924 4.946394 3.899878
C 5.936574 4.979108 4.009451
C 6.916691 4.926953 4.005912
C 0.051657 6.021235 3.955162
C 0.951877 5.950640 3.990712
C 2.068334 5.977553 4.053006
C 2.999631 5.942432 4.022221
C 4.048530 5.968752 3.949338
C 4.957909 6.018658 4.054659
C 5.996322 5.941583 4.081323
C 6.936529 6.028219 3.893955
C 0.006619 6.925502 4.073227
C 0.929612 6.993722 3.926009
C 2.009381 6.991030 4.017378
C 3.049438 6.966761 3.974399
C 3.956167 6.983209 4.059781
C 5.062620 6.970999 4.020187
C 6.030179 6.917408 3.998865
C 6.940824 6.918621 4.080313
C 0.105359 0.126781 4.974345
C 0.960409 0.016287 4.988175
C 2.059752 0.022261 4.938787
C 3.051572 0.010445 5.063361
C 4.064117 0.079509 4.976512
C 5.045251 0.017429 5.052820
C 5.951181 0.008102 5.096689
C 6.990791 0.051430 5.051204
C 0.099783 1.065709 5.036513
C 1.004094 0.944213 5.047255
C 1.992232 1.049334 4.971675
C 2.942280 1.035460 5.032268
C 3.988593 0.964278 5.050076
C 4.989457 1.006110 5.002266
C 5.939583 0.960016 5.023204
C 6.999619 0.982504 4.976643
C 0.068103 2.044274 4.946131
C 1.002741 1.913759 4.993580
C 1.971930 1.994702 5.085563
C 2.951727 1.987054 5.030517
C 4.001739 1.995032 4.972896
C 4.943950 2.059339 4.988453
C 6.020435 1.945053 4.998022
C 6.940154 2.048656 5.009658
C 0.036051 2.941904 5.025518
C 1.090137 3.015598 4.996185
C 2.032266 2.935662 5.058932
C 3.009315 2.943631 4.924931
C 4.029475 2.993181 5.053369
C 4.953853 2.976224 4.952264
C 6.037511 2.918689 4.927351
C 6.927757 2.986293 5.071016
C 0.037948 3.951538 4.901407
C 0.979772 4.106700 4.956353
C 1.925425 3.959843 5.103075
C 2.906863 3.979050 5.019862
C 4.037473 3.992846 5.041855
C 4.954153 3.941116 5.041773
C 6.001754 4.120126 5.035001
C 6.983903 3.978138 5.015540
C 0.016285 4.950865 4.975138
C 1.049229 5.083618 4.957213
C 2.024735 4.986570 5.049466
C 2.994827 5.010336 5.102092
C 3.892313 5.000319 5.014831
C 5.032713 5.087219 5.016147
C 6.049775 5.027535 4.988513
C 6.947061 4.893132 4.981194
C 0.016742 5.977345 5.005036
C 0.972416 6.044798 4.940951
C 2.074495 6.057014 4.998340
C 3.091602 6.064541 4.964873
C 3.987162 5.931232 5.010278
C 4.974773 6.072865 5.051438
C 5.949678 5.981647 4.989476
C 6.955690 5.982906 4.974165
C 0.075159 6.899607 5.030232
C 1.065056 6.961438 4.954852
C 1.995911 6.965368 4.934465
C 2.997090 6.934314 5.054871
C 4.039243 6.997449 4.975453
C 4.949280 6.988829 4.993934
C 5.985102 6.995519 4.913934
C 6.874565 6.977468 5.037532
C 0.069556 0.094731 5.991695
C 1.022849 0.088481 5.945294
C 1.969985 0.065992 6.058379
C 2.970973 0.102261 5.984979
C 4.101474 0.002218 5.996006
C 5.032070 0.000632 6.011084
C 6.031837 0.050872 6.091535
C 6.987468 0.004748 5.958203
C 0.130747 0.993612 5.986098
C 0.983489 1.102987 5.968771
C 2.077473 0.969772 6.042930
C 3.114528 0.938595 5.974558
C 3.984610 1.025649 6.088746
C 4.961260 0.994143 6.050371
C 5.990019 1.077866 5.933032
C 6.968792 0.912799 5.982306
C 0.089612 2.004179 6.078533
C 1.044516 1.993285 5.914011
C 2.016985 1.992355 6.050636
C 3.013903 2.041816 5.928668
C 4.050647 1.991810 6.034861
C 5.009890 1.945770 5.957015
C 6.074611 1.982928 6.009061
C 6.964953 1.967107 5.918334
C 0.006053 2.923899 5.955182
C 1.087202 2.992345 6.008359
C 2.105333 3.014440 6.039491
C 2.995918 3.068631 5.919289
C 3.978491 2.950279 5.952279
C 5.024613 2.986986 6.070414
C 6.014735 3.001662 5.929537
C 6.916221 2.929092 5.997295
C 0.026703 4.076985 5.912937
C 0.958101 4.100783 5.997761
C 2.040692 4.015676 6.040252
C 2.954208 3.976841 6.049932
C 4.041275 4.002401 6.053505
C 5.068086 4.014486 6.046459
C 6.052816 3.971373 5.989612
C 6.971726 4.019763 5.949740
C 0.096583 5.034137 6.034800
C 1.020478 4.997440 6.040904
C 1.923348 5.052742 6.067305
C 3.078195 4.971845 6.069414
C 4.015483 4.950409 6.044877
C 4.976265 4.952065 6.073210
C 6.064494 5.036317 6.019251
C 6.946435 4.943698 5.913605
C 0.034193 5.950554 5.991338
C 0.964001 5.960453 5.960863
C 1.940758 6.015615 5.991224
C 2.919493 5.970810 5.973702
C 3.904319 6.021143 5.960281
C 4.983661 6.013035 6.104728
C 5.983142 5.952933 6.029835
C 6.943946 6.049544 6.019006
C 0.035444 6.979229 5.940862
C 0.955129 6.996329 6.032183
C 2.030225 6.970381 5.996368
C 3.060305 6.985847 5.946067
C 4.084606 6.997078 5.982911
C 5.006154 6.962566 5.903875
C 6.050458 6.917291 6.012315
C 6.967772 6.990678 5.956383
C 0.004811 0.067234 6.941405
C 1.014396 0.019348 6.938907
C 1.939777 0.067019 6.984633
C 2.911432 0.030963 6.903666
C 4.064456 0.038286 6.915043
C 4.998075 0.059319 6.909951
C 5.923019 0.041420 6.995376
C 6.994953 0.111818 6.921358
C 0.032285 1.016939 6.861674
C 1.008337 0.976138 6.996407
C 1.969454 1.009341 6.990349
C 3.019212 0.957251 6.934674
C 4.048618 0.945484 6.962663
C 4.969775 0.958868 6.977721
C 5.870097 1.068657 6.961924
C 6.980214 1.048185 6.878403
C 0.054560 2.078664 6.981506
C 1.045340 1.974048 6.971666
C 2.090110 2.016832 6.998974
C 3.076316 2.077428 6.898593
C 3.951557 1.996864 6.975957
C 5.045778 1.993318 6.955510
C 5.948588 2.025520 6.910283
C 6.907787 1.960207 6.979459
C 0.052299 3.017345 6.836329
C 0.968769 2.925995 6.943048
C 2.105244 3.007415 6.997685
C 3.031572 2.991567 6.947302
C 4.008272 2.953686 6.916346
C 5.016278 3.063676 6.999897
C 6.025501 2.975000 6.983681
C 6.950041 2.981194 6.893610
C 0.063930 4.112821 6.862370
C 0.975472 4.002014 6.971520
C 2.099485 3.971145 6.995291
C 3.026536 4.001574 6.951860
C 4.054215 4.076529 6.953041
C 5.089866 3.953666 6.960698
C 6.013848 3.964783 6.993694
C 6.930679 3.962186 6.987479
C 0.094221 5.027948 6.973751
C 1.059722 5.036816 6.976089
C 1.980797 5.088894 6.986318
C 2.889339 4.988484 6.993799
C 3.952615 4.955243 6.941572
C 5.010252 4.961398 6.998157
C 5.995346 5.072685 6.988695
C 6.998013 4.935154 6.996158
C 0.008642 5.933384 6.966426
C 0.912905 6.056658 6.944059
C 1.957861 6.006105 6.910102
C 3.054190 5.914666 6.984667
C 4.072308 6.036849 6.971052
C 4.982771 6.086852 6.996211
C 5.963537 6.051481 6.956626
C 6.927941 5.939649 6.983049
C 0.040778 6.963026 6.998242
C 1.097415 6.991346 6.930617
C 2.056546 6.983786 6.910948
C 2.942536 6.850211 6.952233
C 3.908032 6.962243 6.974161
C 4.908419 6.988386 6.999669
C 6.011011 6.962035 6.918600
C 6.983597 6.991890 6.880161
512
Frame 4/10
C 0.142676 0.016800 0.122150
C 0.972775 0.200603 0.262555
C 1.938396 0.133774 0.018807
C 2.831691 0.009917 0.097764
C 4.019351 0.182010 0.080352
C 4.881248 0.106475 0.165500
C 5.928197 0.007986 0.205026
C 6.774150 0.143843 0.003932
C 0.096396 0.938095 0.138027
C 1.194412 0.955749 0.127145
C 2.005569 1.171713 0.034010
C 3.116501 0.970862 0.131936
C 3.885938 1.086676 0.003093
C 5.043271 0.977745 0.169052
C 5.871372 0.907820 0.032653
C 6.976800 1.102640 0.084513
C 0.160873 1.928760 0.122000
C 1.099658 1.953877 0.138161
C 2.111411 2.040296 0.024638
C 3.095966 1.950368 0.006623
C 4.105479 2.023974 0.100707
C 4.951740 1.855622 0.119507
C 5.925617 1.893166 0.038240
C 6.983368 2.079459 0.025510
C 0.042523 2.908419 0.016025
C 0.953111 2.913801 0.120333
C 1.982025 2.900668 0.078659
C 3.200769 3.012960 0.062044
C 4.095060 3.061169 0.052541
C 5.055933 2.867987 0.143599
C 5.951361 2.980572 0.090420
C 6.810684 3.066525 0.091664
C 0.026732 3.940759 0.053283
C 0.986790 4.104454 0.020261
C 1.968214 4.103642 0.010641
C 3.014660 3.995725 0.118981
C 4.065946 3.929826 0.002758
C 4.952295 3.869539 0.026355
C 5.967689 3.918263 0.044539
C 6.785223 4.055039 0.078057
C 0.087254 4.881815 0.108551
C 0.995003 5.042251 0.144275
C 1.912418 4.988444 0.009064
C 2.908895 4.961127 0.064597
C 3.901925 4.887336 0.031200
C 4.969111 5.093629 0.059185
C 6.005279 4.965779 0.044974
C 6.932516 5.113643 0.055426
C 0.057855 5.767956 0.136821
C 1.004069 5.964519 0.056597
C 1.874708 5.923238 0.004313
C 3.007603 5.999826 0.075974
C 4.109596 5.803943 0.004105
C 4.950601 6.079959 0.084254
C 6.031909 5.914673 0.069721
C 6.959302 6.086710 0.088305
C 0.090688 6.899490 0.009097
C 0.957577 6.852614 0.001995
C 2.061546 6.954505 0.143254
C 3.049788 6.894606 0.023659
C 3.999934 6.850077 0.055978
C 4.964365 6.976266 0.041020
C 5.879040 6.995238 0.060449
C 6.865759 6.919632 0.149872
C 0.019072 0.015281 1.072730
C 0.962412 0.034304 1.122964
C 1.964664 0.056740 0.920855
C 3.026309 0.112799 0.909523
C 4.014000 0.025505 0.889287
C 4.893509 0.104364 1.034473
C 5.961279 0.169922 1.001428
C 6.955378 0.000371 0.904174
C 0.018681 1.139168 0.871925
C 0.905754 1.062665 0.930097
C 2.024760 1.051713 1.028841
C 2.914325 1.078373 1.047276
C 4.107332 0.930883 0.942155
C 5.062840 0.892558 1.045851
C 6.054284 1.079687 0.844445
C 6.931666 1.033376 0.967959
C 0.081619 1.919601 1.035463
C 0.967173 2.046274 1.019988
C 1.985508 2.065029 0.865762
C 2.985187 2.097580 0.994665
C 4.073521 1.901959 1.025903
C 5.026728 1.899140 0.984884
C 6.109124 2.119137 1.046897
C 6.936975 1.971455 1.063877
C 0.021431 3.093855 1.118430
C 1.078820 2.990461 0.933957
C 2.057697 3.103107 1.040073
C 2.974386 3.106048 1.015661
C 4.057001 2.909640 0.908206
C 4.967087 3.072977 1.016785
C 6.018527 3.102419 0.947999
C 6.876300 2.912478 0.904011
C 0.092178 4.035119 0.892249
C 0.974129 4.023523 0.892608
C 1.888700 4.058636 0.900371
C 2.899631 3.992785 1.067514
C 3.981794 3.848266 0.990151
C 4.886433 4.046674 1.074132
C 6.059201 3.969121 0.975764
C 6.934990 3.911435 0.893668
C 0.009971 4.888807 0.997362
C 1.032877 5.144006 1.014518
C 2.133298 4.913848 1.000358
C 3.125515 4.948636 0.959836
C 4.015235 4.914344 0.887181
C 4.998699 4.953535 0.880795
C 6.095554 5.051766 0.904101
C 6.933832 5.155896 0.993733
C 0.163747 5.959260 1.002328
C 1.063903 6.075233 0.983444
C 1.870353 5.897154 0.941300
C 3.035806 5.857788 0.954174
C 3.956906 5.969965 0.975983
C 4.999720 5.927609 0.907925
C 6.095079 5.966635 0.949852
C 6.995721 6.043294 0.984016
C 0.128838 6.990649 0.991083
C 1.061889 6.959741 1.168437
C 2.087564 6.860989 1.064415
C 2.971736 6.868236 0.918449
C 3.989416 6.993368 1.013905
C 4.867655 6.979954 1.002081
C 5.852422 6.895858 0.914980
C 6.983994 6.892735 1.078651
C 0.008626 0.102338 2.085235
C 0.968192 0.006078 2.123930
C 2.174977 0.043687 2.075492
C 3.160967 0.026981 2.079974
C 3.983325 0.052653 1.917210
C 4.992698 0.092062 2.111005
C 5.942523 0.005225 1.995027
C 6.910796 0.052411 1.837816
C 0.024318 1.025500 1.849878
C 1.037769 1.000690 1.912471
C 2.028072 0.991407 2.084186
C 3.079945 0.908880 2.062828
C 3.941676 1.175185 1.980687
C 5.030167 1.024320 1.920411
C 5.914861 0.958181 2.025643
C 6.883876 1.066488 1.914644
C 0.043838 1.886860 1.963942
C 0.966200 1.951188 1.922143
C 1.983849 1.976531 2.053464
C 2.965352 2.050094 2.057143
C 3.932448 2.151358 1.930498
C 5.000877 1.893505 2.028580
C 6.002761 1.965479 1.834041
C 6.959978 2.026327 2.006694
C 0.023156 2.947954 1.946706
C 1.087755 2.943750 2.076425
C 1.976440 2.983352 2.015347
C 2.939230 2.954489 2.065995
C 3.879473 3.064651 1.923693
C 4.845337 3.030731 2.066129
C 6.096201 3.097063 1.974983
C 6.991496 2.947231 2.109631
C 0.070486 4.016238 2.134871
C 1.003457 3.952133 2.051188
C 2.005536 3.920054 2.034696
C 3.045649 3.847976 1.874663
C 3.900458 3.945268 1.970434
C 4.943303 3.979321 1.940503
C 6.040358 3.977053 1.961054
C 6.949960 4.135554 2.016719
C 0.144535 5.097986 1.996435
C 1.052718 4.937939 2.012745
C 1.973549 5.120212 2.063221
C 2.825427 5.032250 2.020773
C 4.002206 4.945618 2.111419
C 4.978730 5.010658 1.887692
C 5.933192 4.996736 2.079289
C 6.969432 5.020920 1.817762
C 0.006377 6.089169 2.026735
C 1.033499 5.946631 1.978399
C 1.919845 6.010282 2.059827
C 2.998843 6.050727 2.030873
C 3.982383 5.984170 1.882981
C 4.905879 5.985397 1.896962
C 6.028701 6.064849 2.017052
C 6.929969 5.966911 2.043443
C 0.117932 6.965074 2.064672
C 1.107092 6.834085 2.076517
C 2.010024 6.974020 1.904642
C 2.861248 6.965751 2.104922
C 4.027568 6.953225 1.907159
C 5.033450 6.951180 2.094198
C 6.080614 6.987226 2.046153
C 6.947266 6.925371 1.995400
C 0.015931 0.037043 2.995146
C 1.007845 0.037026 2.991294
C 2.095408 0.054983 3.048562
C 3.017435 0.110968 2.994518
C 3.996671 0.088821 2.862314
C 4.993398 0.090025 3.075803
C 6.007647 0.098906 2.897267
C 6.891385 0.132599 2.926129
C 0.000189 0.909010 2.902312
C 1.026177 1.039934 2.909957
C 2.020546 0.880331 2.950046
C 3.081109 0.993254 2.914067
C 3.937434 0.918983 2.988998
C 5.092474 1.035448 2.949238
C 5.942933 0.944341 3.001347
C 6.994499 1.171079 2.959864
C 0.032280 1.852453 3.011288
C 0.911877 1.906954 2.988228
C 1.875838 2.023029 2.892430
C 2.942271 2.051988 3.071561
C 3.997620 1.922169 2.889747
C 4.980746 2.013874 3.088332
C 5.998093 1.948513 3.104086
C 6.832102 1.985938 2.950054
C 0.048822 2.996298 3.096892
C 1.123534 2.933882 3.027556
C 1.880697 3.047579 2.887233
C 3.028564 3.022936 2.980463
C 4.049194 2.985945 2.901760
C 4.938411 3.018185 3.139692
C 6.007792 2.975927 3.036451
C 6.972234 3.139065 2.917937
C 0.026046 4.026546 3.170617
C 0.874630 3.933212 2.926918
C 2.002502 3.926102 2.948607
C 2.992508 3.922424 2.978659
C 4.011373 4.124304 2.954387
C 4.981156 4.070635 3.088045
C 5.916734 4.031998 2.925272
C 6.961005 3.945060 3.063080
C 0.097121 5.012042 2.924039
C 1.080946 4.929720 3.121814
C 1.951279 4.993356 3.121841
C 2.845538 5.073660 2.979028
C 4.016271 5.025971 2.961056
C 5.001986 5.090540 2.962802
C 5.994418 4.972008 2.984207
C 6.938780 4.954217 2.922584
C 0.147558 6.057857 3.004898
C 1.065002 6.027229 3.030246
C 1.948185 6.082235 2.975766
C 2.884093 6.128637 2.999076
C 4.067412 6.095868 3.045001
C 5.030497 6.091255 3.092947
C 5.900910 6.061819 3.017134
C 6.959875 5.851572 2.976932
C 0.008961 6.863132 3.087875
C 1.041691 6.978983 3.019876
C 1.937413 6.999903 2.990537
C 2.909954 6.997798 3.040582
C 4.145287 6.966933 2.879217
C 5.019364 6.991849 3.031471
C 5.961272 6.992001 2.887052
C 6.964630 6.850542 2.852393
C 0.163135 0.105640 3.852926
C 1.082316 0.013695 3.875516
C 1.952508 0.031307 4.076243
C 3.073873 0.134493 4.016423
C 3.964902 0.054426 4.158536
C 5.134230 0.019665 3.988294
C 6.019449 0.145216 4.111258
C 6.864838 0.060660 4.206968
C 0.008293 0.970459 3.875290
C 1.035750 1.047166 3.930564
C 2.032300 1.015498 3.997312
C 2.933661 0.977576 3.913957
C 3.889915 0.968932 3.999187
C 5.119524 0.939691 4.058768
C 6.013452 1.118581 3.917494
C 6.971339 0.960570 3.993264
C 0.021416 1.981845 4.062281
C 0.975820 1.931830 4.017727
C 2.033451 2.020739 3.943997
C 2.885645 1.963774 4.039747
C 3.996459 1.948047 4.007456
C 4.998416 2.120937 3.932845
C 6.017927 2.039644 4.057622
C 6.997681 2.140335 4.049688
C 0.016875 2.853920 4.021437
C 0.992595 3.033205 4.061188
C 1.890159 2.884075 4.078633
C 3.086604 3.122430 3.989118
C 3.997816 2.950574 4.062849
C 4.956774 3.134923 4.049277
C 5.938728 2.892951 4.059071
C 6.864370 3.039810 3.955664
C 0.045134 3.823126 3.930057
C 1.018882 4.072779 4.055846
C 1.904113 4.035676 3.921490
C 2.904980 4.072530 3.983841
C 4.085053 3.933408 4.009807
C 5.114474 4.139456 3.993718
C 6.006721 4.075793 3.988096
C 6.991820 3.910863 4.034618
C 0.002175 4.983654 4.054992
C 1.020927 5.041671 3.968687
C 2.068202 4.964400 4.033887
C 2.937125 4.985223 3.990977
C 4.033085 5.044806 4.126279
C 4.957885 4.919591 3.849817
C 5.904861 4.968661 4.014176
C 6.875036 4.890429 4.008868
C 0.077486 6.031853 3.932743
C 0.927815 5.925959 3.986068
C 2.102501 5.966329 4.079509
C 2.999446 5.913648 4.033332
C 4.072794 5.953128 3.924006
C 4.936863 6.027986 4.081989
C 5.994483 5.912375 4.121984
C 6.904794 6.042329 3.840933
C 0.009928 6.888253 4.109841
C 0.894418 6.990583 3.889013
C 2.014072 6.986545 4.026067
C 3.074156 6.950142 3.961599
C 3.934251 6.974814 4.089671
C 5.093931 6.956499 4.030281
C 6.045268 6.876112 3.998297
C 6.911237 6.877931 4.120470
C 0.158038 0.190172 4.961517
C 0.940614 0.024431 4.982262
C 2.089628 0.033391 4.908180
C 3.077358 0.015667 5.095042
C 4.096175 0.119263 4.964768
C 5.067877 0.026143 5.079229
C 5.926772 0.012153 5.145034
C 6.986187 0.077145 5.076806
C 0.149674 1.098563 5.054770
C 1.006140 0.916319 5.070883
C 1.988348 1.074000 4.957512
C 2.913420 1.053190 5.048403
C 3.982890 0.946417 5.075114
C 4.984185 1.009165 5.003399
C 5.909374 0.940023 5.034805
C 6.999428 0.973756 4.964965
C 0.102154 2.066411 4.919196
C 1.004111 1.870639 4.990370
C 1.957895 1.992053 5.128345
C 2.927590 1.980581 5.045775
C 4.002609 1.992549 4.959344
C 4.915925 2.089008 4.982679
C 6.030652 1.917579 4.997033
C 6.910231 2.072985 5.014487
C 0.054077 2.912855 5.038278
C 1.135206 3.023397 4.994277
C 2.048400 2.903494 5.088399
C 3.013972 2.915447 4.887396
C 4.044213 2.989772 5.080053
C 4.930779 2.964336 4.928396
C 6.056266 2.878033 4.891026
C 6.891635 2.979440 5.106523
C 0.056922 3.927307 4.852110
C 0.969658 4.160049 4.934529
C 1.888137 3.939765 5.154612
C 2.860295 3.968575 5.029793
C 4.056209 3.989269 5.062782
C 4.931229 3.911674 5.062659
C 6.002631 4.180189 5.052501
C 6.975855 3.967206 5.023310
C 0.024428 4.926298 4.962707
C 1.073844 5.125427 4.935820
C 2.037103 4.979856 5.074200
C 2.992240 5.015504 5.153137
C 3.838469 5.000479 5.022247
C 5.049069 5.130828 5.024220
C 6.074663 5.041302 4.982769
C 6.920591 4.839699 4.971791
C 0.025113 5.966017 5.007554
C 0.958624 6.067197 4.911427
C 2.111742 6.085520 4.997510
C 3.137403 6.096811 4.947309
C 3.980742 5.896849 5.015417
C 4.962160 6.109297 5.077157
C 5.924517 5.972471 4.984215
C 6.933535 5.974359 4.961247
C 0.112738 6.849410 5.045348
C 1.097584 6.942157 4.932278
C 1.993867 6.948052 4.901698
C 2.995636 6.901471 5.082306
C 4.058864 6.996173 4.963180
C 4.923921 6.983244 4.990901
C 5.977653 6.993278 4.870901
C 6.811847 6.966202 5.056298
C 0.104334 0.142096 5.987542
C 1.034274 0.132721 5.917942
C 1.954978 0.098988 6.087569
C 2.956459 0.153392 5.977469
C 4.152212 0.003328 5.994008
C 5.048105 0.000948 6.016626
C 6.047755 0.076307 6.137303
C 6.981202 0.007122 5.937304
C 0.196120 0.990417 5.979146
C 0.975234 1.154480 5.953156
C 2.116210 0.954658 6.064395
C 3.171792 0.907892 5.961837
C 3.976915 1.038474 6.133119
C 4.941889 0.991214 6.075557
C 5.985029 1.116799 5.899549
C 6.953188 0.869198 5.973458
C 0.134418 2.006268 6.117799
C 1.066773 1.989928 5.871017
C 2.025478 1.988532 6.075953
C 3.020854 2.062724 5.893003
C 4.075971 1.987715 6.052291
C 5.014835 1.918654 5.935522
C 6.111917 1.974392 6.013592
C 6.947430 1.950660 5.877501
C 0.009080 2.885849 5.932773
C 1.130803 2.988517 6.012539
C 2.158000 3.021659 6.059237
C 2.993877 3.102947 5.878933
C 3.967736 2.925419 5.928419
C 5.036920 2.980480 6.105621
C 6.022103 3.002493 5.894305
C 6.874332 2.893639 5.995942
C 0.040054 4.115478 5.869406
C 0.937151 4.151174 5.996641
C 2.061038 4.023514 6.060378
C 2.931311 3.965261 6.074898
C 4.061912 4.003601 6.080258
C 5.102128 4.021729 6.069688
C 6.079224 3.957060 5.984417
C 6.957589 4.029645 5.924610
C 0.144874 5.051206 6.052199
C 1.030716 4.996160 6.061356
C 1.885021 5.079113 6.100958
C 3.117292 4.957768 6.104122
C 4.023225 4.925613 6.067315
C 4.964397 4.928097 6.109815
C 6.096741 5.054475 6.028877
C 6.919652 4.915548 5.870407
C 0.051289 5.925832 5.987007
C 0.946002 5.940680 5.941294
C 1.911137 6.023423 5.986836
C 2.879240 5.956214 5.960552
C 3.856478 6.031715 5.940421
C 4.975491 6.019552 6.157092
C 5.974713 5.929399 6.044753
C 6.915920 6.074316 6.028508
C 0.053166 6.968844 5.911293
C 0.932694 6.994493 6.048274
C 2.045338 6.955572 5.994553
C 3.090457 6.978771 5.919101
C 4.126909 6.995618 5.974366
C 5.009232 6.943849 5.855812
C 6.075687 6.875937 6.018473
C 6.951657 6.986017 5.934574
C 0.007216 0.100850 6.912107
C 1.021594 0.029021 6.908361
C 1.909665 0.100528 6.976950
C 2.867148 0.046444 6.855499
C 4.096684 0.057430 6.872565
C 4.997112 0.088978 6.864926
C 5.884529 0.062130 6.993064
C 6.992430 0.167726 6.882037
C 0.048428 1.025408 6.792512
C 1.012506 0.964207 6.994610
C 1.954181 1.014012 6.985524
C 3.028818 0.935877 6.902011
C 4.072927 0.918226 6.943995
C 4.954663 0.938301 6.966581
C 5.805146 1.102985 6.942886
C 6.970322 1.072277 6.817604
C 0.081840 2.117995 6.972259
C 1.068010 1.961072 6.957499
C 2.135165 2.025248 6.998461
C 3.114473 2.116142 6.847889
C 3.927335 1.995296 6.963936
C 5.068667 1.989977 6.933265
C 5.922881 2.038280 6.865425
C 6.861681 1.940310 6.969188
C 0.078449 3.026018 6.754493
C 0.953153 2.888992 6.914572
C 2.157866 3.011123 6.996527
C 3.047358 2.987351 6.920953
C 4.012408 2.930529 6.874519
C 5.024417 3.095514 6.999845
C 6.038252 2.962500 6.975521
C 6.925061 2.971791 6.840416
C 0.095895 4.169232 6.793555
C 0.963209 4.003022 6.957280
C 2.149228 3.956717 6.992936
C 3.039804 4.002361 6.927790
C 4.081323 4.114793 6.929562
C 5.134799 3.930499 6.941046
C 6.020772 3.947175 6.990541
C 6.896018 3.943279 6.981219
C 0.141332 5.041922 6.960627
C 1.089583 5.055224 6.964133
C 1.971195 5.133341 6.979477
C 2.834009 4.982726 6.990699
C 3.928923 4.932864 6.912357
C 5.015378 4.942097 6.997236
C 5.993019 5.109027 6.983043
C 6.997020 4.902731 6.994238
C 0.012963 5.900076 6.949640
C 0.869358 6.084986 6.916088
C 1.936792 6.009157 6.865152
C 3.081284 5.871999 6.977001
C 4.108462 6.055273 6.956578
C 4.974156 6.130278 6.994316
C 5.945306 6.077221 6.934939
C 6.891911 5.909474 6.974573
C 0.061167 6.944539 6.997363
C 1.146122 6.987018 6.895926
C 2.084819 6.975679 6.866422
C 2.913805 6.775317 6.928349
C 3.862048 6.943364 6.961242
C 4.862628 6.982579 6.999504
C 6.016517 6.943053 6.877900
C 6.975395 6.987835 6.820242
512
Frame 5/10
C 0.190235 0.022399 0.162866
C 0.963700 0.267471 0.350073
C 1.917862 0.178365 0.025076
C 2.775588 0.013222 0.130352
C 4.025802 0.242680 0.107136
C 4.841664 0.141966 0.220666
C 5.904263 0.010648 0.273368
C 6.698867 0.191791 0.005242
C 0.128528 0.917460 0.184036
C 1.259216 0.940999 0.169527
C 2.007425 1.228951 0.045347
C 3.155335 0.961150 0.175915
C 3.847918 1.115568 0.004124
C 5.057695 0.970327 0.225403
C 5.828496 0.877093 0.043537
C 6.969066 1.136854 0.112684
C 0.214497 1.905013 0.162667
C 1.132877 1.938502 0.184215
C 2.148548 2.053728 0.032850
C 3.127955 1.933824 0.008831
C 4.140638 2.031966 0.134276
C 4.935654 1.807496 0.159343
C 5.900823 1.857555 0.050987
C 6.977824 2.105945 0.034013
C 0.056698 2.877891 0.021367
C 0.937481 2.885068 0.160444
C 1.976034 2.867558 0.104879
C 3.267692 3.017280 0.082726
C 4.126747 3.081558 0.070055
C 5.074577 2.823982 0.191465
C 5.935149 2.974096 0.120559
C 6.747579 3.088700 0.122219
C 0.035643 3.921011 0.071043
C 0.982386 4.139272 0.027015
C 1.957618 4.138190 0.014187
C 3.019546 3.994300 0.158641
C 4.087928 3.906434 0.003677
C 4.936393 3.826051 0.035140
C 5.956919 3.891017 0.059385
C 6.713631 4.073386 0.104076
C 0.116338 4.842421 0.144734
C 0.993337 5.056334 0.192366
C 1.883224 4.984593 0.012085
C 2.878527 4.948169 0.086129
C 3.869233 4.849781 0.041601
C 4.958815 5.124838 0.078914
C 6.007039 4.954372 0.059966
C 6.910021 5.151524 0.073902
C 0.077140 5.690608 0.182428
C 1.005426 5.952692 0.075462
C 1.832944 5.897651 0.005750
C 3.010137 5.999768 0.101299
C 4.146127 5.738591 0.005473
C 4.934135 6.106612 0.112339
C 6.042546 5.886230 0.092961
C 6.945736 6.115614 0.117740
C 0.120918 6.865986 0.012129
C 0.943436 6.803486 0.002660
C 2.082061 6.939340 0.191005
C 3.066384 6.859475 0.031545
C 3.999912 6.800102 0.074638
C 4.952486 6.968355 0.054693
C 5.838720 6.993650 0.080599
C 6.821012 6.892842 0.199829
C 0.025429 0.020374 1.096974
C 0.949882 0.045739 1.163951
C 1.952886 0.075653 0.894473
C 3.035079 0.150399 0.879364
C 4.018667 0.034007 0.852382
C 4.858012 0.139152 1.045964
C 5.948371 0.226563 1.001903
C 6.940504 0.000495 0.872232
C 0.024908 1.185557 0.829233
C 0.874339 1.083554 0.906796
C 2.033014 1.068951 1.038455
C 2.885766 1.104497 1.063035
C 4.143109 0.907844 0.922873
C 5.083787 0.856744 1.061135
C 6.072379 1.106249 0.792593
C 6.908888 1.044502 0.957278
C 0.108825 1.892802 1.047283
C 0.956231 2.061699 1.026651
C 1.980678 2.086706 0.821016
C 2.980249 2.130107 0.992887
C 4.098028 1.869279 1.034537
C 5.035638 1.865520 0.979845
C 6.145499 2.158850 1.062529
C 6.915967 1.961941 1.085169
C 0.028575 3.125140 1.157906
C 1.105093 2.987282 0.911943
C 2.076930 3.137476 1.053431
C 2.965848 3.141398 1.020882
C 4.076002 2.879520 0.877608
C 4.956115 3.097303 1.022380
C 6.024703 3.136558 0.930665
C 6.835066 2.883304 0.872015
C 0.122904 4.046826 0.856332
C 0.965505 4.031364 0.856810
C 1.851601 4.078181 0.867162
C 2.866175 3.990380 1.090019
C 3.975726 3.797688 0.986869
C 4.848578 4.062232 1.098843
C 6.078935 3.958828 0.967685
C 6.913321 3.881914 0.858224
C 0.013295 4.851743 0.996483
C 1.043837 5.192007 1.019357
C 2.177731 4.885131 1.000477
C 3.167354 4.931515 0.946448
C 4.020314 4.885792 0.849574
C 4.998266 4.938047 0.841060
C 6.127405 5.069022 0.872135
C 6.911777 5.207861 0.991644
C 0.218329 5.945680 1.003104
C 1.085204 6.100311 0.977925
C 1.827137 5.862872 0.921733
C 3.047742 5.810384 0.938899
C 3.942541 5.959954 0.967978
C 4.999626 5.903478 0.877234
C 6.126772 5.955513 0.933136
C 6.994295 6.057726 0.978688
C 0.171783 6.987532 0.988111
C 1.082518 6.946321 1.224583
C 2.116752 6.814652 1.085887
C 2.962314 6.824315 0.891265
C 3.985888 6.991158 1.018540
C 4.823539 6.973272 1.002774
C 5.803230 6.861144 0.886640
C 6.978659 6.856980 1.104868
C 0.011501 0.136450 2.113647
C 0.957590 0.008104 2.165239
C 2.233303 0.058249 2.100655
C 3.214623 0.035975 2.106632
C 3.977766 0.070203 1.889613
C 4.990264 0.122749 2.148006
C 5.923364 0.006967 1.993369
C 6.881062 0.069882 1.783755
C 0.032424 1.034000 1.799837
C 1.050359 1.000919 1.883295
C 2.037430 0.988543 2.112248
C 3.106593 0.878506 2.083770
C 3.922234 1.233580 1.974249
C 5.040223 1.032427 1.893881
C 5.886481 0.944241 2.034191
C 6.845167 1.088651 1.886191
C 0.058451 1.849147 1.951922
C 0.954933 1.934917 1.896191
C 1.978465 1.968708 2.071285
C 2.953803 2.066792 2.076190
C 3.909930 2.201810 1.907331
C 5.001169 1.858007 2.038106
C 6.003681 1.953972 1.778722
C 6.946637 2.035103 2.008925
C 0.030875 2.930606 1.928941
C 1.117006 2.925000 2.101900
C 1.968586 2.977803 2.020462
C 2.918974 2.939318 2.087993
C 3.839297 3.086202 1.898258
C 4.793783 3.040974 2.088172
C 6.128268 3.129417 1.966644
C 6.988662 2.929642 2.146174
C 0.093981 4.021650 2.179829
C 1.004610 3.936178 2.068251
C 2.007381 3.893406 2.046262
C 3.060865 3.797301 1.832883
C 3.867278 3.927025 1.960579
C 4.924405 3.972429 1.920670
C 6.053810 3.969404 1.948073
C 6.933280 4.180738 2.022292
C 0.192714 5.130648 1.995247
C 1.070291 4.917252 2.016993
C 1.964732 5.160283 2.084294
C 2.767236 5.043000 2.027697
C 4.002942 4.927491 2.148559
C 4.971640 5.014211 1.850256
C 5.910923 4.995648 2.105718
C 6.959243 5.027893 1.757016
C 0.008503 6.118892 2.035647
C 1.044665 5.928841 1.971199
C 1.893127 6.013710 2.079770
C 2.998458 6.067636 2.041163
C 3.976511 5.978893 1.843974
C 4.874506 5.980529 1.862616
C 6.038267 6.086465 2.022735
C 6.906626 5.955881 2.057924
C 0.157243 6.953432 2.086229
C 1.142789 6.778780 2.102022
C 2.013365 6.965360 1.872856
C 2.814997 6.954335 2.139896
C 4.036757 6.937633 1.876212
C 5.044599 6.934907 2.125598
C 6.107485 6.982968 2.061537
C 6.929689 6.900495 1.993867
C 0.021242 0.049390 2.993527
C 1.010460 0.049368 2.988393
C 2.127211 0.073311 3.064749
C 3.023246 0.147957 2.992691
C 3.995562 0.118428 2.816418
C 4.991198 0.120033 3.101071
C 6.010196 0.131875 2.863023
C 6.855180 0.176799 2.901506
C 0.000252 0.878680 2.869749
C 1.034903 1.053246 2.879942
C 2.027394 0.840442 2.933395
C 3.108145 0.991006 2.885423
C 3.916579 0.891977 2.985330
C 5.123298 1.047264 2.932317
C 5.923911 0.925788 3.001796
C 6.992665 1.228105 2.946486
C 0.043040 1.803271 3.015051
C 0.882502 1.875939 2.984305
C 1.834450 2.030705 2.856574
C 2.923028 2.069318 3.095414
C 3.996826 1.896225 2.852996
C 4.974329 2.018499 3.117776
C 5.997458 1.931351 3.138781
C 6.776135 1.981250 2.933405
C 0.065096 2.995064 3.129189
C 1.164713 2.911843 3.036742
C 1.840930 3.063439 2.849644
C 3.038085 3.030582 2.973951
C 4.065592 2.981260 2.869014
C 4.917881 3.024247 3.186256
C 6.010390 2.967902 3.048602
C 6.962979 3.185420 2.890583
C 0.034728 4.035395 3.227490
C 0.832840 3.910949 2.902558
C 2.003335 3.901470 2.931475
C 2.990011 3.896565 2.971545
C 4.015163 4.165738 2.939183
C 4.974874 4.094180 3.117393
C 5.888979 4.042664 2.900363
C 6.948006 3.926747 3.084106
C 0.129495 5.016056 2.898718
C 1.107928 4.906294 3.162419
C 1.935039 4.991141 3.162455
C 2.794050 5.098213 2.972037
C 4.021694 5.034628 2.948075
C 5.002648 5.120720 2.950403
C 5.992557 4.962678 2.978942
C 6.918374 4.938956 2.896778
C 0.196744 6.077143 3.006531
C 1.086669 6.036305 3.040328
C 1.930913 6.109646 2.967688
C 2.845457 6.171515 2.998769
C 4.089882 6.127824 3.060002
C 5.040662 6.121673 3.123929
C 5.867879 6.082425 3.022846
C 6.946500 5.802096 2.969243
C 0.011948 6.817510 3.117166
C 1.055588 6.971977 3.026502
C 1.916551 6.999870 2.987383
C 2.879938 6.997064 3.054109
C 4.193716 6.955911 2.838956
C 5.025819 6.989132 3.041962
C 5.948363 6.989335 2.849403
C 6.952841 6.800722 2.803190
C 0.217513 0.140854 3.803902
C 1.109754 0.018260 3.834022
C 1.936678 0.041743 4.101657
C 3.098498 0.179324 4.021897
C 3.953203 0.072568 4.211382
C 5.178973 0.026220 3.984392
C 6.025932 0.193621 4.148344
C 6.819785 0.080880 4.275957
C 0.011057 0.960612 3.833721
C 1.047666 1.062887 3.907418
C 2.043066 1.020664 3.996415
C 2.911548 0.970101 3.885276
C 3.853220 0.958576 3.998916
C 5.159365 0.919588 4.078358
C 6.017936 1.158108 3.889992
C 6.961786 0.947427 3.991019
C 0.028554 1.975793 4.083042
C 0.967760 1.909106 4.023636
C 2.044602 2.027652 3.925329
C 2.847526 1.951699 4.052996
C 3.995278 1.930729 4.009941
C 4.997888 2.161250 3.910460
C 6.023902 2.052859 4.076829
C 6.996908 2.187113 4.066251
C 0.022500 2.805226 4.028582
C 0.990127 3.044273 4.081584
C 1.853545 2.845434 4.104844
C 3.115473 3.163240 3.985490
C 3.997088 2.934099 4.083799
C 4.942366 3.179898 4.065702
C 5.918304 2.857268 4.078761
C 6.819160 3.053081 3.940886
C 0.060179 3.764169 3.906743
C 1.025176 4.097038 4.074461
C 1.872150 4.047568 3.895319
C 2.873306 4.096706 3.978455
C 4.113404 3.911211 4.013077
C 5.152632 4.185941 3.991623
C 6.008961 4.101057 3.984128
C 6.989094 3.881151 4.046157
C 0.002900 4.978205 4.073323
C 1.027902 5.055562 3.958250
C 2.090935 4.952533 4.045182
C 2.916166 4.980298 3.987969
C 4.044113 5.059741 4.168372
C 4.943847 4.892788 3.799756
C 5.873148 4.958215 4.018902
C 6.833381 4.853905 4.011824
C 0.103315 6.042470 3.910324
C 0.903754 5.901279 3.981425
C 2.136668 5.955106 4.106012
C 2.999261 5.884864 4.044443
C 4.097059 5.937503 3.898675
C 4.915818 6.037315 4.109318
C 5.992644 5.883166 4.162646
C 6.873058 6.056438 3.787911
C 0.013237 6.851004 4.146454
C 0.859223 6.987445 3.852017
C 2.018762 6.982060 4.034757
C 3.098875 6.933523 3.948799
C 3.912334 6.966419 4.119561
C 5.125241 6.941998 4.040374
C 6.060357 6.834816 3.997730
C 6.881649 6.837241 4.160627
C 0.210718 0.253563 4.948690
C 0.920819 0.032574 4.976350
C 2.119504 0.044522 4.877574
C 3.103143 0.020889 5.126722
C 4.128233 0.159018 4.953024
C 5.090503 0.034858 5.105639
C 5.902362 0.016204 5.193379
C 6.981583 0.102860 5.102408
C 0.199566 1.131418 5.073027
C 1.008187 0.888426 5.094511
C 1.984464 1.098667 4.943350
C 2.884560 1.070920 5.064537
C 3.977186 0.928556 5.100151
C 4.978913 1.012219 5.004532
C 5.879165 0.920031 5.046407
C 6.999237 0.965008 4.953286
C 0.136205 2.088548 4.892261
C 1.005482 1.827519 4.987161
C 1.943860 1.989404 5.171126
C 2.903454 1.974108 5.061033
C 4.003478 1.990065 4.945792
C 4.887900 2.118677 4.976905
C 6.040870 1.890105 4.996044
C 6.880308 2.097313 5.019316
C 0.072102 2.883807 5.051037
C 1.180275 3.031196 4.992369
C 2.064533 2.871325 5.117865
C 3.018629 2.887262 4.849861
C 4.058950 2.986362 5.106738
C 4.907705 2.952447 4.904527
C 6.075021 2.837378 4.854701
C 6.855514 2.972586 5.142031
C 0.075896 3.903076 4.802814
C 0.959545 4.213399 4.912706
C 1.850850 3.919686 5.206149
C 2.813727 3.958100 5.039724
C 4.074946 3.985691 5.083710
C 4.908306 3.882231 5.083546
C 6.003508 4.240252 5.070002
C 6.967806 3.956275 5.031080
C 0.032570 4.901730 4.950276
C 1.098459 5.167236 4.914426
C 2.049471 4.973141 5.098933
C 2.989653 5.020672 5.204183
C 3.784626 5.000639 5.029663
C 5.065425 5.174437 5.032294
C 6.099550 5.055070 4.977026
C 6.894122 4.786265 4.962388
C 0.033484 5.954690 5.010072
C 0.944831 6.089596 4.881902
C 2.148990 6.114027 4.996680
C 3.183204 6.129081 4.929745
C 3.974323 5.862465 5.020556
C 4.949546 6.145729 5.102876
C 5.899355 5.963294 4.978953
C 6.911380 5.965812 4.948329
C 0.150317 6.799213 5.060464
C 1.130112 6.922876 4.909704
C 1.991822 6.930737 4.868931
C 2.994181 6.868628 5.109742
C 4.078485 6.994898 4.950907
C 4.898561 6.977658 4.987868
C 5.970204 6.991037 4.827868
C 6.749129 6.954936 5.075064
C 0.139112 0.189462 5.983389
C 1.045699 0.176962 5.890589
C 1.939970 0.131984 6.116759
C 2.941946 0.204522 5.969959
C 4.202949 0.004437 5.992011
C 5.064140 0.001264 6.022167
C 6.063674 0.101743 6.183070
C 6.974936 0.009496 5.916406
C 0.261494 0.987223 5.972195
C 0.966979 1.205973 5.937542
C 2.154947 0.939544 6.085860
C 3.229055 0.877190 5.949116
C 3.969220 1.051298 6.177491
C 4.922519 0.988286 6.100743
C 5.980038 1.155732 5.866065
C 6.937584 0.825598 5.964611
C 0.179224 2.008357 6.157066
C 1.089031 1.986570 5.828022
C 2.033971 1.984709 6.101271
C 3.027805 2.083632 5.857337
C 4.101295 1.983620 6.069721
C 5.019780 1.891539 5.914029
C 6.149223 1.965855 6.018122
C 6.929906 1.934214 5.836669
C 0.012106 2.847799 5.910364
C 1.174404 2.984689 6.016718
C 2.210667 3.028879 6.078983
C 2.991836 3.137263 5.838577
C 3.956981 2.900559 5.904559
C 5.049227 2.973973 6.140828
C 6.029471 3.003324 5.859074
C 6.832442 2.858185 5.994590
C 0.053405 4.153971 5.825875
C 0.916202 4.201566 5.995521
C 2.081385 4.031352 6.080504
C 2.908415 3.953681 6.099864
C 4.082549 4.004801 6.107010
C 5.136171 4.028972 6.092918
C 6.105633 3.942746 5.979223
C 6.943452 4.039527 5.899480
C 0.193165 5.068275 6.069599
C 1.040955 4.994880 6.081808
C 1.846695 5.105484 6.134610
C 3.156389 4.943691 6.138829
C 4.030966 4.900818 6.089754
C 4.952530 4.904130 6.146420
C 6.128989 5.072633 6.038502
C 6.892869 4.887397 5.827210
C 0.068385 5.901109 5.982676
C 0.928003 5.920906 5.921725
C 1.881516 6.031230 5.982448
C 2.838987 5.941619 5.947403
C 3.808637 6.042286 5.920562
C 4.967322 6.026069 6.209456
C 5.966284 5.905866 6.059671
C 6.887893 6.099088 6.038011
C 0.070888 6.958458 5.881724
C 0.910258 6.992657 6.064365
C 2.060451 6.940763 5.992737
C 3.120609 6.971694 5.892134
C 4.169213 6.994157 5.965822
C 5.012309 6.925132 5.807749
C 6.100916 6.834583 6.024630
C 6.935543 6.981355 5.912765
C 0.009622 0.134467 6.882810
C 1.028792 0.038695 6.877815
C 1.879553 0.134037 6.969266
C 2.822864 0.061926 6.807332
C 4.128912 0.076573 6.830086
C 4.996150 0.118638 6.819901
C 5.846039 0.082840 6.990753
C 6.989907 0.223635 6.842716
C 0.064570 1.033877 6.723349
C 1.016674 0.952276 6.992814
C 1.938908 1.018682 6.980698
C 3.038425 0.914503 6.869348
C 4.097236 0.890968 6.925326
C 4.939551 0.917735 6.955442
C 5.740194 1.137314 6.923849
C 6.960429 1.096370 6.756805
C 0.109119 2.157327 6.963012
C 1.090680 1.948095 6.943332
C 2.180220 2.033664 6.997949
C 3.152631 2.154856 6.797186
C 3.903114 1.993727 6.951915
C 5.091556 1.986636 6.911020
C 5.897175 2.051040 6.820567
C 6.815574 1.920413 6.958918
C 0.104599 3.034691 6.672658
C 0.937538 2.851990 6.886097
C 2.210488 3.014830 6.995369
C 3.063144 2.983134 6.894605
C 4.016544 2.907371 6.832691
C 5.032556 3.127352 6.999794
C 6.051003 2.950000 6.967362
C 6.900082 2.962387 6.787221
C 0.127860 4.225642 6.724741
C 0.950945 4.004029 6.943040
C 2.198971 3.942289 6.990581
C 3.053072 4.003148 6.903720
C 4.108431 4.153057 6.906083
C 5.179732 3.907332 6.921395
C 6.027695 3.929567 6.987388
C 6.861358 3.924373 6.974958
C 0.188442 5.055896 6.947503
C 1.119444 5.073632 6.952177
C 1.961594 5.177788 6.972636
C 2.778678 4.976968 6.987599
C 3.905231 4.910486 6.883143
C 5.020505 4.922796 6.996315
C 5.990692 5.145369 6.977390
C 6.996027 4.870309 6.992317
C 0.017284 5.866768 6.932853
C 0.825810 6.113315 6.888117
C 1.915722 6.012209 6.820203
C 3.108379 5.829332 6.969335
C 4.144616 6.073697 6.942104
C 4.965542 6.173704 6.992422
C 5.927075 6.102962 6.913252
C 6.855881 5.879299 6.966098
C 0.081556 6.926052 6.996484
C 1.194829 6.982691 6.861235
C 2.113092 6.967572 6.821896
C 2.885073 6.700422 6.904465
C 3.816064 6.924486 6.948322
C 4.816837 6.976773 6.999339
C 6.022022 6.924070 6.837200
C 6.967194 6.983780 6.760323
512
Frame 6/10
C 0.237794 0.027999 0.203583
C 0.954625 0.334339 0.437591
C 1.897327 0.222956 0.031346
C 2.719485 0.016528 0.162940
C 4.032252 0.303349 0.133920
C 4.802080 0.177458 0.275833
C 5.880328 0.013310 0.341710
C 6.623584 0.239738 0.006553
C 0.160660 0.896825 0.230046
C 1.324019 0.926249 0.211909
C 2.009281 1.286188 0.056683
C 3.194168 0.951437 0.219894
C 3.809897 1.144460 0.005156
C 5.072118 0.962908 0.281754
C 5.785619 0.846366 0.054421
C 6.961333 1.171067 0.140856
C 0.268122 1.881267 0.203334
C 1.166097 1.923128 0.230268
C 2.185685 2.067160 0.041063
C 3.159943 1.917280 0.011039
C 4.175798 2.039957 0.167845
C 4.919567 1.759370 0.199178
C 5.876028 1.821943 0.063733
C 6.972280 2.132431 0.042516
C 0.070872 2.847364 0.026709
C 0.921851 2.856335 0.200555
C 1.970042 2.834447 0.131099
C 3.334615 3.021601 0.103407
C 4.158434 3.101948 0.087568
C 5.093221 2.779978 0.239332
C 5.918936 2.967620 0.150699
C 6.684474 3.110875 0.152773
C 0.044554 3.901264 0.088804
C 0.977983 4.174090 0.033768
C 1.947023 4.172737 0.017734
C 3.024433 3.992875 0.198302
C 4.109910 3.883043 0.004597
C 4.920491 3.782564 0.043925
C 5.946149 3.863772 0.074232
C 6.642038 4.091732 0.130096
C 0.145423 4.803026 0.180918
C 0.991671 5.070418 0.240458
C 1.854029 4.980741 0.015107
C 2.848158 4.935212 0.107662
C 3.836541 4.812226 0.052001
C 4.948519 5.156048 0.098642
C 6.008799 4.942965 0.074957
C 6.887526 5.189404 0.092377
C 0.096425 5.613259 0.228035
C 1.006782 5.940866 0.094328
C 1.791181 5.872063 0.007188
C 3.012672 5.999709 0.126623
C 4.182659 5.673239 0.006841
C 4.917669 6.133265 0.140424
C 6.053182 5.857788 0.116202
C 6.932170 6.144517 0.147175
C 0.151147 6.832483 0.015161
C 0.929294 6.754357 0.003325
C 2.102577 6.924176 0.238756
C 3.082980 6.824343 0.039431
C 3.999890 6.750128 0.093297
C 4.940608 6.960444 0.068366
C 5.798400 6.992063 0.100749
C 6.776265 6.866053 0.249786
C 0.031786 0.025468 1.121217
C 0.937353 0.057174 1.204939
C 1.941107 0.094567 0.868092
C 3.043849 0.187999 0.849204
C 4.023334 0.042509 0.815478
C 4.822515 0.173940 1.057455
C 5.935464 0.283204 1.002379
C 6.925630 0.000619 0.840290
C 0.031135 1.231947 0.786541
C 0.842923 1.104442 0.883495
C 2.041267 1.086188 1.048069
C 2.857208 1.130621 1.078794
C 4.178886 0.884805 0.903591
C 5.104734 0.820930 1.076418
C 6.090474 1.132811 0.740742
C 6.886110 1.055627 0.946598
C 0.136031 1.866002 1.059104
C 0.945289 2.077124 1.033313
C 1.975847 2.108382 0.776270
C 2.975312 2.162634 0.991108
C 4.122535 1.836599 1.043171
C 5.044547 1.831900 0.974806
C 6.181874 2.198562 1.078162
C 6.894958 1.952426 1.106461
C 0.035719 3.156425 1.197383
C 1.131366 2.984102 0.889929
C 2.096162 3.171845 1.066789
C 2.957310 3.176747 1.026102
C 4.095002 2.849400 0.847011
C 4.945144 3.121629 1.027974
C 6.030879 3.170698 0.913331
C 6.793833 2.854130 0.840018
C 0.153630 4.058532 0.820414
C 0.956881 4.039205 0.821013
C 1.814501 4.097726 0.833952
C 2.832718 3.987975 1.112524
C 3.969657 3.747109 0.983586
C 4.810722 4.077790 1.123554
C 6.098669 3.948535 0.959607
C 6.891651 3.852392 0.822780
C 0.016618 4.814679 0.995604
C 1.054796 5.240009 1.024196
C 2.222163 4.856414 1.000596
C 3.209192 4.914393 0.933061
C 4.025392 4.857240 0.811968
C 4.997832 4.922559 0.801325
C 6.159256 5.086277 0.840169
C 6.889721 5.259827 0.989555
C 0.272911 5.932101 1.003880
C 1.106505 6.125388 0.972407
C 1.783922 5.828591 0.902166
C 3.059677 5.762980 0.923623
C 3.928176 5.949942 0.959972
C 4.999533 5.879348 0.846542
C 6.158465 5.944391 0.916420
C 6.992869 6.072157 0.973360
C 0.214729 6.984415 0.985138
C 1.103148 6.932901 1.280728
C 2.145939 6.768315 1.107359
C 2.952893 6.780394 0.864082
C 3.982360 6.988947 1.023175
C 4.779424 6.966589 1.003468
C 5.754037 6.826430 0.858300
C 6.973323 6.821225 1.131085
C 0.014376 0.170563 2.142059
C 0.946987 0.010130 2.206549
C 2.291628 0.072811 2.125819
C 3.268279 0.044969 2.133290
C 3.972208 0.087754 1.862016
C 4.987830 0.153437 2.185008
C 5.904205 0.008709 1.991711
C 6.851327 0.087352 1.729694
C 0.040530 1.042500 1.749796
C 1.062949 1.001149 1.854119
C 2.046787 0.985679 2.140310
C 3.133241 0.848133 2.104713
C 3.902793 1.291975 1.967812
C 5.050278 1.040533 1.867352
C 5.858102 0.930302 2.042739
C 6.806459 1.110814 1.857739
C 0.073063 1.811434 1.939903
C 0.943666 1.918646 1.870239
C 1.973082 1.960886 2.089106
C 2.942254 2.083490 2.095238
C 3.887413 2.252263 1.884164
C 5.001462 1.822509 2.047633
C 6.004602 1.942465 1.723402
C 6.933296 2.043879 2.011156
C 0.038594 2.913257 1.911176
C 1.146258 2.906250 2.127375
C 1.960733 2.972253 2.025578
C 2.898717 2.924148 2.109992
C 3.799121 3.107752 1.872822
C 4.742229 3.051218 2.110215
C 6.160336 3.161771 1.958305
C 6.985827 2.912052 2.182718
C 0.117476 4.027063 2.224786
C 1.005762 3.920222 2.085313
C 2.009227 3.866757 2.057827
C 3.076082 3.746627 1.791104
C 3.834097 3.908781 1.950724
C 4.905506 3.965536 1.900838
C 6.067263 3.961755 1.935091
C 6.916601 4.225923 2.027865
C 0.240892 5.163309 1.994059
C 1.087864 4.896565 2.021241
C 1.955915 5.200354 2.105368
C 2.709045 5.053750 2.034621
C 4.003677 4.909364 2.185699
C 4.964551 5.017764 1.812820
C 5.888654 4.994560 2.132148
C 6.949053 5.034867 1.696269
C 0.010628 6.148615 2.044559
C 1.055832 5.911051 1.963999
C 1.866409 6.017137 2.099712
C 2.998072 6.084546 2.051454
C 3.970638 5.973616 1.804968
C 4.843132 5.975661 1.828271
C 6.047834 6.108082 2.028419
C 6.883282 5.944852 2.072405
C 0.196554 6.941790 2.107786
C 1.178487 6.723475 2.127528
C 2.016707 6.956699 1.841070
C 2.768747 6.942918 2.174870
C 4.045947 6.922041 1.845265
C 5.055749 6.918633 2.156997
C 6.134357 6.978710 2.076921
C 6.912111 6.875619 1.992334
C 0.026552 0.061738 2.991909
C 1.013076 0.061710 2.985491
C 2.159013 0.091639 3.080936
C 3.029058 0.184947 2.990863
C 3.994452 0.148035 2.770523
C 4.988997 0.150042 3.126339
C 6.012745 0.164843 2.828779
C 6.818976 0.220999 2.876882
C 0.000315 0.848350 2.837187
C 1.043629 1.066557 2.849928
C 2.034243 0.800552 2.916743
C 3.135182 0.988757 2.856779
C 3.895724 0.864972 2.981663
C 5.154123 1.059080 2.915397
C 5.904889 0.907235 3.002245
C 6.990831 1.285132 2.933107
C 0.053800 1.754088 3.018814
C 0.853128 1.844924 2.980381
C 1.793063 2.038382 2.820717
C 2.903785 2.086647 3.119268
C 3.996033 1.870281 2.816245
C 4.967911 2.023124 3.147220
C 5.996822 1.914188 3.173477
C 6.720169 1.976563 2.916756
C 0.081369 2.993830 3.161487
C 1.205891 2.889804 3.045927
C 1.801162 3.079299 2.812055
C 3.047607 3.038227 2.967439
C 4.081990 2.976574 2.836267
C 4.897351 3.030308 3.232820
C 6.012987 2.959878 3.060752
C 6.953723 3.231775 2.863229
C 0.043410 4.044243 3.284362
C 0.791050 3.888687 2.878197
C 2.004169 3.876837 2.914344
C 2.987514 3.870706 2.964431
C 4.018954 4.207173 2.923979
C 4.968593 4.117724 3.146742
C 5.861224 4.053330 2.875454
C 6.935008 3.908434 3.105133
C 0.161868 5.020069 2.873398
C 1.134910 4.882867 3.203023
C 1.918799 4.988927 3.203068
C 2.742563 5.122766 2.965046
C 4.027118 5.043285 2.935094
C 5.003310 5.150899 2.938003
C 5.990696 4.953347 2.973678
C 6.897967 4.923695 2.870973
C 0.245930 6.096429 3.008164
C 1.108336 6.045381 3.050410
C 1.913641 6.137058 2.959611
C 2.806822 6.214394 2.998461
C 4.112353 6.159780 3.075002
C 5.050828 6.152092 3.154912
C 5.834849 6.103032 3.028557
C 6.933125 5.752619 2.961553
C 0.014935 6.771887 3.146458
C 1.069486 6.964972 3.033127
C 1.895689 6.999838 2.984228
C 2.849923 6.996330 3.067636
C 4.242144 6.944889 2.798695
C 5.032273 6.986415 3.052452
C 5.935453 6.986669 2.811753
C 6.941051 6.750903 2.753988
C 0.271892 0.176067 3.754877
C 1.137193 0.022825 3.792527
C 1.920847 0.052179 4.127072
C 3.123122 0.224155 4.027372
C 3.941503 0.090710 4.264227
C 5.223717 0.032775 3.980490
C 6.032415 0.242026 4.185429
C 6.774731 0.101100 4.344946
C 0.013822 0.950765 3.792151
C 1.059583 1.078609 3.884273
C 2.053833 1.025830 3.995519
C 2.889435 0.962626 3.856595
C 3.816525 0.948221 3.998645
C 5.199206 0.899485 4.097947
C 6.022420 1.197635 3.862490
C 6.952232 0.934284 3.988774
C 0.035693 1.969742 4.103802
C 0.959701 1.886383 4.029545
C 2.055752 2.034565 3.906661
C 2.809408 1.939624 4.066245
C 3.994098 1.913412 4.012427
C 4.997360 2.201562 3.888075
C 6.029878 2.066074 4.096036
C 6.996135 2.233892 4.082814
C 0.028125 2.756533 4.035728
C 0.987659 3.055341 4.101980
C 1.816932 2.806792 4.131055
C 3.144341 3.204050 3.981863
C 3.996359 2.917624 4.104749
C 4.927957 3.224872 4.082128
C 5.897879 2.821585 4.098451
C 6.773950 3.066351 3.926107
C 0.075224 3.705211 3.883428
C 1.031470 4.121298 4.093076
C 1.840188 4.059460 3.869149
C 2.841633 4.120883 3.973069
C 4.141755 3.889014 4.016346
C 5.190790 4.232427 3.989529
C 6.011201 4.126322 3.980160
C 6.986367 3.851438 4.057696
C 0.003625 4.972756 4.091653
C 1.034878 5.069452 3.947812
C 2.113669 4.940666 4.056478
C 2.895208 4.975372 3.984962
C 4.055141 5.074676 4.210465
C 4.929809 4.865985 3.749695
C 5.841435 4.947769 4.023627
C 6.791727 4.817381 4.014780
C 0.129144 6.053088 3.887904
C 0.879692 5.876599 3.976781
C 2.170836 5.943882 4.132515
C 2.999076 5.856080 4.055553
C 4.121324 5.921879 3.873344
C 4.894772 6.046644 4.136648
C 5.990805 5.853958 4.203307
C 6.841323 6.070548 3.734888
C 0.016547 6.813755 4.183068
C 0.824029 6.984306 3.815022
C 2.023453 6.977575 4.043446
C 3.123594 6.916903 3.935998
C 3.890418 6.958023 4.149451
C 5.156551 6.927498 4.050468
C 6.075446 6.793520 3.997162
C 6.852061 6.796552 4.200784
C 0.263397 0.316953 4.935862
C 0.901024 0.040718 4.970437
C 2.149381 0.055652 4.846967
C 3.128929 0.026111 5.158403
C 4.160292 0.198772 4.941280
C 5.113129 0.043572 5.132049
C 5.877953 0.020255 5.241724
C 6.976978 0.128575 5.128011
C 0.249457 1.164272 5.091283
C 1.010234 0.860532 5.118138
C 1.980580 1.123334 4.929187
C 2.855701 1.088651 5.080671
C 3.971483 0.910695 5.125189
C 4.973642 1.015274 5.005665
C 5.848957 0.900039 5.058009
C 6.999047 0.956260 4.941608
C 0.170256 2.110685 4.865326
C 1.006852 1.784398 4.983951
C 1.929825 1.986755 5.213908
C 2.879317 1.967635 5.076291
C 4.004348 1.987581 4.932240
C 4.859875 2.148346 4.971132
C 6.051087 1.862631 4.995055
C 6.850385 2.121641 5.024145
C 0.090128 2.854759 5.063796
C 1.225344 3.038995 4.990462
C 2.080666 2.839156 5.147331
C 3.023287 2.859078 4.812327
C 4.073688 2.982953 5.133422
C 4.884631 2.940559 4.880659
C 6.093777 2.796722 4.818376
C 6.819392 2.965733 5.177539
C 0.094870 3.878845 4.753517
C 0.949431 4.266749 4.890882
C 1.813562 3.899608 5.257686
C 2.767159 3.947625 5.049655
C 4.093682 3.982114 5.104637
C 4.885382 3.852789 5.104432
C 6.004385 4.300315 5.087502
C 6.959758 3.945344 5.038850
C 0.040713 4.877163 4.937845
C 1.123073 5.209046 4.893033
C 2.061838 4.966426 5.123666
C 2.987067 5.025840 5.255229
C 3.730782 5.000798 5.037078
C 5.081782 5.218046 5.040367
C 6.124438 5.068837 4.971282
C 6.867652 4.732831 4.952985
C 0.041856 5.943362 5.012590
C 0.931039 6.111994 4.852378
C 2.186237 6.142534 4.995850
C 3.229005 6.161352 4.912181
C 3.967904 5.828081 5.025695
C 4.936933 6.182162 5.128595
C 5.874194 5.954118 4.973691
C 6.889225 5.957265 4.935412
C 0.187896 6.749017 5.075580
C 1.162640 6.903595 4.887130
C 1.989778 6.913421 4.836164
C 2.992726 6.835785 5.137177
C 4.098106 6.993622 4.938633
C 4.873201 6.972073 4.984835
C 5.962755 6.988796 4.784835
C 6.686412 6.943670 5.093830
C 0.173890 0.236827 5.979237
C 1.057123 0.221202 5.863236
C 1.924963 0.164980 6.145949
C 2.927432 0.255653 5.962448
C 4.253686 0.005546 5.990014
C 5.080175 0.001580 6.027709
C 6.079592 0.127179 6.228838
C 6.968670 0.011870 5.895507
C 0.326867 0.984029 5.965244
C 0.958724 1.257467 5.921927
C 2.193683 0.924429 6.107325
C 3.286319 0.846487 5.936395
C 3.961525 1.064123 6.221864
C 4.903149 0.985357 6.125928
C 5.975048 1.194665 5.832581
C 6.921980 0.781997 5.955764
C 0.224030 2.010447 6.196332
C 1.111289 1.983213 5.785028
C 2.042464 1.980887 6.126589
C 3.034756 2.104540 5.821671
C 4.126618 1.979524 6.087152
C 5.024725 1.864424 5.892537
C 6.186528 1.957319 6.022653
C 6.912383 1.917767 5.795836
C 0.015133 2.809749 5.887955
C 1.218005 2.980862 6.020898
C 2.263333 3.036099 6.098728
C 2.989794 3.171579 5.798221
C 3.946227 2.875698 5.880699
C 5.061533 2.967466 6.176035
C 6.036838 3.004155 5.823842
C 6.790553 2.822731 5.993237
C 0.066756 4.192463 5.782343
C 0.895252 4.251957 5.994402
C 2.101731 4.039190 6.100630
C 2.885519 3.942101 6.124830
C 4.103186 4.006001 6.133763
C 5.170214 4.036215 6.116147
C 6.132041 3.928433 5.974029
C 6.929315 4.049409 5.874350
C 0.241457 5.085344 6.086999
C 1.051194 4.993600 6.102260
C 1.808369 5.131855 6.168263
C 3.195486 4.929613 6.173536
C 4.038708 4.876022 6.112192
C 4.940662 4.880162 6.183025
C 6.161236 5.090791 6.048128
C 6.866086 4.859246 5.784012
C 0.085482 5.876386 5.978345
C 0.910004 5.901133 5.902157
C 1.851895 6.039038 5.978060
C 2.798733 5.927024 5.934254
C 3.760797 6.052858 5.900702
C 4.959152 6.032587 6.261820
C 5.957856 5.882332 6.074589
C 6.859866 6.123860 6.047514
C 0.088610 6.948073 5.852155
C 0.887823 6.990821 6.080456
C 2.075564 6.925953 5.990921
C 3.150762 6.964618 5.865168
C 4.211516 6.992696 5.957277
C 5.015386 6.906415 5.759687
C 6.126145 6.793228 6.030788
C 6.919429 6.976694 5.890956
C 0.012027 0.168084 6.853512
C 1.035989 0.048369 6.847269
C 1.849442 0.167547 6.961583
C 2.778579 0.077407 6.759165
C 4.161140 0.095716 6.787608
C 4.995187 0.148297 6.774877
C 5.807549 0.103550 6.988441
C 6.987384 0.279544 6.803396
C 0.080713 1.042346 6.654186
C 1.020843 0.940346 6.991017
C 1.923635 1.023353 6.975873
C 3.048031 0.893129 6.836686
C 4.121545 0.863710 6.906658
C 4.924438 0.897169 6.944302
C 5.675243 1.171642 6.904811
C 6.950536 1.120462 6.696007
C 0.136399 2.196659 6.953765
C 1.113350 1.935119 6.929165
C 2.225276 2.042080 6.997436
C 3.190789 2.193570 6.746482
C 3.878892 1.992159 6.939894
C 5.114445 1.983295 6.888775
C 5.871469 2.063800 6.775708
C 6.769468 1.900517 6.948647
C 0.130748 3.043364 6.590822
C 0.921922 2.814987 6.857621
C 2.263110 3.018538 6.994212
C 3.078930 2.978918 6.868256
C 4.020679 2.884214 6.790864
C 5.040695 3.159190 6.999742
C 6.063753 2.937500 6.959202
C 6.875102 2.952984 6.734026
C 0.159825 4.282053 6.655926
C 0.938681 4.005036 6.928800
C 2.248713 3.927861 6.988227
C 3.066340 4.003935 6.879649
C 4.135538 4.191322 6.882603
C 5.224665 3.884165 6.901744
C 6.034619 3.911959 6.984234
C 6.826697 3.905466 6.968698
C 0.235553 5.069871 6.934378
C 1.149305 5.092040 6.940222
C 1.951992 5.222236 6.965795
C 2.723348 4.971210 6.984498
C 3.881539 4.888107 6.853929
C 5.025631 4.903495 6.995393
C 5.988364 5.181712 6.971738
C 6.995034 4.837886 6.990396
C 0.021605 5.833461 6.916066
C 0.782263 6.141644 6.860146
C 1.894653 6.015262 6.775254
C 3.135474 5.786665 6.961668
C 4.180770 6.092122 6.927630
C 4.956927 6.217130 6.990527
C 5.908844 6.128702 6.891565
C 6.819852 5.849123 6.957622
C 0.101945 6.907565 6.995605
C 1.243536 6.978364 6.826544
C 2.141365 6.959465 6.777370
C 2.856341 6.625528 6.880582
C 3.770080 6.905607 6.935403
C 4.771046 6.970966 6.999174
C 6.027528 6.905088 6.796499
C 6.958992 6.979725 6.700404
512
Frame 7/10
C 0.285352 0.033599 0.244299
C 0.945550 0.401206 0.525109
C 1.876793 0.267548 0.037615
C 2.663383 0.019834 0.195528
C 4.038703 0.364019 0.160704
C 4.762496 0.212949 0.330999
C 5.856394 0.015972 0.410052
C 6.548300 0.287686 0.007863
C 0.192792 0.876190 0.276055
C 1.388823 0.911499 0.254290
C 2.011137 1.343426 0.068020
C 3.233002 0.941725 0.263872
C 3.771876 1.173352 0.006187
C 5.086542 0.955490 0.338104
C 5.742743 0.815639 0.065305
C 6.953600 1.205280 0.169027
C 0.321746 1.857520 0.244000
C 1.199316 1.907753 0.276322
C 2.222822 2.080592 0.049275
C 3.191932 1.900737 0.013247
C 4.210958 2.047949 0.201414
C 4.903481 1.711244 0.239014
C 5.851234 1.786332 0.076480
C 6.966736 2.158918 0.051020
C 0.085046 2.816837 0.032051
C 0.906222 2.827602 0.240666
C 1.964050 2.801337 0.157319
C 3.401538 3.025921 0.124088
C 4.190121 3.122337 0.105082
C 5.111866 2.735973 0.287198
C 5.902723 2.961144 0.180839
C 6.621369 3.133049 0.183328
C 0.053464 3.881517 0.106565
C 0.973579 4.208908 0.040522
C 1.936428 4.207285 0.021281
C 3.029319 3.991449 0.237962
C 4.131892 3.859651 0.005516
C 4.904589 3.739077 0.052711
C 5.935379 3.836526 0.089078
C 6.570446 4.110079 0.156115
C 0.174508 4.763631 0.217102
C 0.990006 5.084502 0.288550
C 1.824835 4.976889 0.018128
C 2.817790 4.922254 0.129194
C 3.803850 4.774671 0.062401
C 4.938223 5.187258 0.118371
C 6.010558 4.931558 0.089948
C 6.865031 5.227285 0.110853
C 0.115710 5.535911 0.273642
C 1.008138 5.929039 0.113193
C 1.749417 5.846476 0.008625
C 3.015206 5.999651 0.151948
C 4.219191 5.607887 0.008210
C 4.901203 6.159918 0.168508
C 6.063818 5.829345 0.139442
C 6.918604 6.173421 0.176610
C 0.181377 6.798979 0.018193
C 0.915153 6.705228 0.003990
C 2.123092 6.909011 0.286507
C 3.099576 6.789212 0.047318
C 3.999868 6.700153 0.111956
C 4.928729 6.952533 0.082039
C 5.758080 6.990476 0.120899
C 6.731519 6.839263 0.299743
C 0.038143 0.030561 1.145460
C 0.924824 0.068608 1.245927
C 1.929329 0.113480 0.841710
C 3.052618 0.225599 0.819045
C 4.028001 0.051011 0.778574
C 4.787018 0.208728 1.068946
C 5.922557 0.339844 1.002855
C 6.910757 0.000743 0.808347
C 0.037362 1.278336 0.743849
C 0.811508 1.125330 0.860194
C 2.049521 1.103426 1.057682
C 2.828649 1.156745 1.094552
C 4.214663 0.861766 0.884310
C 5.125681 0.785116 1.091702
C 6.108568 1.159373 0.688890
C 6.863332 1.066753 0.935917
C 0.163237 1.839202 1.070925
C 0.934346 2.092549 1.039976
C 1.971017 2.130058 0.731524
C 2.970374 2.195161 0.989330
C 4.147043 1.803918 1.051805
C 5.053456 1.798280 0.969767
C 6.218248 2.238274 1.093794
C 6.873950 1.942911 1.127753
C 0.042863 3.187710 1.236859
C 1.157640 2.980923 0.867914
C 2.115394 3.206214 1.080146
C 2.948772 3.212096 1.031323
C 4.114002 2.819281 0.816413
C 4.934173 3.145955 1.033569
C 6.037055 3.204838 0.895998
C 6.752599 2.824957 0.808022
C 0.184356 4.070239 0.784497
C 0.948257 4.047045 0.785215
C 1.777401 4.117271 0.800743
C 2.799262 3.985571 1.135029
C 3.963588 3.696531 0.980303
C 4.772867 4.093348 1.148265
C 6.118403 3.938241 0.951528
C 6.869981 3.822870 0.787337
C 0.019942 4.777615 0.994724
C 1.065755 5.288011 1.029035
C 2.266596 4.827697 1.000715
C 3.251031 4.897272 0.919673
C 4.030470 4.828688 0.774362
C 4.997399 4.907071 0.761590
C 6.191108 5.103532 0.808203
C 6.867665 5.311792 0.987465
C 0.327494 5.918521 1.004656
C 1.127806 6.150466 0.966888
C 1.740706 5.794309 0.882599
C 3.071613 5.715576 0.908348
C 3.913811 5.939930 0.951966
C 4.999439 5.855217 0.815851
C 6.190158 5.933269 0.899704
C 6.991442 6.086588 0.968032
C 0.257675 6.981297 0.982166
C 1.123777 6.919481 1.336874
C 2.175127 6.721977 1.128830
C 2.943472 6.736473 0.836898
C 3.978832 6.986737 1.027810
C 4.735309 6.959907 1.004161
C 5.704845 6.791716 0.829959
C 6.967988 6.785470 1.157302
C 0.017251 0.204676 2.170471
C 0.936384 0.012156 2.247859
C 2.349954 0.087373 2.150983
C 3.321934 0.053962 2.159948
C 3.966649 0.105305 1.834420
C 4.985397 0.184124 2.222010
C 5.885047 0.010450 1.990053
C 6.821593 0.104823 1.675633
C 0.048636 1.051000 1.699755
C 1.075538 1.001379 1.824942
C 2.056145 0.982815 2.168372
C 3.159889 0.817759 2.125656
C 3.883352 1.350369 1.961374
C 5.060334 1.048640 1.840822
C 5.829722 0.916362 2.051286
C 6.767751 1.132976 1.829287
C 0.087676 1.773720 1.927884
C 0.932400 1.902375 1.844287
C 1.967698 1.953063 2.106928
C 2.930705 2.100188 2.114285
C 3.864895 2.302715 1.860997
C 5.001754 1.787011 2.057159
C 6.005522 1.930959 1.668083
C 6.919955 2.052655 2.013387
C 0.046312 2.895909 1.893411
C 1.175510 2.887499 2.152850
C 1.952879 2.966704 2.030694
C 2.878461 2.908978 2.131990
C 3.758945 3.129303 1.847387
C 4.690674 3.061462 2.132258
C 6.192403 3.194125 1.949966
C 6.982993 2.894463 2.219261
C 0.140972 4.032475 2.269743
C 1.006915 3.904267 2.102376
C 2.011072 3.840108 2.069392
C 3.091298 3.695952 1.749325
C 3.800917 3.890537 1.940868
C 4.886607 3.958643 1.881005
C 6.080715 3.954106 1.922109
C 6.899921 4.271107 2.033438
C 0.289071 5.195971 1.992870
C 1.105437 4.875877 2.025490
C 1.947098 5.240424 2.126442
C 2.650854 5.064500 2.041545
C 4.004413 4.891237 2.222838
C 4.957461 5.021317 1.775384
C 5.866385 4.993472 2.158577
C 6.938864 5.041840 1.635523
C 0.012754 6.178338 2.053471
C 1.066998 5.893261 1.956798
C 1.839690 6.020565 2.119655
C 2.997687 6.101455 2.061745
C 3.964766 5.968340 1.765961
C 4.811759 5.970793 1.793925
C 6.057401 6.129698 2.034103
C 6.859938 5.933822 2.086887
C 0.235865 6.930148 2.129344
C 1.214184 6.668171 2.153033
C 2.020048 6.948039 1.809284
C 2.722496 6.931502 2.209844
C 4.055136 6.906449 1.814318
C 5.066899 6.902360 2.188396
C 6.161228 6.974452 2.092306
C 6.894533 6.850742 1.990801
C 0.031862 0.074085 2.990291
C 1.015691 0.074052 2.982589
C 2.190816 0.109967 3.097123
C 3.034869 0.221936 2.989036
C 3.993343 0.177642 2.724627
C 4.986796 0.180050 3.151607
C 6.015294 0.197812 2.794534
C 6.782771 0.265199 2.852259
C 0.000378 0.818020 2.804624
C 1.052355 1.079869 2.819913
C 2.041092 0.760663 2.900092
C 3.162218 0.986509 2.828134
C 3.874869 0.837966 2.977995
C 5.184948 1.070896 2.898476
C 5.885866 0.888682 3.002694
C 6.988998 1.342158 2.919729
C 0.064560 1.704906 3.022577
C 0.823754 1.813908 2.976457
C 1.751675 2.046058 2.784861
C 2.884542 2.103977 3.143122
C 3.995239 1.844337 2.779494
C 4.961493 2.027749 3.176664
C 5.996186 1.897026 3.208172
C 6.664203 1.971875 2.900108
C 0.097643 2.992596 3.193784
C 1.247069 2.867765 3.055113
C 1.761395 3.095159 2.774466
C 3.057128 3.045873 2.960927
C 4.098388 2.971889 2.803520
C 4.876822 3.036370 3.279385
C 6.015584 2.951853 3.072902
C 6.944468 3.278130 2.835875
C 0.052092 4.053092 3.341235
C 0.749260 3.866424 2.853836
C 2.005003 3.852204 2.897213
C 2.985016 3.844847 2.957318
C 4.022745 4.248607 2.908775
C 4.962311 4.141269 3.176090
C 5.833469 4.063995 2.850544
C 6.922009 3.890120 3.126160
C 0.194242 5.024083 2.848077
C 1.161892 4.859440 3.243628
C 1.902559 4.986712 3.243682
C 2.691075 5.147319 2.958055
C 4.032541 5.051942 2.922112
C 5.003972 5.181079 2.925604
C 5.988835 4.944017 2.968414
C 6.877561 4.908434 2.845168
C 0.295116 6.115715 3.009796
C 1.130004 6.054457 3.060492
C 1.896369 6.164469 2.951533
C 2.768186 6.257273 2.998153
C 4.134824 6.191736 3.090003
C 5.060994 6.182510 3.185894
C 5.801819 6.123638 3.034268
C 6.919750 5.703143 2.953864
C 0.017922 6.726265 3.175749
C 1.083383 6.957966 3.039753
C 1.874827 6.999805 2.981074
C 2.819907 6.995596 3.081163
C 4.290573 6.933867 2.758435
C 5.038728 6.983698 3.062942
C 5.922544 6.984003 2.774104
C 6.929261 6.701083 2.704785
C 0.326270 0.211281 3.705853
C 1.164631 0.027390 3.751033
C 1.905016 0.062615 4.152486
C 3.147747 0.268986 4.032846
C 3.929804 0.108852 4.317073
C 5.268460 0.039330 3.976588
C 6.038898 0.290432 4.222515
C 6.729677 0.121320 4.413935
C 0.016586 0.940918 3.750581
C 1.071500 1.094331 3.861128
C 2.064599 1.030996 3.994623
C 2.867322 0.955151 3.827914
C 3.779831 0.937865 3.998374
C 5.239047 0.879382 4.117537
C 6.026904 1.237162 3.834988
C 6.942679 0.921141 3.986529
C 0.042831 1.963690 4.124563
C 0.951641 1.863660 4.035454
C 2.066903 2.041478 3.887993
C 2.771289 1.927549 4.079494
C 3.992917 1.896094 4.014912
C 4.996832 2.241875 3.865691
C 6.035853 2.079289 4.115243
C 6.995362 2.280670 4.099377
C 0.033750 2.707840 4.042873
C 0.985190 3.066409 4.122376
C 1.780318 2.768151 4.157266
C 3.173209 3.244860 3.978235
C 3.995631 2.901148 4.125698
C 4.913549 3.269846 4.098553
C 5.877455 2.785902 4.118142
C 6.728740 3.079621 3.911329
C 0.090269 3.646253 3.860114
C 1.037764 4.145557 4.111691
C 1.808226 4.071352 3.842979
C 2.809959 4.145059 3.967683
C 4.170107 3.866817 4.019615
C 5.228948 4.278912 3.987435
C 6.013441 4.151586 3.976192
C 6.983641 3.821726 4.069235
C 0.004350 4.967307 4.109984
C 1.041854 5.083343 3.937375
C 2.136403 4.928799 4.067774
C 2.874250 4.970446 3.981954
C 4.066170 5.089611 4.252558
C 4.915771 4.839182 3.699634
C 5.809722 4.937323 4.028353
C 6.750072 4.780858 4.017736
C 0.154972 6.063706 3.865485
C 0.855631 5.851919 3.972137
C 2.205003 5.932659 4.159018
C 2.998892 5.827295 4.066664
C 4.145589 5.906255 3.848013
C 4.873727 6.055973 4.163977
C 5.988966 5.824749 4.243968
C 6.809587 6.084658 3.681866
C 0.019856 6.776506 4.219681
C 0.788835 6.981167 3.778026
C 2.028144 6.973089 4.052135
C 3.148313 6.900284 3.923198
C 3.868501 6.949628 4.179342
C 5.187861 6.912997 4.060561
C 6.090536 6.752224 3.996595
C 6.822473 6.755862 4.240940
C 0.316076 0.380344 4.923035
C 0.881228 0.048861 4.964525
C 2.179257 0.066783 4.816360
C 3.154715 0.031334 5.190083
C 4.192350 0.238526 4.929536
C 5.135754 0.052286 5.158459
C 5.853543 0.024306 5.290068
C 6.972374 0.154290 5.153613
C 0.299349 1.197126 5.109540
C 1.012281 0.832639 5.141766
C 1.976696 1.148001 4.915024
C 2.826841 1.106381 5.096805
C 3.965779 0.892835 5.150227
C 4.968370 1.018329 5.006798
C 5.818748 0.880047 5.069611
C 6.998856 0.947512 4.929930
C 0.204308 2.132822 4.838392
C 1.008223 1.741278 4.980741
C 1.915790 1.984106 5.256689
C 2.855180 1.961162 5.091550
C 4.005217 1.985097 4.918689
C 4.831850 2.178016 4.965358
C 6.061305 1.835158 4.994067
C 6.820462 2.145969 5.028974
C 0.108153 2.825711 5.076555
C 1.270412 3.046795 4.988554
C 2.096799 2.806987 5.176797
C 3.027944 2.830894 4.774792
C 4.088425 2.979544 5.160106
C 4.861558 2.928671 4.856791
C 6.112532 2.756066 4.782052
C 6.783271 2.958879 5.213047
C 0.113844 3.854614 4.704220
C 0.939317 4.320099 4.869058
C 1.776274 3.879529 5.309224
C 2.720590 3.937150 5.059586
C 4.112419 3.978537 5.125565
C 4.862458 3.823347 5.125318
C 6.005262 4.360379 5.105002
C 6.951709 3.934413 5.046620
C 0.048855 4.852596 4.925414
C 1.147688 5.250855 4.871639
C 2.074206 4.959711 5.148399
C 2.984480 5.031007 5.306275
C 3.676939 5.000958 5.044494
C 5.098138 5.261656 5.048440
C 6.149326 5.082605 4.965538
C 6.841183 4.679397 4.943582
C 0.050227 5.932035 5.015108
C 0.917247 6.134393 4.822853
C 2.223485 6.171041 4.995020
C 3.274806 6.193622 4.894618
C 3.961485 5.793697 5.030834
C 4.924320 6.218594 5.154314
C 5.849033 5.944941 4.968429
C 6.867070 5.948718 4.922494
C 0.225476 6.698820 5.090696
C 1.195168 6.884315 4.864555
C 1.987734 6.896105 4.803396
C 2.991271 6.802942 5.164613
C 4.117728 6.992346 4.926360
C 4.847841 6.966487 4.981801
C 5.955307 6.986556 4.741801
C 6.623694 6.932405 5.112596
C 0.208668 0.284193 5.975084
C 1.068548 0.265443 5.835883
C 1.909955 0.197976 6.175138
C 2.912919 0.306784 5.954938
C 4.304423 0.006655 5.988017
C 5.096210 0.001896 6.033251
C 6.095511 0.152615 6.274605
C 6.962404 0.014244 5.874609
C 0.392241 0.980835 5.958293
C 0.950468 1.308960 5.906312
C 2.232420 0.909315 6.128790
C 3.343583 0.815784 5.923674
C 3.953830 1.076947 6.266237
C 4.883779 0.982429 6.151114
C 5.970057 1.233599 5.799097
C 6.906375 0.738396 5.946917
C 0.268836 2.012536 6.235599
C 1.133547 1.979855 5.742034
C 2.050956 1.977064 6.151907
C 3.041708 2.125448 5.786005
C 4.151942 1.975429 6.104582
C 5.029670 1.837309 5.871044
C 6.223834 1.948783 6.027183
C 6.894860 1.901321 5.755003
C 0.018159 2.771698 5.865547
C 1.261606 2.977034 6.025077
C 2.316000 3.043319 6.118474
C 2.987753 3.205894 5.757866
C 3.935472 2.850838 5.856838
C 5.073840 2.960959 6.211242
C 6.044206 3.004987 5.788611
C 6.748664 2.787277 5.991885
C 0.080108 4.230956 5.738812
C 0.874303 4.302349 5.993282
C 2.122077 4.047028 6.120755
C 2.862623 3.930522 6.149796
C 4.123824 4.007202 6.160516
C 5.204257 4.043458 6.139377
C 6.158449 3.914120 5.968835
C 6.915178 4.059290 5.849221
C 0.289748 5.102412 6.104399
C 1.061433 4.992320 6.122712
C 1.770043 5.158226 6.201915
C 3.234584 4.915536 6.208243
C 4.046449 4.851226 6.134630
C 4.928794 4.856195 6.219630
C 6.193483 5.108950 6.057753
C 6.839304 4.831095 5.740814
C 0.102578 5.851663 5.974014
C 0.892004 5.881359 5.882588
C 1.822275 6.046845 5.973672
C 2.758480 5.912429 5.921105
C 3.712956 6.063430 5.880843
C 4.950982 6.039104 6.314184
C 5.949427 5.858799 6.089506
C 6.831839 6.148632 6.057017
C 0.106332 6.937688 5.822586
C 0.865388 6.988986 6.096548
C 2.090676 6.911144 5.989105
C 3.180914 6.957542 5.838201
C 4.253819 6.991235 5.948733
C 5.018463 6.887698 5.711624
C 6.151374 6.751874 6.036946
C 6.903315 6.972033 5.869148
C 0.014432 0.201701 6.824215
C 1.043187 0.058043 6.816722
C 1.819330 0.201056 6.953900
C 2.734295 0.092888 6.710998
C 4.193369 0.114859 6.745130
C 4.994224 0.177956 6.729852
C 5.769058 0.124260 6.986129
C 6.984860 0.335453 6.764075
C 0.096855 1.050816 6.585023
C 1.025011 0.928415 6.989220
C 1.908362 1.028023 6.971047
C 3.057637 0.871754 6.804023
C 4.145854 0.836452 6.887990
C 4.909326 0.876603 6.933163
C 5.610292 1.205971 6.885773
C 6.940643 1.144555 6.635208
C 0.163679 2.235991 6.944518
C 1.136020 1.922143 6.914998
C 2.270331 2.050496 6.996923
C 3.228947 2.232284 6.695778
C 3.854670 1.990591 6.927872
C 5.137334 1.979954 6.866530
C 5.845763 2.076560 6.730850
C 6.723362 1.880620 6.938376
C 0.156898 3.052036 6.508987
C 0.906307 2.777985 6.829145
C 2.315732 3.022245 6.993054
C 3.094716 2.974702 6.841907
C 4.024815 2.861057 6.749037
C 5.048833 3.191028 6.999690
C 6.076504 2.924999 6.951042
C 6.850122 2.943581 6.680831
C 0.191791 4.338464 6.587111
C 0.926417 4.006043 6.914560
C 2.298456 3.913434 6.985872
C 3.079608 4.004722 6.855579
C 4.162646 4.229586 6.859124
C 5.269598 3.860998 6.882093
C 6.041543 3.894350 6.981081
C 6.792036 3.886559 6.962437
C 0.282663 5.083845 6.921254
C 1.179166 5.110448 6.928266
C 1.942391 5.266683 6.958954
C 2.668018 4.965452 6.981398
C 3.857846 4.865729 6.824715
C 5.030757 4.884195 6.994472
C 5.986037 5.218054 6.966086
C 6.994040 4.805463 6.988475
C 0.025926 5.800153 6.899279
C 0.738715 6.169973 6.832176
C 1.873583 6.018314 6.730305
C 3.162569 5.743998 6.954002
C 4.216924 6.110546 6.913156
C 4.948313 6.260556 6.988632
C 5.890612 6.154443 6.869878
C 6.783822 5.818948 6.949146
C 0.122334 6.889078 6.994726
C 1.292244 6.974037 6.791852
C 2.169638 6.951358 6.732844
C 2.827609 6.550633 6.856698
C 3.724095 6.886729 6.922484
C 4.725256 6.965159 6.999008
C 6.033034 6.886105 6.755799
C 6.950791 6.975670 6.640484
512
Frame 8/10
C 0.332911 0.039199 0.285016
C 0.936475 0.468074 0.612627
C 1.856258 0.312139 0.043884
C 2.607280 0.023139 0.228116
C 4.045153 0.424689 0.187488
C 4.722912 0.248441 0.386166
C 5.832459 0.018634 0.478394
C 6.473017 0.335633 0.009174
C 0.224924 0.855555 0.322064
C 1.453627 0.896749 0.296672
C 2.012993 1.400663 0.079357
C 3.271836 0.932012 0.307851
C 3.733856 1.202244 0.007218
C 5.100966 0.948072 0.394455
C 5.699867 0.784913 0.076190
C 6.945866 1.239494 0.197198
C 0.375370 1.833773 0.284667
C 1.232535 1.892379 0.322376
C 2.259959 2.094024 0.057488
C 3.223921 1.884193 0.015454
C 4.246117 2.055940 0.234983
C 4.887394 1.663118 0.278850
C 5.826440 1.750721 0.089227
C 6.961192 2.185404 0.059523
C 0.099221 2.786310 0.037393
C 0.890592 2.798869 0.280778
C 1.958059 2.768226 0.183538
C 3.468460 3.030241 0.144770
C 4.221807 3.142727 0.122596
C 5.130510 2.691969 0.335064
C 5.886510 2.954668 0.210979
C 6.558264 3.155224 0.213883
C 0.062375 3.861770 0.124326
C 0.969176 4.243726 0.047276
C 1.925832 4.241832 0.024828
C 3.034206 3.990024 0.277622
C 4.153874 3.836260 0.006435
C 4.888687 3.695590 0.061496
C 5.924609 3.809280 0.103924
C 6.498854 4.128425 0.182134
C 0.203592 4.724236 0.253285
C 0.988340 5.098585 0.336641
C 1.795641 4.973037 0.021149
C 2.787422 4.909297 0.150727
C 3.771158 4.737117 0.072801
C 4.927926 5.218467 0.138099
C 6.012318 4.920151 0.104940
C 6.842536 5.265166 0.129328
C 0.134995 5.458563 0.319249
C 1.009495 5.917212 0.132059
C 1.707653 5.820889 0.010063
C 3.017740 5.999593 0.177273
C 4.255723 5.542535 0.009578
C 4.884736 6.186571 0.196593
C 6.074455 5.800903 0.162682
C 6.905038 6.202324 0.206045
C 0.211606 6.765476 0.021225
C 0.901012 6.656100 0.004655
C 2.143607 6.893846 0.334259
C 3.116171 6.754081 0.055204
C 3.999846 6.650179 0.130616
C 4.916851 6.944622 0.095712
C 5.717760 6.988888 0.141049
C 6.686772 6.812474 0.349700
C 0.044501 0.035655 1.169704
C 0.912294 0.080043 1.286915
C 1.917550 0.132393 0.815328
C 3.061388 0.263198 0.788886
C 4.032668 0.059513 0.741669
C 4.751521 0.243516 1.080437
C 5.909650 0.396485 1.003331
C 6.895883 0.000866 0.776405
C 0.043589 1.324726 0.701157
C 0.780093 1.146219 0.836893
C 2.057774 1.120663 1.067296
C 2.800091 1.182870 1.110311
C 4.250441 0.838727 0.865028
C 5.146627 0.749302 1.106986
C 6.126663 1.185935 0.637038
C 6.840554 1.077878 0.925237
C 0.190443 1.812403 1.082746
C 0.923404 2.107973 1.046639
C 1.966186 2.151735 0.686779
C 2.965436 2.227688 0.987552
C 4.171550 1.771238 1.060439
C 5.062366 1.764660 0.964728
C 6.254623 2.277987 1.109426
C 6.852942 1.933396 1.149046
C 0.050007 3.218995 1.276336
C 1.183913 2.977743 0.845900
C 2.134627 3.240583 1.093504
C 2.940234 3.247446 1.036543
C 4.133003 2.789161 0.785815
C 4.923202 3.170281 1.039164
C 6.043230 3.238977 0.878664
C 6.711366 2.795783 0.776026
C 0.215082 4.081945 0.748580
C 0.939634 4.054886 0.749418
C 1.740301 4.136816 0.767533
C 2.765805 3.983166 1.157533
C 3.957520 3.645953 0.977020
C 4.735011 4.108906 1.172976
C 6.138136 3.927948 0.943449
C 6.848311 3.793349 0.751893
C 0.023266 4.740551 0.993845
C 1.076714 5.336013 1.033875
C 2.311029 4.798980 1.000834
C 3.292869 4.880151 0.906285
C 4.035549 4.800136 0.736755
C 4.996965 4.891583 0.721855
C 6.222959 5.120788 0.776237
C 6.845609 5.363757 0.985376
C 0.382076 5.904941 1.005432
C 1.149106 6.175544 0.961369
C 1.697491 5.760027 0.863032
C 3.083548 5.668172 0.893073
C 3.899446 5.929919 0.943961
C 4.999346 5.831087 0.785159
C 6.221851 5.922148 0.882987
C 6.990016 6.101020 0.962704
C 0.300621 6.978180 0.979194
C 1.144407 6.906061 1.393020
C 2.204315 6.675640 1.150302
C 2.934050 6.692551 0.809714
C 3.975304 6.984526 1.032445
C 4.691194 6.953225 1.004855
C 5.655652 6.757002 0.801619
C 6.962653 6.749715 1.183519
C 0.020126 0.238788 2.198882
C 0.925782 0.014182 2.289169
C 2.408280 0.101935 2.176147
C 3.375590 0.062956 2.186606
C 3.961091 0.122856 1.806823
C 4.982963 0.214811 2.259011
C 5.865888 0.012192 1.988395
C 6.791858 0.122293 1.621571
C 0.056741 1.059500 1.649715
C 1.088128 1.001609 1.795766
C 2.065502 0.979950 2.196434
C 3.186538 0.787386 2.146598
C 3.863910 1.408764 1.954936
C 5.070390 1.056747 1.814293
C 5.801342 0.902422 2.059834
C 6.729043 1.155139 1.800835
C 0.102288 1.736007 1.915864
C 0.921133 1.886104 1.818335
C 1.962314 1.945240 2.124749
C 2.919156 2.116885 2.133333
C 3.842378 2.353168 1.837829
C 5.002046 1.751512 2.066686
C 6.006442 1.919452 1.612763
C 6.906614 2.061431 2.015618
C 0.054031 2.878560 1.875647
C 1.204761 2.868749 2.178325
C 1.945026 2.961155 2.035809
C 2.858204 2.893807 2.153988
C 3.718769 3.150853 1.821951
C 4.639120 3.071705 2.154300
C 6.224470 3.226479 1.941627
C 6.980158 2.876873 2.255805
C 0.164467 4.037888 2.314700
C 1.008067 3.888311 2.119438
C 2.012917 3.813460 2.080958
C 3.106515 3.645278 1.707546
C 3.767736 3.872293 1.931013
C 4.867708 3.951750 1.861173
C 6.094168 3.946457 1.909127
C 6.883241 4.316292 2.039011
C 0.337249 5.228633 1.991682
C 1.123009 4.855190 2.029738
C 1.938281 5.280495 2.147515
C 2.592663 5.075250 2.048470
C 4.005148 4.873109 2.259978
C 4.950371 5.024870 1.737948
C 5.844116 4.992384 2.185007
C 6.928674 5.048813 1.574777
C 0.014880 6.208061 2.062383
C 1.078164 5.875471 1.949598
C 1.812972 6.023992 2.139597
C 2.997301 6.118364 2.072036
C 3.958894 5.963063 1.726955
C 4.780385 5.965925 1.759579
C 6.066968 6.151314 2.039787
C 6.836595 5.922792 2.101368
C 0.275175 6.918506 2.150901
C 1.249881 6.612866 2.178539
C 2.023389 6.939379 1.777498
C 2.676246 6.920086 2.244818
C 4.064326 6.890857 1.783371
C 5.078049 6.886087 2.219796
C 6.188100 6.970194 2.107690
C 6.876955 6.825866 1.989267
C 0.037173 0.086433 2.988673
C 1.018306 0.086394 2.979687
C 2.222618 0.128295 3.113310
C 3.040681 0.258925 2.987209
C 3.992233 0.207249 2.678732
C 4.984596 0.210058 3.176874
C 6.017843 0.230781 2.760290
C 6.746566 0.309399 2.827635
C 0.000440 0.787691 2.772061
C 1.061081 1.093180 2.789899
C 2.047940 0.720773 2.883441
C 3.189255 0.984260 2.799490
C 3.854014 0.810960 2.974328
C 5.215772 1.082712 2.881556
C 5.866844 0.870129 3.003144
C 6.987164 1.399184 2.906350
C 0.075320 1.655724 3.026339
C 0.794379 1.782893 2.972533
C 1.710288 2.053734 2.749004
C 2.865299 2.121306 3.166975
C 3.994446 1.818393 2.742743
C 4.955075 2.032374 3.206108
C 5.995551 1.879863 3.242867
C 6.608237 1.967188 2.883459
C 0.113917 2.991362 3.226081
C 1.288247 2.845726 3.064298
C 1.721627 3.111018 2.736878
C 3.066650 3.053518 2.954414
C 4.114786 2.967204 2.770774
C 4.856292 3.042432 3.325949
C 6.018182 2.943829 3.085053
C 6.935212 3.324485 2.808521
C 0.060775 4.061940 3.398107
C 0.707470 3.844161 2.829476
C 2.005837 3.827572 2.880082
C 2.982519 3.818988 2.950204
C 4.026536 4.290042 2.893571
C 4.956030 4.164814 3.205438
C 5.805714 4.074661 2.825635
C 6.909011 3.871807 3.147186
C 0.226616 5.028097 2.822757
C 1.188874 4.836014 3.284232
C 1.886318 4.984497 3.284296
C 2.639588 5.171873 2.951065
C 4.037965 5.060598 2.909131
C 5.004634 5.211259 2.913204
C 5.986974 4.934686 2.963149
C 6.857154 4.893174 2.819362
C 0.344303 6.135000 3.011429
C 1.151671 6.063533 3.070574
C 1.879097 6.191881 2.943455
C 2.729550 6.300152 2.997845
C 4.157294 6.223692 3.105003
C 5.071159 6.212929 3.216876
C 5.768789 6.144245 3.039980
C 6.906375 5.653667 2.946175
C 0.020909 6.680642 3.205041
C 1.097280 6.950960 3.046378
C 1.853964 6.999773 2.977920
C 2.789892 6.994862 3.094690
C 4.339002 6.922845 2.718174
C 5.045182 6.980981 3.073433
C 5.909635 6.981337 2.736454
C 6.917471 6.651264 2.655583
C 0.380649 0.246494 3.656828
C 1.192070 0.031954 3.709538
C 1.889186 0.073050 4.177901
C 3.172371 0.313817 4.038320
C 3.918105 0.126995 4.369918
C 5.313203 0.045885 3.972686
C 6.045381 0.338837 4.259601
C 6.684623 0.141539 4.482924
C 0.019350 0.931071 3.709011
C 1.083416 1.110053 3.837982
C 2.075366 1.036163 3.993727
C 2.845209 0.947677 3.799233
C 3.743136 0.927509 3.998103
C 5.278889 0.859279 4.137126
C 6.031388 1.276689 3.807486
C 6.933125 0.907998 3.984284
C 0.049970 1.957638 4.145323
C 0.943581 1.840936 4.041363
C 2.078053 2.048391 3.869326
C 2.733171 1.915474 4.092743
C 3.991737 1.878776 4.017398
C 4.996304 2.282187 3.843306
C 6.041829 2.092503 4.134450
C 6.994589 2.327448 4.115940
C 0.039375 2.659146 4.050019
C 0.982722 3.077478 4.142772
C 1.743704 2.729509 4.183477
C 3.202077 3.285670 3.974608
C 3.994903 2.884673 4.146648
C 4.899140 3.314821 4.114979
C 5.857031 2.750219 4.137832
C 6.683531 3.092891 3.896550
C 0.105313 3.587295 3.836800
C 1.044058 4.169817 4.130306
C 1.776263 4.083244 3.816809
C 2.778286 4.169236 3.962296
C 4.198458 3.844620 4.022884
C 5.267106 4.325397 3.985341
C 6.015682 4.176851 3.972224
C 6.980914 3.792013 4.080774
C 0.005075 4.961859 4.128315
C 1.048829 5.097233 3.926937
C 2.159137 4.916932 4.079069
C 2.853291 4.965521 3.978946
C 4.077198 5.104547 4.294651
C 4.901733 4.812380 3.649573
C 5.778009 4.926877 4.033078
C 6.708417 4.744334 4.020693
C 0.180801 6.074323 3.843066
C 0.831569 5.827238 3.967493
C 2.239170 5.921435 4.185521
C 2.998707 5.798511 4.077775
C 4.169853 5.890631 3.822681
C 4.852681 6.065301 4.191307
C 5.987127 5.795541 4.284630
C 6.777852 6.098767 3.628843
C 0.023166 6.739257 4.256295
C 0.753641 6.978028 3.741031
C 2.032834 6.968604 4.060824
C 3.173032 6.883664 3.910397
C 3.846585 6.941233 4.209232
C 5.219171 6.898497 4.070655
C 6.105625 6.710928 3.996027
C 6.792886 6.715172 4.281097
C 0.368756 0.443735 4.910207
C 0.861433 0.057005 4.958612
C 2.209133 0.077913 4.785754
C 3.180501 0.036556 5.221764
C 4.224408 0.278281 4.917792
C 5.158380 0.061001 5.184868
C 5.829134 0.028356 5.338413
C 6.967770 0.180005 5.179215
C 0.349240 1.229981 5.127797
C 1.014327 0.804745 5.165393
C 1.972812 1.172667 4.900862
C 2.797981 1.124111 5.112939
C 3.960076 0.874974 5.175265
C 4.963098 1.021384 5.007931
C 5.788539 0.860054 5.081213
C 6.998665 0.938765 4.918251
C 0.238359 2.154959 4.811457
C 1.009593 1.698157 4.977531
C 1.901756 1.981457 5.299471
C 2.831044 1.954689 5.106808
C 4.006087 1.982614 4.905137
C 4.803825 2.207685 4.959584
C 6.071522 1.807684 4.993078
C 6.790539 2.170297 5.033803
C 0.126179 2.796662 5.089314
C 1.315481 3.054594 4.986646
C 2.112933 2.774819 5.206263
C 3.032601 2.802709 4.737257
C 4.103163 2.976134 5.186791
C 4.838484 2.916783 4.832923
C 6.131287 2.715411 4.745727
C 6.747149 2.952026 5.248555
C 0.132818 3.830382 4.654924
C 0.929203 4.373449 4.847235
C 1.738987 3.859451 5.360761
C 2.674022 3.926675 5.069517
C 4.131155 3.974960 5.146492
C 4.839535 3.793905 5.146205
C 6.006139 4.420442 5.122503
C 6.943661 3.923481 5.054390
C 0.056998 4.828028 4.912983
C 1.172303 5.292664 4.850246
C 2.086573 4.952996 5.173132
C 2.981893 5.036175 5.357321
C 3.623095 5.001118 5.051910
C 5.114494 5.305265 5.056514
C 6.174213 5.096372 4.959795
C 6.814713 4.625963 4.934179
C 0.058598 5.920707 5.017626
C 0.903455 6.156792 4.793329
C 2.260732 6.199548 4.994191
C 3.320607 6.225892 4.877054
C 3.955066 5.759314 5.035973
C 4.911706 6.255026 5.180033
C 5.823872 5.935765 4.963168
C 6.844915 5.940172 4.909576
C 0.263055 6.648623 5.105812
C 1.227696 6.865034 4.841981
C 1.985689 6.878789 4.770629
C 2.989816 6.770099 5.192048
C 4.137349 6.991071 4.914087
C 4.822481 6.960902 4.978768
C 5.947858 6.984315 4.698768
C 6.560976 6.921139 5.131361
C 0.243446 0.331558 5.970932
C 1.079972 0.309683 5.808530
C 1.894948 0.230972 6.204328
C 2.898405 0.357914 5.947427
C 4.355160 0.007765 5.986020
C 5.112245 0.002212 6.038793
C 6.111429 0.178050 6.320373
C 6.956138 0.016618 5.853710
C 0.457614 0.977640 5.951342
C 0.942213 1.360453 5.890698
C 2.271157 0.894201 6.150254
C 3.400847 0.785082 5.910953
C 3.946135 1.089772 6.310610
C 4.864408 0.979500 6.176299
C 5.965067 1.272532 5.765614
C 6.890771 0.694796 5.938070
C 0.313643 2.014626 6.274865
C 1.155805 1.976498 5.699039
C 2.059449 1.973241 6.177225
C 3.048659 2.146356 5.750339
C 4.177265 1.971334 6.122012
C 5.034615 1.810193 5.849551
C 6.261139 1.940247 6.031714
C 6.877336 1.884874 5.714170
C 0.021186 2.733648 5.843138
C 1.305207 2.973206 6.029257
C 2.368666 3.050538 6.138220
C 2.985712 3.240210 5.717510
C 3.924717 2.825978 5.832978
C 5.086147 2.954452 6.246449
C 6.051574 3.005818 5.753379
C 6.706774 2.751823 5.990532
C 0.093459 4.269449 5.695281
C 0.853353 4.352740 5.992163
C 2.142423 4.054866 6.140881
C 2.839727 3.918942 6.174762
C 4.144461 4.008402 6.187268
C 5.238299 4.050701 6.162606
C 6.184857 3.899806 5.963641
C 6.901041 4.069172 5.824091
C 0.338039 5.119481 6.121799
C 1.071671 4.991040 6.143164
C 1.731717 5.184597 6.235568
C 3.273681 4.901459 6.242950
C 4.054191 4.826431 6.157069
C 4.916927 4.832227 6.256235
C 6.225730 5.127108 6.067379
C 6.812521 4.802944 5.697617
C 0.119674 5.826940 5.969682
C 0.874005 5.861586 5.863019
C 1.792654 6.054653 5.969283
C 2.718226 5.897834 5.907955
C 3.665115 6.074001 5.860983
C 4.942813 6.045621 6.366548
C 5.940998 5.835265 6.104424
C 6.803813 6.173405 6.066520
C 0.124054 6.927302 5.793018
C 0.842952 6.987150 6.112639
C 2.105789 6.896335 5.987289
C 3.211066 6.950465 5.811235
C 4.296122 6.989775 5.940188
C 5.021540 6.868981 5.663561
C 6.176603 6.710520 6.043103
C 6.887200 6.967372 5.847339
C 0.016838 0.235318 6.794917
C 1.050385 0.067717 6.786176
C 1.789218 0.234565 6.946216
C 2.690011 0.108370 6.662831
C 4.225597 0.134002 6.702651
C 4.993262 0.207616 6.684827
C 5.730568 0.144970 6.983817
C 6.982337 0.391362 6.724754
C 0.112998 1.059285 6.515861
C 1.029180 0.916484 6.987424
C 1.893089 1.032694 6.966222
C 3.067243 0.850380 6.771360
C 4.170163 0.809194 6.869321
C 4.894214 0.856037 6.922023
C 5.545340 1.240299 6.866735
C 6.930750 1.168647 6.574409
C 0.190959 2.275323 6.935271
C 1.158690 1.909167 6.900831
C 2.315386 2.058912 6.996410
C 3.267104 2.270998 6.645075
C 3.830449 1.989023 6.915851
C 5.160223 1.976613 6.844285
C 5.820057 2.089320 6.685992
C 6.677255 1.860724 6.928106
C 0.183048 3.060709 6.427151
C 0.890691 2.740982 6.800669
C 2.368354 3.025953 6.991896
C 3.110503 2.970485 6.815558
C 4.028951 2.837900 6.707210
C 5.056972 3.222866 6.999639
C 6.089255 2.912499 6.942883
C 6.825143 2.934178 6.627636
C 0.223756 4.394874 6.518296
C 0.914154 4.007051 6.900320
C 2.348199 3.899006 6.983517
C 3.092876 4.005509 6.831509
C 4.189754 4.267851 6.835645
C 5.314531 3.837831 6.862441
C 6.048467 3.876742 6.977928
C 6.757376 3.867652 6.956177
C 0.329774 5.097819 6.908130
C 1.209027 5.128856 6.916310
C 1.932789 5.311130 6.952114
C 2.612687 4.959694 6.978298
C 3.834154 4.843350 6.795500
C 5.035883 4.864894 6.993551
C 5.983710 5.254396 6.960433
C 6.993047 4.773040 6.986555
C 0.030247 5.766845 6.882493
C 0.695168 6.198302 6.804205
C 1.852514 6.021366 6.685355
C 3.189663 5.701331 6.946336
C 4.253078 6.128970 6.898683
C 4.939698 6.303982 6.986738
C 5.872381 6.180183 6.848191
C 6.747792 5.788773 6.940671
C 0.142723 6.870591 6.993847
C 1.340951 6.969710 6.757161
C 2.197911 6.943251 6.688318
C 2.798878 6.475739 6.832814
C 3.678111 6.867850 6.909564
C 4.679465 6.959352 6.998843
C 6.038539 6.867123 6.715099
C 6.942589 6.971615 6.580565
512
Frame 9/10
C 0.380470 0.044799 0.325733
C 0.927400 0.534942 0.700146
C 1.835724 0.356730 0.050153
C 2.551177 0.026445 0.260704
C 4.051603 0.485359 0.214272
C 4.683328 0.283932 0.441333
C 5.808525 0.021296 0.546736
C 6.397734 0.383581 0.010485
C 0.257056 0.834920 0.368073
C 1.518431 0.881999 0.339054
C 2.014849 1.457901 0.090693
C 3.310669 0.922300 0.351830
C 3.695835 1.231136 0.008249
C 5.115389 0.940653 0.450806
C 5.656991 0.754186 0.087074
C 6.938133 1.273707 0.225369
C 0.428994 1.810027 0.325334
C 1.265755 1.877004 0.368429
C 2.297096 2.107456 0.065700
C 3.255910 1.867649 0.017662
C 4.281277 2.063931 0.268552
C 4.871307 1.614992 0.318686
C 5.801645 1.715109 0.101973
C 6.955648 2.211890 0.068026
C 0.113395 2.755783 0.042734
C 0.874962 2.770136 0.320889
C 1.952067 2.735116 0.209758
C 3.535383 3.034561 0.165451
C 4.253494 3.163116 0.140109
C 5.149154 2.647964 0.382930
C 5.870297 2.948192 0.241119
C 6.495158 3.177399 0.244438
C 0.071286 3.842023 0.142087
C 0.964772 4.278544 0.054030
C 1.915237 4.276380 0.028375
C 3.039092 3.988599 0.317282
C 4.175856 3.812868 0.007355
C 4.872786 3.652103 0.070281
C 5.913838 3.782035 0.118771
C 6.427261 4.146772 0.208153
C 0.232677 4.684841 0.289469
C 0.986674 5.112669 0.384733
C 1.766447 4.969185 0.024171
C 2.757053 4.896339 0.172259
C 3.738466 4.699562 0.083201
C 4.917630 5.249677 0.157828
C 6.014078 4.908744 0.119931
C 6.820041 5.303047 0.147803
C 0.154279 5.381215 0.364856
C 1.010851 5.905385 0.150925
C 1.665889 5.795301 0.011500
C 3.020274 5.999535 0.202597
C 4.292255 5.477183 0.010946
C 4.868270 6.213224 0.224678
C 6.085091 5.772460 0.185923
C 6.891472 6.231227 0.235480
C 0.241836 6.731972 0.024258
C 0.886871 6.606971 0.005319
C 2.164123 6.878681 0.382010
C 3.132767 6.718949 0.063090
C 3.999824 6.600204 0.149275
C 4.904972 6.936711 0.109386
C 5.677440 6.987301 0.161199
C 6.642025 6.785685 0.399658
C 0.050858 0.040748 1.193947
C 0.899765 0.091478 1.327903
C 1.905771 0.151307 0.788947
C 3.070158 0.300798 0.758727
C 4.037334 0.068014 0.704765
C 4.716024 0.278304 1.091928
C 5.896743 0.453126 1.003807
C 6.881009 0.000990 0.744463
C 0.049816 1.371115 0.658465
C 0.748677 1.167107 0.813591
C 2.066028 1.137901 1.076910
C 2.771532 1.208994 1.126070
C 4.286218 0.815688 0.845746
C 5.167574 0.713488 1.122270
C 6.144758 1.212498 0.585186
C 6.817776 1.089004 0.914557
C 0.217649 1.785603 1.094567
C 0.912462 2.123398 1.053301
C 1.961356 2.173411 0.642033
C 2.960499 2.260215 0.985773
C 4.196057 1.738558 1.069074
C 5.071275 1.731040 0.959689
C 6.290998 2.317699 1.125059
C 6.831933 1.923881 1.170338
C 0.057151 3.250280 1.315812
C 1.210186 2.974564 0.823886
C 2.153859 3.274952 1.106862
C 2.931696 3.282795 1.041764
C 4.152003 2.759041 0.755217
C 4.912231 3.194607 1.044759
C 6.049406 3.273117 0.861330
C 6.670133 2.766609 0.744029
C 0.245808 4.093652 0.712663
C 0.931010 4.062727 0.713620
C 1.703201 4.156362 0.734324
C 2.732349 3.980761 1.180038
C 3.951451 3.595375 0.973737
C 4.697156 4.124464 1.197686
C 6.157870 3.917655 0.935371
C 6.826641 3.763827 0.716449
C 0.026589 4.703487 0.992966
C 1.087673 5.384015 1.038714
C 2.355461 4.770262 1.000954
C 3.334708 4.863029 0.892897
C 4.040627 4.771584 0.699149
C 4.996532 4.876095 0.682120
C 6.254810 5.138043 0.744270
C 6.823553 5.415723 0.983287
C 0.436658 5.891361 1.006208
C 1.170407 6.200622 0.955851
C 1.654275 5.725745 0.843466
C 3.095484 5.620768 0.877797
C 3.885081 5.919907 0.935955
C 4.999252 5.806957 0.754468
C 6.253544 5.911026 0.866271
C 6.988590 6.115451 0.957376
C 0.343567 6.975063 0.976221
C 1.165036 6.892642 1.449165
C 2.233503 6.629303 1.171774
C 2.924629 6.648630 0.782531
C 3.971776 6.982316 1.037080
C 4.647079 6.946543 1.005548
C 5.606460 6.722288 0.773279
C 6.957318 6.713960 1.209736
C 0.023001 0.272901 2.227294
C 0.915179 0.016208 2.330479
C 2.466605 0.116497 2.201311
C 3.429246 0.071950 2.213264
C 3.955532 0.140407 1.779226
C 4.980529 0.245499 2.296013
C 5.846729 0.013934 1.986738
C 6.762124 0.139764 1.567510
C 0.064847 1.068001 1.599674
C 1.100718 1.001839 1.766590
C 2.074859 0.977086 2.224496
C 3.213186 0.757012 2.167541
C 3.844469 1.467159 1.948499
C 5.080445 1.064853 1.787763
C 5.772963 0.888483 2.068382
C 6.690335 1.177302 1.772383
C 0.116901 1.698294 1.903845
C 0.909866 1.869834 1.792383
C 1.956931 1.937417 2.142570
C 2.907606 2.133583 2.152380
C 3.819860 2.403620 1.814662
C 5.002339 1.716014 2.076212
C 6.007363 1.907945 1.557444
C 6.893274 2.070206 2.017850
C 0.061750 2.861212 1.857882
C 1.234013 2.849999 2.203800
C 1.937173 2.955606 2.040925
C 2.837948 2.878637 2.175987
C 3.678594 3.172403 1.796516
C 4.587566 3.081949 2.176343
C 6.256537 3.258834 1.933288
C 6.977324 2.859284 2.292348
C 0.187962 4.043300 2.359657
C 1.009220 3.872356 2.136501
C 2.014763 3.786811 2.092523
C 3.121731 3.594603 1.665767
C 3.734556 3.854049 1.921158
C 4.848809 3.944857 1.841341
C 6.107620 3.938808 1.896145
C 6.866561 4.361476 2.044584
C 0.385427 5.261295 1.990494
C 1.140582 4.834503 2.033986
C 1.929464 5.320566 2.168589
C 2.534472 5.086000 2.055394
C 4.005883 4.854982 2.297118
C 4.943281 5.028422 1.700512
C 5.821846 4.991296 2.211436
C 6.918485 5.055787 1.514031
C 0.017005 6.237784 2.071294
C 1.089331 5.857682 1.942398
C 1.786254 6.027420 2.159540
C 2.996916 6.135273 2.082327
C 3.953022 5.957786 1.687948
C 4.749012 5.961058 1.725233
C 6.076535 6.172931 2.045471
C 6.813251 5.911763 2.115849
C 0.314486 6.906864 2.172458
C 1.285579 6.557561 2.204045
C 2.026731 6.930719 1.745711
C 2.629995 6.908669 2.279792
C 4.073515 6.875265 1.752424
C 5.089199 6.869813 2.251195
C 6.214971 6.965937 2.123074
C 6.859377 6.800990 1.987734
C 0.042483 0.098780 2.987055
C 1.020921 0.098736 2.976785
C 2.254421 0.146623 3.129498
C 3.046492 0.295915 2.985382
C 3.991124 0.236856 2.632837
C 4.982395 0.240066 3.202142
C 6.020392 0.263749 2.726046
C 6.710361 0.353599 2.803012
C 0.000503 0.757361 2.739499
C 1.069807 1.106492 2.759884
C 2.054789 0.680884 2.866789
C 3.216291 0.982012 2.770846
C 3.833158 0.783955 2.970660
C 5.246597 1.094529 2.864635
C 5.847822 0.851576 3.003593
C 6.985330 1.456211 2.892972
C 0.086080 1.606541 3.030102
C 0.765005 1.751878 2.968609
C 1.668900 2.061411 2.713148
C 2.846056 2.138636 3.190829
C 3.993653 1.792449 2.705992
C 4.948657 2.036998 3.235552
C 5.994915 1.862701 3.277563
C 6.552271 1.962500 2.866810
C 0.130191 2.990128 3.258378
C 1.329425 2.823687 3.073484
C 1.681860 3.126878 2.699289
C 3.076171 3.061164 2.947902
C 4.131184 2.962519 2.738027
C 4.835762 3.048493 3.372513
C 6.020779 2.935805 3.097203
C 6.925957 3.370840 2.781167
C 0.069457 4.070789 3.454979
C 0.665680 3.821898 2.805115
C 2.006671 3.802939 2.862951
C 2.980022 3.793130 2.943090
C 4.030327 4.331477 2.878366
C 4.949748 4.188359 3.234787
C 5.777958 4.085327 2.800726
C 6.896012 3.853494 3.168213
C 0.258989 5.032111 2.797437
C 1.215856 4.812587 3.324837
C 1.870078 4.982283 3.324909
C 2.588101 5.196426 2.944074
C 4.043388 5.069255 2.896150
C 5.005296 5.241439 2.900805
C 5.985114 4.925356 2.957885
C 6.836748 4.877913 2.793557
C 0.393489 6.154286 3.013062
C 1.173338 6.072609 3.080656
C 1.861825 6.219292 2.935377
C 2.690914 6.343031 2.997537
C 4.179765 6.255648 3.120004
C 5.081325 6.243347 3.247858
C 5.735759 6.164851 3.045691
C 6.893000 5.604191 2.938486
C 0.023896 6.635019 3.234332
C 1.111177 6.943955 3.053004
C 1.833102 6.999740 2.974765
C 2.759877 6.994128 3.108217
C 4.387431 6.911823 2.677913
C 5.051637 6.978264 3.083923
C 5.896725 6.978670 2.698805
C 6.905681 6.601444 2.606380
C 0.435027 0.281707 3.607804
C 1.219508 0.036519 3.668044
C 1.873355 0.083486 4.203315
C 3.196996 0.358648 4.043794
C 3.906405 0.145137 4.422764
C 5.357947 0.052440 3.968785
C 6.051864 0.387242 4.296687
C 6.639569 0.161759 4.551914
C 0.022115 0.921224 3.667441
C 1.095333 1.125775 3.814837
C 2.086132 1.041329 3.992831
C 2.823096 0.940202 3.770552
C 3.706441 0.917153 3.997832
C 5.318730 0.839175 4.156716
C 6.035872 1.316216 3.779983
C 6.923571 0.894854 3.982038
C 0.057108 1.951587 4.166084
C 0.935521 1.818213 4.047272
C 2.089204 2.055305 3.850658
C 2.695052 1.903399 4.105992
C 3.990556 1.861459 4.019883
C 4.995776 2.322499 3.820921
C 6.047804 2.105718 4.153658
C 6.993816 2.374227 4.132503
C 0.045000 2.610453 4.057164
C 0.980254 3.088546 4.163168
C 1.707091 2.690868 4.209688
C 3.230945 3.326480 3.970980
C 3.994175 2.868198 4.167598
C 4.884731 3.359795 4.131405
C 5.836607 2.714536 4.157522
C 6.638321 3.106161 3.881772
C 0.120358 3.528337 3.813486
C 1.050352 4.194076 4.148921
C 1.744301 4.095135 3.790639
C 2.746612 4.193413 3.956910
C 4.226809 3.822422 4.026153
C 5.305264 4.371883 3.983247
C 6.017922 4.202115 3.968256
C 6.978188 3.762301 4.092313
C 0.005800 4.956410 4.146645
C 1.055805 5.111123 3.916500
C 2.181871 4.905066 4.090365
C 2.832333 4.960595 3.975939
C 4.088226 5.119482 4.336744
C 4.887695 4.785577 3.599512
C 5.746296 4.916431 4.037803
C 6.666763 4.707810 4.023649
C 0.206630 6.084941 3.820647
C 0.807507 5.802558 3.962849
C 2.273337 5.910212 4.212024
C 2.998522 5.769727 4.088886
C 4.194118 5.875007 3.797350
C 4.831636 6.074630 4.218637
C 5.985288 5.766333 4.325291
C 6.746116 6.112877 3.575821
C 0.026475 6.702008 4.292909
C 0.718447 6.974889 3.704035
C 2.037525 6.964119 4.069513
C 3.197750 6.867045 3.897597
C 3.824668 6.932837 4.239122
C 5.250482 6.883996 4.080749
C 6.120714 6.669632 3.995460
C 6.763298 6.674483 4.321254
C 0.421435 0.507125 4.897379
C 0.841638 0.065148 4.952700
C 2.239009 0.089044 4.755147
C 3.206287 0.041778 5.253445
C 4.256466 0.318035 4.906049
C 5.181006 0.069715 5.211278
C 5.804724 0.032407 5.386758
C 6.963166 0.205720 5.204817
C 0.399132 1.262835 5.146053
C 1.016374 0.776851 5.189021
C 1.968928 1.197334 4.886699
C 2.769121 1.141841 5.129074
C 3.954372 0.857113 5.200303
C 4.957827 1.024439 5.009063
C 5.758331 0.840062 5.092814
C 6.998474 0.930017 4.906573
C 0.272410 2.177096 4.784522
C 1.010964 1.655037 4.974321
C 1.887721 1.978808 5.342253
C 2.806907 1.948216 5.122066
C 4.006956 1.980130 4.891585
C 4.775800 2.237354 4.953811
C 6.081740 1.780210 4.992089
C 6.760616 2.194625 5.038632
C 0.144204 2.767614 5.102074
C 1.360550 3.062393 4.984739
C 2.129066 2.742650 5.235730
C 3.037259 2.774525 4.699723
C 4.117901 2.972725 5.213475
C 4.815410 2.904895 4.809055
C 6.150042 2.674755 4.709402
C 6.711028 2.945173 5.284062
C 0.151792 3.806151 4.605627
C 0.919089 4.426799 4.825411
C 1.701699 3.839372 5.412298
C 2.627454 3.916200 5.079447
C 4.149892 3.971383 5.167420
C 4.816611 3.764463 5.167091
C 6.007016 4.480505 5.140003
C 6.935612 3.912550 5.062160
C 0.065140 4.803461 4.900552
C 1.196917 5.334473 4.828853
C 2.098941 4.946281 5.197866
C 2.979307 5.041343 5.408367
C 3.569251 5.001277 5.059325
C 5.130851 5.348874 5.064587
C 6.199101 5.110140 4.954051
C 6.788244 4.572530 4.924776
C 0.066969 5.909380 5.020144
C 0.889663 6.179191 4.763804
C 2.297980 6.228054 4.993361
C 3.366408 6.258163 4.859490
C 3.948647 5.724930 5.041112
C 4.899093 6.291459 5.205751
C 5.798711 5.926588 4.957906
C 6.822761 5.931625 4.896659
C 0.300634 6.598427 5.120928
C 1.260224 6.845753 4.819407
C 1.983645 6.861473 4.737862
C 2.988362 6.737256 5.219484
C 4.156970 6.989795 4.901814
C 4.797121 6.955316 4.975735
C 5.940409 6.982074 4.655735
C 6.498259 6.909873 5.150127
C 0.278224 0.378924 5.966779
C 1.091397 0.353924 5.781177
C 1.879940 0.263968 6.233518
C 2.883891 0.409045 5.939917
C 4.405898 0.008874 5.984023
C 5.128280 0.002528 6.044335
C 6.127347 0.203486 6.366141
C 6.949872 0.018992 5.832811
C 0.522988 0.974446 5.944390
C 0.933958 1.411947 5.875083
C 2.309893 0.879087 6.171719
C 3.458111 0.754379 5.898232
C 3.938440 1.102597 6.354983
C 4.845038 0.976572 6.201485
C 5.960076 1.311465 5.732130
C 6.875167 0.651195 5.929222
C 0.358449 2.016715 6.314132
C 1.178062 1.973140 5.656045
C 2.067942 1.969419 6.202542
C 3.055610 2.167264 5.714674
C 4.202589 1.967239 6.139442
C 5.039560 1.783078 5.828058
C 6.298445 1.931711 6.036244
C 6.859813 1.868428 5.673337
C 0.024212 2.695598 5.820729
C 1.348808 2.969379 6.033436
C 2.421333 3.057758 6.157965
C 2.983671 3.274526 5.677154
C 3.913963 2.801117 5.809118
C 5.098454 2.947945 6.281656
C 6.058941 3.006649 5.718148
C 6.664885 2.716370 5.989179
C 0.106810 4.307941 5.651749
C 0.832404 4.403132 5.991043
C 2.162769 4.062704 6.161007
C 2.816831 3.907362 6.199728
C 4.165098 4.009602 6.214021
C 5.272342 4.057944 6.185836
C 6.211265 3.885493 5.958446
C 6.886904 4.079054 5.798961
C 0.386331 5.136550 6.139198
C 1.081910 4.989760 6.163616
C 1.693391 5.210968 6.269221
C 3.312778 4.887382 6.277657
C 4.061932 4.801635 6.179507
C 4.905059 4.808259 6.292840
C 6.257977 5.145266 6.077004
C 6.785738 4.774794 5.654419
C 0.136771 5.802218 5.965351
C 0.856006 5.841812 5.843451
C 1.763033 6.062461 5.964895
C 2.677973 5.883239 5.894806
C 3.617275 6.084573 5.841124
C 4.934643 6.052139 6.418912
C 5.932569 5.811732 6.119342
C 6.775786 6.198177 6.076022
C 0.141776 6.916917 5.763449
C 0.820517 6.985314 6.128730
C 2.120902 6.881525 5.985474
C 3.241219 6.943389 5.784269
C 4.338425 6.988314 5.931644
C 5.024617 6.850263 5.615499
C 6.201832 6.669165 6.049261
C 6.871086 6.962711 5.825530
C 0.019243 0.268935 6.765620
C 1.057583 0.077391 6.755630
C 1.759106 0.268074 6.938533
C 2.645727 0.123851 6.614664
C 4.257825 0.153145 6.660173
C 4.992299 0.237275 6.639802
C 5.692078 0.165679 6.981505
C 6.979814 0.447270 6.685433
C 0.129140 1.067754 6.446698
C 1.033349 0.904553 6.985627
C 1.877816 1.037365 6.961396
C 3.076849 0.829006 6.738697
C 4.194472 0.781936 6.850653
C 4.879102 0.835470 6.910883
C 5.480389 1.274628 6.847697
C 6.920857 1.192739 6.513611
C 0.218239 2.314655 6.926024
C 1.181360 1.896191 6.886664
C 2.360441 2.067328 6.995897
C 3.305262 2.309712 6.594371
C 3.806227 1.987455 6.903830
C 5.183112 1.973272 6.822041
C 5.794351 2.102080 6.641134
C 6.631149 1.840827 6.917835
C 0.209197 3.069382 6.345315
C 0.875076 2.703980 6.772193
C 2.420976 3.029660 6.990739
C 3.126289 2.966269 6.789209
C 4.033087 2.814743 6.665383
C 5.065111 3.254704 6.999587
C 6.102005 2.899999 6.934723
C 6.800163 2.924775 6.574441
C 0.255721 4.451285 6.449481
C 0.901890 4.008058 6.886080
C 2.397941 3.884578 6.981163
C 3.106144 4.006296 6.807439
C 4.216862 4.306115 6.812165
C 5.359464 3.814664 6.842790
C 6.055391 3.859134 6.974775
C 6.722715 3.848745 6.949917
C 0.376884 5.111793 6.895005
C 1.238888 5.147264 6.904355
C 1.923187 5.355577 6.945273
C 2.557357 4.953936 6.975197
C 3.810462 4.820972 6.766286
C 5.041009 4.845593 6.992630
C 5.981383 5.290738 6.954781
C 6.992054 4.740617 6.984634
C 0.034567 5.733537 6.865706
C 0.651620 6.226630 6.776234
C 1.831444 6.024419 6.640406
C 3.216758 5.658664 6.938670
C 4.289231 6.147395 6.884209
C 4.931084 6.347408 6.984843
C 5.854150 6.205924 6.826504
C 6.711763 5.758598 6.932195
C 0.163112 6.852105 6.992968
C 1.389658 6.965383 6.722470
C 2.226184 6.935144 6.643793
C 2.770146 6.400844 6.808930
C 3.632127 6.848972 6.896645
C 4.633674 6.953545 6.998678
C 6.044045 6.848140 6.674399
C 6.934388 6.967560 6.520646
512
Frame 10/10
C 0.428029 0.050399 0.366449
C 0.918325 0.601809 0.787664
C 1.815189 0.401321 0.056422
C 2.495074 0.029751 0.293292
C 4.058054 0.546029 0.241056
C 4.643745 0.319424 0.496499
C 5.784591 0.023958 0.615078
C 6.322451 0.431529 0.011795
C 0.289188 0.814285 0.414082
C 1.583235 0.867248 0.381435
C 2.016706 1.515139 0.102030
C 3.349503 0.912587 0.395809
C 3.657814 1.260027 0.009280
C 5.129813 0.933235 0.507157
C 5.614115 0.723459 0.097958
C 6.930399 1.307921 0.253540
C 0.482619 1.786280 0.366000
C 1.298974 1.861630 0.414483
C 2.334233 2.120888 0.073913
C 3.287898 1.851105 0.019870
C 4.316436 2.071923 0.302121
C 4.855221 1.566866 0.358521
C 5.776851 1.679498 0.114720
C 6.950104 2.238376 0.076530
C 0.127569 2.725256 0.048076
C 0.859333 2.741402 0.361000
C 1.946076 2.702005 0.235978
C 3.602306 3.038881 0.186133
C 4.285181 3.183506 0.157623
C 5.167798 2.603960 0.430797
C 5.854084 2.941716 0.271259
C 6.432053 3.199574 0.274992
C 0.080197 3.822276 0.159848
C 0.960369 4.313363 0.060783
C 1.904642 4.310927 0.031922
C 3.043979 3.987174 0.356943
C 4.197838 3.789477 0.008274
C 4.856884 3.608616 0.079066
C 5.903068 3.754789 0.133617
C 6.355669 4.165118 0.234172
C 0.261762 4.645446 0.325653
C 0.985009 5.126753 0.432824
C 1.737253 4.965333 0.027192
C 2.726685 4.883381 0.193791
C 3.705775 4.662007 0.093601
C 4.907334 5.280886 0.177556
C 6.015838 4.897336 0.134922
C 6.797547 5.340928 0.166279
C 0.173564 5.303867 0.410463
C 1.012208 5.893558 0.169790
C 1.624125 5.769714 0.012938
C 3.022809 5.999477 0.227922
C 4.328787 5.411830 0.012315
C 4.851804 6.239878 0.252763
C 6.095728 5.744018 0.209163
C 6.877907 6.260131 0.264915
C 0.272065 6.698469 0.027290
C 0.872730 6.557843 0.005984
C 2.184638 6.863516 0.429761
C 3.149363 6.683818 0.070976
C 3.999802 6.550230 0.167935
C 4.893094 6.928799 0.123059
C 5.637120 6.985713 0.181348
C 6.597278 6.758895 0.449615
C 0.057215 0.045842 1.218191
C 0.887235 0.102913 1.368891
C 1.893993 0.170220 0.762565
C 3.078928 0.338398 0.728568
C 4.042001 0.076516 0.667860
C 4.680527 0.313092 1.103419
C 5.883836 0.509766 1.004283
C 6.866135 0.001114 0.712521
C 0.056043 1.417504 0.615774
C 0.717262 1.187996 0.790290
C 2.074281 1.155139 1.086524
C 2.742974 1.235118 1.141829
C 4.321995 0.792649 0.826465
C 5.188521 0.677674 1.137553
C 6.162853 1.239060 0.533335
C 6.794998 1.100129 0.903876
C 0.244856 1.758804 1.106388
C 0.901520 2.138823 1.059964
C 1.956525 2.195087 0.597287
C 2.955561 2.292741 0.983995
C 4.220564 1.705877 1.077708
C 5.080185 1.697420 0.954651
C 6.327372 2.357412 1.140691
C 6.810925 1.914366 1.191630
C 0.064294 3.281565 1.355289
C 1.236459 2.971384 0.801871
C 2.173091 3.309321 1.120220
C 2.923158 3.318145 1.046984
C 4.171004 2.728921 0.724619
C 4.901260 3.218932 1.050354
C 6.055582 3.307257 0.843996
C 6.628899 2.737435 0.712033
C 0.276534 4.105358 0.676746
C 0.922386 4.070568 0.677823
C 1.666101 4.175907 0.701114
C 2.698893 3.978356 1.202543
C 3.945383 3.544797 0.970454
C 4.659300 4.140022 1.222397
C 6.177604 3.907362 0.927292
C 6.804971 3.734306 0.681005
C 0.029913 4.666422 0.992086
C 1.098632 5.432017 1.043553
C 2.399894 4.741545 1.001073
C 3.376546 4.845908 0.879509
C 4.045706 4.743032 0.661543
C 4.996098 4.860606 0.642385
C 6.286661 5.155299 0.712304
C 6.801497 5.467688 0.981198
C 0.491240 5.877781 1.006984
C 1.191708 6.225699 0.950332
C 1.611059 5.691463 0.823899
C 3.107419 5.573364 0.862522
C 3.870717 5.909895 0.927950
C 4.999159 5.782826 0.723776
C 6.285237 5.899904 0.849555
C 6.987164 6.129883 0.952048
C 0.386513 6.971946 0.973249
C 1.185666 6.879222 1.505311
C 2.262691 6.582966 1.193245
C 2.915208 6.604709 0.755347
C 3.968248 6.980105 1.041716
C 4.602964 6.939861 1.006242
C 5.557267 6.687574 0.744939
C 6.951982 6.678205 1.235953
C 0.025877 0.307014 2.255706
C 0.904577 0.018234 2.371789
C 2.524931 0.131060 2.226475
C 3.482901 0.080944 2.239922
C 3.949974 0.157958 1.751629
C 4.978095 0.276186 2.333014
C 5.827570 0.015676 1.985080
C 6.732389 0.157234 1.513449
C 0.072953 1.076501 1.549633
C 1.113307 1.002069 1.737413
C 2.084217 0.974222 2.252558
C 3.239834 0.726639 2.188483
C 3.825027 1.525554 1.942061
C 5.090501 1.072960 1.761233
C 5.744583 0.874543 2.076930
C 6.651627 1.199465 1.743931
C 0.131514 1.660581 1.891825
C 0.898599 1.853563 1.766430
C 1.951547 1.929594 2.160391
C 2.896057 2.150281 2.171428
C 3.797343 2.454073 1.791495
C 5.002631 1.680516 2.085739
C 6.008283 1.896438 1.502124
C 6.879933 2.078982 2.020081
C 0.069469 2.843863 1.840117
C 1.263264 2.831249 2.229275
C 1.929319 2.950056 2.046041
C 2.817691 2.863466 2.197985
C 3.638418 3.193954 1.771080
C 4.536012 3.092192 2.198386
C 6.288604 3.291188 1.924949
C 6.974489 2.841694 2.328892
C 0.211458 4.048713 2.404614
C 1.010372 3.856400 2.153564
C 2.016608 3.760162 2.104088
C 3.136947 3.543928 1.623988
C 3.701375 3.835805 1.911303
C 4.829910 3.937964 1.821508
C 6.121073 3.931159 1.883163
C 6.849881 4.406661 2.050157
C 0.433606 5.293957 1.989306
C 1.158155 4.813816 2.038234
C 1.920647 5.360636 2.189663
C 2.476281 5.096750 2.062318
C 4.006619 4.836855 2.334257
C 4.936191 5.031975 1.663076
C 5.799577 4.990208 2.237866
C 6.908296 5.062760 1.453285
C 0.019131 6.267507 2.080206
C 1.100497 5.839892 1.935198
C 1.759535 6.030847 2.179482
C 2.996530 6.152182 2.092618
C 3.947149 5.952510 1.648942
C 4.717638 5.956190 1.690887
C 6.086102 6.194547 2.051155
C 6.789908 5.900733 2.130330
C 0.353797 6.895222 2.194015
C 1.321276 6.502256 2.229550
C 2.030072 6.922059 1.713925
C 2.583744 6.897253 2.314766
C 4.082704 6.859674 1.721477
C 5.100349 6.853540 2.282594
C 6.241842 6.961679 2.138458
C 6.841799 6.776113 1.986201
C 0.047793 0.111128 2.985437
C 1.023536 0.111078 2.973883
C 2.286224 0.164950 3.145685
C 3.052304 0.332904 2.983554
C 3.990014 0.266463 2.586941
C 4.980194 0.270075 3.227410
C 6.022941 0.296718 2.691802
C 6.674156 0.397798 2.778388
C 0.000566 0.727031 2.706936
C 1.078532 1.119803 2.729870
C 2.061637 0.640994 2.850138
C 3.243327 0.979763 2.742201
C 3.812303 0.756949 2.966993
C 5.277421 1.106345 2.847714
C 5.828800 0.833023 3.004042
C 6.983496 1.513237 2.879593
C 0.096840 1.557359 3.033865
C 0.735630 1.720863 2.964685
C 1.627513 2.069087 2.677291
C 2.826813 2.155965 3.214682
C 3.992859 1.766506 2.669241
C 4.942239 2.041623 3.264996
C 5.994279 1.845539 3.312258
C 6.496305 1.957813 2.850162
C 0.146465 2.988894 3.290676
C 1.370603 2.801647 3.082669
C 1.642092 3.142738 2.661700
C 3.085692 3.068809 2.941390
C 4.147582 2.957834 2.705280
C 4.815233 3.054555 3.419077
C 6.023377 2.927780 3.109353
C 6.916702 3.417195 2.753812
C 0.078139 4.079638 3.511852
C 0.623891 3.799636 2.780755
C 2.007505 3.778307 2.845820
C 2.977525 3.767271 2.935976
C 4.034118 4.372911 2.863162
C 4.943467 4.211904 3.264135
C 5.750203 4.095993 2.775817
C 6.883014 3.835180 3.189240
C 0.291363 5.036125 2.772116
C 1.242838 4.789161 3.365442
C 1.853838 4.980068 3.365523
C 2.536613 5.220979 2.937083
C 4.048812 5.077912 2.883169
C 5.005958 5.271619 2.888406
C 5.983253 4.916025 2.952621
C 6.816341 4.862652 2.767752
C 0.442675 6.173572 3.014694
C 1.195006 6.081686 3.090738
C 1.844554 6.246704 2.927299
C 2.652279 6.385910 2.997229
C 4.202235 6.287603 3.135004
C 5.091490 6.273765 3.278841
C 5.702729 6.185457 3.051402
C 6.879625 5.554715 2.930796
C 0.026883 6.589397 3.263624
C 1.125074 6.936949 3.059629
C 1.812240 6.999708 2.971611
C 2.729861 6.993394 3.121745
C 4.435860 6.900800 2.637652
C 5.058092 6.975546 3.094414
C 5.883816 6.976004 2.661156
C 6.893891 6.551625 2.557178
C 0.489405 0.316921 3.558779
C 1.246947 0.041084 3.626549
C 1.857525 0.093922 4.228729
C 3.221620 0.403479 4.049269
C 3.894706 0.163279 4.475609
C 5.402690 0.058995 3.964883
C 6.058347 0.435648 4.333773
C 6.594515 0.181979 4.620903
C 0.024879 0.911377 3.625871
C 1.107249 1.141497 3.791691
C 2.096899 1.046495 3.991935
C 2.800983 0.932727 3.741871
C 3.669746 0.906797 3.997561
C 5.358571 0.819072 4.176305
C 6.040356 1.355743 3.752481
C 6.914018 0.881711 3.979793
C 0.064247 1.945535 4.186844
C 0.927461 1.795490 4.053181
C 2.100354 2.062218 3.831990
C 2.656934 1.891323 4.119241
C 3.989376 1.844141 4.022368
C 4.995249 2.362812 3.798536
C 6.053780 2.118933 4.172865
C 6.993043 2.421005 4.149065
C 0.050624 2.561759 4.064310
C 0.977785 3.099614 4.183564
C 1.670477 2.652226 4.235899
C 3.259813 3.367290 3.967353
C 3.993447 2.851723 4.188547
C 4.870323 3.404770 4.147830
C 5.816183 2.678853 4.177212
C 6.593111 3.119431 3.866993
C 0.135403 3.469379 3.790171
C 1.056646 4.218336 4.167537
C 1.712338 4.107027 3.764469
C 2.714939 4.217589 3.951524
C 4.255160 3.800225 4.029422
C 5.343422 4.418368 3.981153
C 6.020162 4.227379 3.964287
C 6.975461 3.732589 4.103853
C 0.006525 4.950961 4.164976
C 1.062780 5.125014 3.906062
C 2.204605 4.893199 4.101660
C 2.811374 4.955670 3.972931
C 4.099255 5.134417 4.378837
C 4.873656 4.758774 3.549451
C 5.714583 4.905984 4.042529
C 6.625108 4.671286 4.026605
C 0.232458 6.095559 3.798228
C 0.783446 5.777878 3.958205
C 2.307504 5.898988 4.238527
C 2.998337 5.740943 4.099996
C 4.218383 5.859383 3.772019
C 4.810590 6.083959 4.245966
C 5.983449 5.737124 4.365952
C 6.714381 6.126987 3.522799
C 0.029784 6.664759 4.329522
C 0.683253 6.971750 3.667039
C 2.042215 6.959634 4.078202
C 3.222469 6.850426 3.884797
C 3.802752 6.924442 4.269012
C 5.281792 6.869496 4.090842
C 6.135803 6.628336 3.994892
C 6.733710 6.633793 4.361411
C 0.474115 0.570516 4.884552
C 0.821842 0.073292 4.946787
C 2.268885 0.100174 4.724541
C 3.232073 0.047000 5.285125
C 4.288525 0.357789 4.894305
C 5.203631 0.078430 5.237688
C 5.780315 0.036458 5.435102
C 6.958561 0.231435 5.230419
C 0.449023 1.295690 5.164310
C 1.018421 0.748958 5.212649
C 1.965044 1.222001 4.872537
C 2.740261 1.159571 5.145208
C 3.948669 0.839252 5.225341
C 4.952555 1.027494 5.010196
C 5.728122 0.820070 5.104416
C 6.998284 0.921269 4.894895
C 0.306462 2.199233 4.757587
C 1.012334 1.611917 4.971111
C 1.873686 1.976159 5.385034
C 2.782771 1.941743 5.137324
C 4.007826 1.977646 4.878033
C 4.747775 2.267024 4.948037
C 6.091957 1.752736 4.991100
C 6.730693 2.218954 5.043461
C 0.162230 2.738566 5.114833
C 1.405619 3.070192 4.982831
C 2.145199 2.710481 5.265196
C 3.041916 2.746340 4.662188
C 4.132638 2.969315 5.240160
C 4.792336 2.893007 4.785187
C 6.168798 2.634100 4.673078
C 6.674906 2.938319 5.319570
C 0.170766 3.781920 4.556330
C 0.908975 4.480148 4.803587
C 1.664412 3.819294 5.463836
C 2.580885 3.905725 5.089378
C 4.168628 3.967806 5.188347
C 4.793688 3.735021 5.187977
C 6.007893 4.540568 5.157503
C 6.927564 3.901619 5.069930
C 0.073283 4.778893 4.888121
C 1.221532 5.376282 4.807459
C 2.111309 4.939567 5.222599
C 2.976720 5.046511 5.459412
C 3.515408 5.001437 5.066741
C 5.147207 5.392484 5.072660
C 6.223989 5.123907 4.948308
C 6.761774 4.519096 4.915372
C 0.075340 5.898052 5.022662
C 0.875871 6.201590 4.734280
C 2.335227 6.256561 4.992531
C 3.412209 6.290433 4.841926
C 3.942227 5.690546 5.046251
C 4.886479 6.327891 5.231470
C 5.773550 5.917412 4.952644
C 6.800606 5.923078 4.883741
C 0.338213 6.548230 5.136044
C 1.292753 6.826472 4.796833
C 1.981600 6.844157 4.705094
C 2.986907 6.704413 5.246919
C 4.176591 6.988520 4.889540
C 4.771762 6.949731 4.972702
C 5.932960 6.979833 4.612702
C 6.435541 6.898607 5.168893
C 0.313003 0.426289 5.962626
C 1.102822 0.398164 5.753825
C 1.864933 0.296964 6.262707
C 2.869378 0.460175 5.932407
C 4.456635 0.009983 5.982025
C 5.144315 0.002844 6.049877
C 6.143266 0.228922 6.411908
C 6.943606 0.021366 5.811913
C 0.588361 0.971252 5.937439
C 0.925703 1.463440 5.859469
C 2.348630 0.863973 6.193184
C 3.515375 0.723677 5.885511
C 3.930745 1.115421 6.399356
C 4.825668 0.973643 6.226671
C 5.955086 1.350398 5.698646
C 6.859563 0.607595 5.920375
C 0.403255 2.018804 6.353398
C 1.200320 1.969783 5.613051
C 2.076435 1.965596 6.227860
C 3.062561 2.188172 5.679008
C 4.227913 1.963144 6.156873
C 5.044505 1.755963 5.806566
C 6.335751 1.923175 6.040775
C 6.842289 1.851981 5.632504
C 0.027239 2.657548 5.798320
C 1.392409 2.965551 6.037616
C 2.474000 3.064978 6.177711
C 2.981630 3.308841 5.636798
C 3.903208 2.776257 5.785258
C 5.110760 2.941439 6.316863
C 6.066309 3.007480 5.682916
C 6.622995 2.680916 5.987827
C 0.120162 4.346434 5.608218
C 0.811454 4.453523 5.989923
C 2.183115 4.070542 6.181133
C 2.793934 3.895782 6.224693
C 4.185736 4.010802 6.240773
C 5.306385 4.065187 6.209065
C 6.237673 3.871179 5.953252
C 6.872767 4.088935 5.773831
C 0.434622 5.153619 6.156598
C 1.092149 4.988480 6.184068
C 1.655064 5.237339 6.302873
C 3.351875 4.873304 6.312365
C 4.069674 4.776840 6.201946
C 4.893192 4.784292 6.329445
C 6.290224 5.163425 6.086630
C 6.758955 4.746643 5.611221
C 0.153867 5.777495 5.961020
C 0.838007 5.822039 5.823882
C 1.733412 6.070268 5.960507
C 2.637720 5.868643 5.881657
C 3.569434 6.095144 5.821264
C 4.926474 6.058656 6.471276
C 5.924140 5.788198 6.134260
C 6.747759 6.222949 6.085525
C 0.159498 6.906531 5.733880
C 0.798081 6.983479 6.144822
C 2.136014 6.866716 5.983658
C 3.271371 6.936312 5.757302
C 4.380728 6.986853 5.923099
C 5.027695 6.831546 5.567436
C 6.227061 6.627811 6.055419
C 6.854972 6.958050 5.803721
C 0.021649 0.302551 6.736322
C 1.064781 0.087064 6.725084
C 1.728995 0.301584 6.930849
C 2.601443 0.139333 6.566497
C 4.290053 0.172289 6.617694
C 4.991337 0.266935 6.594778
C 5.653588 0.186389 6.979193
C 6.977291 0.503179 6.646112
C 0.145283 1.076223 6.377535
C 1.037517 0.892622 6.983831
C 1.862543 1.042035 6.956571
C 3.086455 0.807632 6.706034
C 4.218781 0.754678 6.831984
C 4.863989 0.814904 6.899744
C 5.415437 1.308956 6.828659
C 6.910965 1.216832 6.452812
C 0.245519 2.353986 6.916777
C 1.204030 1.883215 6.872497
C 2.405496 2.075744 6.995384
C 3.343420 2.348426 6.543667
C 3.782006 1.985887 6.891809
C 5.206001 1.969931 6.799796
C 5.768644 2.114840 6.596275
C 6.585042 1.820930 6.907564
C 0.235347 3.078054 6.263480
C 0.859460 2.666977 6.743717
C 2.473597 3.033368 6.989581
C 3.142075 2.962052 6.762860
C 4.037223 2.791586 6.623556
C 5.073250 3.286542 6.999536
C 6.114756 2.887499 6.926563
C 6.775184 2.915372 6.521247
C 0.287686 4.507695 6.380666
C 0.889626 4.009065 6.871840
C 2.447684 3.870151 6.978808
C 3.119412 4.007083 6.783369
C 4.243969 4.344379 6.788686
C 5.404397 3.791497 6.823139
C 6.062315 3.841525 6.971622
C 6.688055 3.829838 6.943656
C 0.423995 5.125767 6.881881
C 1.268749 5.165672 6.892399
C 1.913586 5.400024 6.938432
C 2.502026 4.948178 6.972097
C 3.786770 4.798593 6.737072
C 5.046135 4.826292 6.991708
C 5.979056 5.327081 6.949128
C 6.991060 4.708194 6.982713
C 0.038888 5.700229 6.848919
C 0.608073 6.254959 6.748263
C 1.810375 6.027471 6.595457
C 3.243853 5.615997 6.931003
C 4.325385 6.165819 6.869735
C 4.922469 6.390834 6.982949
C 5.835918 6.231664 6.804817
C 6.675733 5.728422 6.923719
C 0.183501 6.833618 6.992089
C 1.438366 6.961055 6.687779
C 2.254457 6.927037 6.599267
C 2.741414 6.325950 6.785047
C 3.586143 6.830093 6.883726
C 4.587884 6.947738 6.998513
C 6.049550 6.829158 6.633699
C 6.926186 6.963505 6.460726
