512
Frame 1/10
C 0.000000 0.000000 0.000000
C 1.000000 0.000000 0.000000
C 2.000000 0.000000 0.000000
C 3.000000 0.000000 0.000000
C 4.000000 0.000000 0.000000
C 5.000000 0.000000 0.000000
C 6.000000 0.000000 0.000000
C 7.000000 0.000000 0.000000
C 0.000000 1.000000 0.000000
C 1.000000 1.000000 0.000000
C 2.000000 1.000000 0.000000
C 3.000000 1.000000 0.000000
C 4.000000 1.000000 0.000000
C 5.000000 1.000000 0.000000
C 6.000000 1.000000 0.000000
C 7.000000 1.000000 0.000000
C 0.000000 2.000000 0.000000
C 1.000000 2.000000 0.000000
C 2.000000 2.000000 0.000000
C 3.000000 2.000000 0.000000
C 4.000000 2.000000 0.000000
C 5.000000 2.000000 0.000000
C 6.000000 2.000000 0.000000
C 7.000000 2.000000 0.000000
C 0.000000 3.000000 0.000000
C 1.000000 3.000000 0.000000
C 2.000000 3.000000 0.000000
C 3.000000 3.000000 0.000000
C 4.000000 3.000000 0.000000
C 5.000000 3.000000 0.000000
C 6.000000 3.000000 0.000000
C 7.000000 3.000000 0.000000
C 0.000000 4.000000 0.000000
C 1.000000 4.000000 0.000000
C 2.000000 4.000000 0.000000
C 3.000000 4.000000 0.000000
C 4.000000 4.000000 0.000000
C 5.000000 4.000000 0.000000
C 6.000000 4.000000 0.000000
C 7.000000 4.000000 0.000000
C 0.000000 5.000000 0.000000
C 1.000000 5.000000 0.000000
C 2.000000 5.000000 0.000000
C 3.000000 5.000000 0.000000
C 4.000000 5.000000 0.000000
C 5.000000 5.000000 0.000000
C 6.000000 5.000000 0.000000
C 7.000000 5.000000 0.000000
C 0.000000 6.000000 0.000000
C 1.000000 6.000000 0.000000
C 2.000000 6.000000 0.000000
C 3.000000 6.000000 0.000000
C 4.000000 6.000000 0.000000
C 5.000000 6.000000 0.000000
C 6.000000 6.000000 0.000000
C 7.000000 6.000000 0.000000
C 0.000000 7.000000 0.000000
C 1.000000 7.000000 0.000000
C 2.000000 7.000000 0.000000
C 3.000000 7.000000 0.000000
C 4.000000 7.000000 0.000000
C 5.000000 7.000000 0.000000
C 6.000000 7.000000 0.000000
C 7.000000 7.000000 0.000000
C 0.000000 0.000000 1.000000
C 1.000000 0.000000 1.000000
C 2.000000 0.000000 1.000000
C 3.000000 0.000000 1.000000
C 4.000000 0.000000 1.000000
C 5.000000 0.000000 1.000000
C 6.000000 0.000000 1.000000
C 7.000000 0.000000 1.000000
C 0.000000 1.000000 1.000000
C 1.000000 1.000000 1.000000
C 2.000000 1.000000 1.000000
C 3.000000 1.000000 1.000000
C 4.000000 1.000000 1.000000
C 5.000000 1.000000 1.000000
C 6.000000 1.000000 1.000000
C 7.000000 1.000000 1.000000
C 0.000000 2.000000 1.000000
C 1.000000 2.000000 1.000000
C 2.000000 2.000000 1.000000
C 3.000000 2.000000 1.000000
C 4.000000 2.000000 1.000000
C 5.000000 2.000000 1.000000
C 6.000000 2.000000 1.000000
C 7.000000 2.000000 1.000000
C 0.000000 3.000000 1.000000
C 1.000000 3.000000 1.000000
C 2.000000 3.000000 1.000000
C 3.000000 3.000000 1.000000
C 4.000000 3.000000 1.000000
C 5.000000 3.000000 1.000000
C 6.000000 3.000000 1.000000
C 7.000000 3.000000 1.000000
C 0.000000 4.000000 1.000000
C 1.000000 4.000000 1.000000
C 2.000000 4.000000 1.000000
C 3.000000 4.000000 1.000000
C 4.000000 4.000000 1.000000
C 5.000000 4.000000 1.000000
C 6.000000 4.000000 1.000000
C 7.000000 4.000000 1.000000
C 0.000000 5.000000 1.000000
C 1.000000 5.000000 1.000000
C 2.000000 5.000000 1.000000
C 3.000000 5.000000 1.000000
C 4.000000 5.000000 1.000000
C 5.000000 5.000000 1.000000
C 6.000000 5.000000 1.000000
C 7.000000 5.000000 1.000000
C 0.000000 6.000000 1.000000
C 1.000000 6.000000 1.000000
C 2.000000 6.000000 1.000000
C 3.000000 6.000000 1.000000
C 4.000000 6.000000 1.000000
C 5.000000 6.000000 1.000000
C 6.000000 6.000000 1.000000
C 7.000000 6.000000 1.000000
C 0.000000 7.000000 1.000000
C 1.000000 7.000000 1.000000
C 2.000000 7.000000 1.000000
C 3.000000 7.000000 1.000000
C 4.000000 7.000000 1.000000
C 5.000000 7.000000 1.000000
C 6.000000 7.000000 1.000000
C 7.000000 7.000000 1.000000
C 0.000000 0.000000 2.000000
C 1.000000 0.000000 2.000000
C 2.000000 0.000000 2.000000
C 3.000000 0.000000 2.000000
C 4.000000 0.000000 2.000000
C 5.000000 0.000000 2.000000
C 6.000000 0.000000 2.000000
C 7.000000 0.000000 2.000000
C 0.000000 1.000000 2.000000
C 1.000000 1.000000 2.000000
C 2.000000 1.000000 2.000000
C 3.000000 1.000000 2.000000
C 4.000000 1.000000 2.000000
C 5.000000 1.000000 2.000000
C 6.000000 1.000000 2.000000
C 7.000000 1.000000 2.000000
C 0.000000 2.000000 2.000000
C 1.000000 2.000000 2.000000
C 2.000000 2.000000 2.000000
C 3.000000 2.000000 2.000000
C 4.000000 2.000000 2.000000
C 5.000000 2.000000 2.000000
C 6.000000 2.000000 2.000000
C 7.000000 2.000000 2.000000
C 0.000000 3.000000 2.000000
C 1.000000 3.000000 2.000000
C 2.000000 3.000000 2.000000
C 3.000000 3.000000 2.000000
C 4.000000 3.000000 2.000000
C 5.000000 3.000000 2.000000
C 6.000000 3.000000 2.000000
C 7.000000 3.000000 2.000000
C 0.000000 4.000000 2.000000
C 1.000000 4.000000 2.000000
C 2.000000 4.000000 2.000000
C 3.000000 4.000000 2.000000
C 4.000000 4.000000 2.000000
C 5.000000 4.000000 2.000000
C 6.000000 4.000000 2.000000
C 7.000000 4.000000 2.000000
C 0.000000 5.000000 2.000000
C 1.000000 5.000000 2.000000
C 2.000000 5.000000 2.000000
C 3.000000 5.000000 2.000000
C 4.000000 5.000000 2.000000
C 5.000000 5.000000 2.000000
C 6.000000 5.000000 2.000000
C 7.000000 5.000000 2.000000
C 0.000000 6.000000 2.000000
C 1.000000 6.000000 2.000000
C 2.000000 6.000000 2.000000
C 3.000000 6.000000 2.000000
C 4.000000 6.000000 2.000000
C 5.000000 6.000000 2.000000
C 6.000000 6.000000 2.000000
C 7.000000 6.000000 2.000000
C 0.000000 7.000000 2.000000
C 1.000000 7.000000 2.000000
C 2.000000 7.000000 2.000000
C 3.000000 7.000000 2.000000
C 4.000000 7.000000 2.000000
C 5.000000 7.000000 2.000000
C 6.000000 7.000000 2.000000
C 7.000000 7.000000 2.000000
C 0.000000 0.000000 3.000000
C 1.000000 0.000000 3.000000
C 2.000000 0.000000 3.000000
C 3.000000 0.000000 3.000000
C 4.000000 0.000000 3.000000
C 5.000000 0.000000 3.000000
C 6.000000 0.000000 3.000000
C 7.000000 0.000000 3.000000
C 0.000000 1.000000 3.000000
C 1.000000 1.000000 3.000000
C 2.000000 1.000000 3.000000
C 3.000000 1.000000 3.000000
C 4.000000 1.000000 3.000000
C 5.000000 1.000000 3.000000
C 6.000000 1.000000 3.000000
C 7.000000 1.000000 3.000000
C 0.000000 2.000000 3.000000
C 1.000000 2.000000 3.000000
C 2.000000 2.000000 3.000000
C 3.000000 2.000000 3.000000
C 4.000000 2.000000 3.000000
C 5.000000 2.000000 3.000000
C 6.000000 2.000000 3.000000
C 7.000000 2.000000 3.000000
C 0.000000 3.000000 3.000000
C 1.000000 3.000000 3.000000
C 2.000000 3.000000 3.000000
C 3.000000 3.000000 3.000000
C 4.000000 3.000000 3.000000
C 5.000000 3.000000 3.000000
C 6.000000 3.000000 3.000000
C 7.000000 3.000000 3.000000
C 0.000000 4.000000 3.000000
C 1.000000 4.000000 3.000000
C 2.000000 4.000000 3.000000
C 3.000000 4.000000 3.000000
C 4.000000 4.000000 3.000000
C 5.000000 4.000000 3.000000
C 6.000000 4.000000 3.000000
C 7.000000 4.000000 3.000000
C 0.000000 5.000000 3.000000
C 1.000000 5.000000 3.000000
C 2.000000 5.000000 3.000000
C 3.000000 5.000000 3.000000
C 4.000000 5.000000 3.000000
C 5.000000 5.000000 3.000000
C 6.000000 5.000000 3.000000
C 7.000000 5.000000 3.000000
C 0.000000 6.000000 3.000000
C 1.000000 6.000000 3.000000
C 2.000000 6.000000 3.000000
C 3.000000 6.000000 3.000000
C 4.000000 6.000000 3.000000
C 5.000000 6.000000 3.000000
C 6.000000 6.000000 3.000000
C 7.000000 6.000000 3.000000
C 0.000000 7.000000 3.000000
C 1.000000 7.000000 3.000000
C 2.000000 7.000000 3.000000
C 3.000000 7.000000 3.000000
C 4.000000 7.000000 3.000000
C 5.000000 7.000000 3.000000
C 6.000000 7.000000 3.000000
C 7.000000 7.000000 3.000000
C 0.000000 0.000000 4.000000
C 1.000000 0.000000 4.000000
C 2.000000 0.000000 4.000000
C 3.000000 0.000000 4.000000
C 4.000000 0.000000 4.000000
C 5.000000 0.000000 4.000000
C 6.000000 0.000000 4.000000
C 7.000000 0.000000 4.000000
C 0.000000 1.000000 4.000000
C 1.000000 1.000000 4.000000
C 2.000000 1.000000 4.000000
C 3.000000 1.000000 4.000000
C 4.000000 1.000000 4.000000
C 5.000000 1.000000 4.000000
C 6.000000 1.000000 4.000000
C 7.000000 1.000000 4.000000
C 0.000000 2.000000 4.000000
C 1.000000 2.000000 4.000000
C 2.000000 2.000000 4.000000
C 3.000000 2.000000 4.000000
C 4.000000 2.000000 4.000000
C 5.000000 2.000000 4.000000
C 6.000000 2.000000 4.000000
C 7.000000 2.000000 4.000000
C 0.000000 3.000000 4.000000
C 1.000000 3.000000 4.000000
C 2.000000 3.000000 4.000000
C 3.000000 3.000000 4.000000
C 4.000000 3.000000 4.000000
C 5.000000 3.000000 4.000000
C 6.000000 3.000000 4.000000
C 7.000000 3.000000 4.000000
C 0.000000 4.000000 4.000000
C 1.000000 4.000000 4.000000
C 2.000000 4.000000 4.000000
C 3.000000 4.000000 4.000000
C 4.000000 4.000000 4.000000
C 5.000000 4.000000 4.000000
C 6.000000 4.000000 4.000000
C 7.000000 4.000000 4.000000
C 0.000000 5.000000 4.000000
C 1.000000 5.000000 4.000000
C 2.000000 5.000000 4.000000
C 3.000000 5.000000 4.000000
C 4.000000 5.000000 4.000000
C 5.000000 5.000000 4.000000
C 6.000000 5.000000 4.000000
C 7.000000 5.000000 4.000000
C 0.000000 6.000000 4.000000
C 1.000000 6.000000 4.000000
C 2.000000 6.000000 4.000000
C 3.000000 6.000000 4.000000
C 4.000000 6.000000 4.000000
C 5.000000 6.000000 4.000000
C 6.000000 6.000000 4.000000
C 7.000000 6.000000 4.000000
C 0.000000 7.000000 4.000000
C 1.000000 7.000000 4.000000
C 2.000000 7.000000 4.000000
C 3.000000 7.000000 4.000000
C 4.000000 7.000000 4.000000
C 5.000000 7.000000 4.000000
C 6.000000 7.000000 4.000000
C 7.000000 7.000000 4.000000
C 0.000000 0.000000 5.000000
C 1.000000 0.000000 5.000000
C 2.000000 0.000000 5.000000
C 3.000000 0.000000 5.000000
C 4.000000 0.000000 5.000000
C 5.000000 0.000000 5.000000
C 6.000000 0.000000 5.000000
C 7.000000 0.000000 5.000000
C 0.000000 1.000000 5.000000
C 1.000000 1.000000 5.000000
C 2.000000 1.000000 5.000000
C 3.000000 1.000000 5.000000
C 4.000000 1.000000 5.000000
C 5.000000 1.000000 5.000000
C 6.000000 1.000000 5.000000
C 7.000000 1.000000 5.000000
C 0.000000 2.000000 5.000000
C 1.000000 2.000000 5.000000
C 2.000000 2.000000 5.000000
C 3.000000 2.000000 5.000000
C 4.000000 2.000000 5.000000
C 5.000000 2.000000 5.000000
C 6.000000 2.000000 5.000000
C 7.000000 2.000000 5.000000
C 0.000000 3.000000 5.000000
C 1.000000 3.000000 5.000000
C 2.000000 3.000000 5.000000
C 3.000000 3.000000 5.000000
C 4.000000 3.000000 5.000000
C 5.000000 3.000000 5.000000
C 6.000000 3.000000 5.000000
C 7.000000 3.000000 5.000000
C 0.000000 4.000000 5.000000
C 1.000000 4.000000 5.000000
C 2.000000 4.000000 5.000000
C 3.000000 4.000000 5.000000
C 4.000000 4.000000 5.000000
C 5.000000 4.000000 5.000000
C 6.000000 4.000000 5.000000
C 7.000000 4.000000 5.000000
C 0.000000 5.000000 5.000000
C 1.000000 5.000000 5.000000
C 2.000000 5.000000 5.000000
C 3.000000 5.000000 5.000000
C 4.000000 5.000000 5.000000
C 5.000000 5.000000 5.000000
C 6.000000 5.000000 5.000000
C 7.000000 5.000000 5.000000
C 0.000000 6.000000 5.000000
C 1.000000 6.000000 5.000000
C 2.000000 6.000000 5.000000
C 3.000000 6.000000 5.000000
C 4.000000 6.000000 5.000000
C 5.000000 6.000000 5.000000
C 6.000000 6.000000 5.000000
C 7.000000 6.000000 5.000000
C 0.000000 7.000000 5.000000
C 1.000000 7.000000 5.000000
C 2.000000 7.000000 5.000000
C 3.000000 7.000000 5.000000
C 4.000000 7.000000 5.000000
C 5.000000 7.000000 5.000000
C 6.000000 7.000000 5.000000
C 7.000000 7.000000 5.000000
C 0.000000 0.000000 6.000000
C 1.000000 0.000000 6.000000
C 2.000000 0.000000 6.000000
C 3.000000 0.000000 6.000000
C 4.000000 0.000000 6.000000
C 5.000000 0.000000 6.000000
C 6.000000 0.000000 6.000000
C 7.000000 0.000000 6.000000
C 0.000000 1.000000 6.000000
C 1.000000 1.000000 6.000000
C 2.000000 1.000000 6.000000
C 3.000000 1.000000 6.000000
C 4.000000 1.000000 6.000000
C 5.000000 1.000000 6.000000
C 6.000000 1.000000 6.000000
C 7.000000 1.000000 6.000000
C 0.000000 2.000000 6.000000
C 1.000000 2.000000 6.000000
C 2.000000 2.000000 6.000000
C 3.000000 2.000000 6.000000
C 4.000000 2.000000 6.000000
C 5.000000 2.000000 6.000000
C 6.000000 2.000000 6.000000
C 7.000000 2.000000 6.000000
C 0.000000 3.000000 6.000000
C 1.000000 3.000000 6.000000
C 2.000000 3.000000 6.000000
C 3.000000 3.000000 6.000000
C 4.000000 3.000000 6.000000
C 5.000000 3.000000 6.000000
C 6.000000 3.000000 6.000000
C 7.000000 3.000000 6.000000
C 0.000000 4.000000 6.000000
C 1.000000 4.000000 6.000000
C 2.000000 4.000000 6.000000
C 3.000000 4.000000 6.000000
C 4.000000 4.000000 6.000000
C 5.000000 4.000000 6.000000
C 6.000000 4.000000 6.000000
C 7.000000 4.000000 6.000000
C 0.000000 5.000000 6.000000
C 1.000000 5.000000 6.000000
C 2.000000 5.000000 6.000000
C 3.000000 5.000000 6.000000
C 4.000000 5.000000 6.000000
C 5.000000 5.000000 6.000000
C 6.000000 5.000000 6.000000
C 7.000000 5.000000 6.000000
C 0.000000 6.000000 6.000000
C 1.000000 6.000000 6.000000
C 2.000000 6.000000 6.000000
C 3.000000 6.000000 6.000000
C 4.000000 6.000000 6.000000
C 5.000000 6.000000 6.000000
C 6.000000 6.000000 6.000000
C 7.000000 6.000000 6.000000
C 0.000000 7.000000 6.000000
C 1.000000 7.000000 6.000000
C 2.000000 7.000000 6.000000
C 3.000000 7.000000 6.000000
C 4.000000 7.000000 6.000000
C 5.000000 7.000000 6.000000
C 6.000000 7.000000 6.000000
C 7.000000 7.000000 6.000000
C 0.000000 0.000000 7.000000
C 1.000000 0.000000 7.000000
C 2.000000 0.000000 7.000000
C 3.000000 0.000000 7.000000
C 4.000000 0.000000 7.000000
C 5.000000 0.000000 7.000000
C 6.000000 0.000000 7.000000
C 7.000000 0.000000 7.000000
C 0.000000 1.000000 7.000000
C 1.000000 1.000000 7.000000
C 2.000000 1.000000 7.000000
C 3.000000 1.000000 7.000000
C 4.000000 1.000000 7.000000
C 5.000000 1.000000 7.000000
C 6.000000 1.000000 7.000000
C 7.000000 1.000000 7.000000
C 0.000000 2.000000 7.000000
C 1.000000 2.000000 7.000000
C 2.000000 2.000000 7.000000
C 3.000000 2.000000 7.000000
C 4.000000 2.000000 7.000000
C 5.000000 2.000000 7.000000
C 6.000000 2.000000 7.000000
C 7.000000 2.000000 7.000000
C 0.000000 3.000000 7.000000
C 1.000000 3.000000 7.000000
C 2.000000 3.000000 7.000000
C 3.000000 3.000000 7.000000
C 4.000000 3.000000 7.000000
C 5.000000 3.000000 7.000000
C 6.000000 3.000000 7.000000
C 7.000000 3.000000 7.000000
C 0.000000 4.000000 7.000000
C 1.000000 4.000000 7.000000
C 2.000000 4.000000 7.000000
C 3.000000 4.000000 7.000000
C 4.000000 4.000000 7.000000
C 5.000000 4.000000 7.000000
C 6.000000 4.000000 7.000000
C 7.000000 4.000000 7.000000
C 0.000000 5.000000 7.000000
C 1.000000 5.000000 7.000000
C 2.000000 5.000000 7.000000
C 3.000000 5.000000 7.000000
C 4.000000 5.000000 7.000000
C 5.000000 5.000000 7.000000
C 6.000000 5.000000 7.000000
C 7.000000 5.000000 7.000000
C 0.000000 6.000000 7.000000
C 1.000000 6.000000 7.000000
C 2.000000 6.000000 7.000000
C 3.000000 6.000000 7.000000
C 4.000000 6.000000 7.000000
C 5.000000 6.000000 7.000000
C 6.000000 6.000000 7.000000
C 7.000000 6.000000 7.000000
C 0.000000 7.000000 7.000000
C 1.000000 7.000000 7.000000
C 2.000000 7.000000 7.000000
C 3.000000 7.000000 7.000000
C 4.000000 7.000000 7.000000
C 5.000000 7.000000 7.000000
C 6.000000 7.000000 7.000000
C 7.000000 7.000000 7.000000
512
Frame 2/10
C 0.030683 0.019920 0.035396
C 0.997709 0.081692 0.068969
C 1.954091 0.032044 0.044622
C 3.007282 0.029583 0.005707
C 4.049012 0.024107 0.035822
C 5.037926 0.005737 0.058732
C 5.974883 0.018920 0.006005
C 6.994576 0.030337 0.036922
C 0.009292 1.063962 0.041615
C 1.001617 1.012139 0.009933
C 2.032436 1.029603 0.012108
C 2.998155 1.003017 0.050856
C 3.965981 0.966366 0.002728
C 5.030973 1.025238 0.006888
C 5.983915 0.997567 0.018045
C 6.958506 0.991267 0.054726
C 0.049819 2.019719 0.055516
C 1.018665 1.962965 0.047633
C 2.016599 1.989591 0.055507
C 3.059009 1.978414 0.028188
C 4.014235 2.041676 0.029697
C 4.974329 1.962711 0.000492
C 5.986860 2.021258 0.015997
C 6.982068 2.016508 0.021508
C 0.013898 2.964801 0.061387
C 0.974980 2.977280 0.004738
C 1.992342 3.008252 0.006402
C 2.978444 3.031245 0.002316
C 3.996886 3.038941 0.007485
C 5.005548 3.012439 0.008620
C 6.021224 3.031627 0.023720
C 6.992408 2.986827 0.000766
C 0.044235 3.972008 0.076857
C 1.012409 3.955909 0.046894
C 2.025776 4.026755 0.039798
C 2.978877 4.041612 0.021177
C 3.986606 3.995323 0.052531
C 4.942274 4.022238 0.014664
C 6.021409 4.021758 0.041385
C 6.966929 3.971781 0.021364
C 0.019479 4.986111 0.051974
C 0.968539 5.044189 0.020703
C 1.960906 5.036856 0.018650
C 3.039754 5.018154 0.015456
C 3.998638 4.971110 0.027150
C 4.962856 5.050521 0.023610
C 6.017860 5.039793 0.066462
C 6.997052 4.986263 0.034747
C 0.041139 5.988890 0.036277
C 0.994667 5.995836 0.020579
C 1.994914 5.984704 0.005272
C 3.056173 5.996012 0.001784
C 4.007204 5.960473 0.033658
C 4.956935 6.018753 0.007202
C 6.015667 6.004431 0.008817
C 6.972400 5.954897 0.074524
C 0.068363 6.940276 0.028704
C 1.047159 6.986838 0.005157
C 2.035068 6.941624 0.014774
C 3.002149 6.971787 0.006457
C 3.975253 6.958656 0.004521
C 5.027696 6.988554 0.004941
C 5.984804 6.971861 0.026918
C 6.994565 6.918063 0.041213
C 0.013490 0.015684 1.024189
C 1.012072 0.027585 1.025746
C 1.970443 0.012221 1.022645
C 3.030931 0.000819 0.976355
C 3.991160 0.009232 1.025265
C 4.993849 0.009680 1.028461
C 6.014320 0.002688 0.964129
C 6.936992 0.055994 1.000817
C 0.016974 0.979913 0.982159
C 0.984692 1.021370 1.007437
C 2.017726 1.035180 0.984002
C 3.007339 1.029986 1.044581
C 3.987751 1.011133 1.014244
C 5.038586 0.996366 0.969574
C 5.986927 0.964075 0.978887
C 6.992914 1.046320 0.997012
C 0.019409 2.015264 1.021134
C 1.007806 2.023112 0.982585
C 2.004991 1.992840 1.050362
C 3.021805 2.020230 0.973535
C 3.991445 2.012942 0.986902
C 4.999265 2.001639 1.026609
C 5.974904 2.010032 0.997783
C 6.990774 2.018873 0.981123
C 0.010297 3.025442 0.991561
C 0.987823 2.973792 1.026201
C 1.986386 2.997479 1.027546
C 2.991074 2.982785 0.981741
C 4.011779 2.993430 1.033627
C 5.000721 3.022836 0.965596
C 5.973056 2.988770 0.990192
C 6.959650 2.986331 1.021947
C 0.003715 4.054395 1.022528
C 0.965521 4.010229 1.026599
C 2.005321 4.031524 1.004693
C 3.002397 4.018840 1.023700
C 4.010515 3.999335 1.017254
C 4.994425 4.025149 0.968064
C 6.040220 3.987263 1.006031
C 6.994949 3.966150 1.025797
C 0.048929 5.005245 1.026048
C 0.998288 5.030180 0.974274
C 2.002987 5.033108 0.960710
C 3.026321 4.982182 1.023476
C 3.994319 4.982973 0.985930
C 5.040973 5.014960 0.990505
C 5.993713 4.969247 1.012185
C 6.995614 4.950972 1.011284
C 0.011111 6.030335 1.032028
C 0.959977 6.016120 0.987186
C 1.979729 5.987365 0.991885
C 2.977827 5.997499 1.028865
C 3.953130 6.023884 1.032455
C 4.986685 5.982614 1.053593
C 6.015527 5.994370 1.007421
C 6.980628 6.029019 0.996113
C 0.009217 6.953587 0.953485
C 0.994252 6.999441 1.030940
C 1.975117 6.995210 0.947993
C 3.055710 6.990188 0.983476
C 4.004880 6.963849 0.969137
C 5.019734 6.998953 0.992688
C 6.025141 6.984425 0.976239
C 6.996588 6.988610 0.983119
C 0.003370 0.010273 2.000505
C 1.000496 0.004857 2.034841
C 2.038001 0.005002 2.015959
C 3.004015 0.023928 1.979144
C 4.008355 0.015067 2.027294
C 4.985097 0.038948 1.986846
C 6.011390 0.025876 2.007739
C 6.987416 0.037734 2.047879
C 0.024883 0.976451 1.992012
C 1.010869 0.995812 1.991807
C 1.978472 1.035972 2.033973
C 3.020793 1.005233 2.041143
C 4.019994 1.022818 2.008546
C 5.003214 1.024668 2.012237
C 5.961731 1.018763 1.978966
C 6.989636 1.000076 1.969492
C 0.035686 1.986559 2.009505
C 1.021507 1.953829 2.008686
C 1.996162 1.991500 2.049837
C 2.965005 2.009506 1.966901
C 3.967176 2.027525 2.010764
C 4.964853 1.977190 2.007947
C 6.006542 1.966734 1.972913
C 6.998023 1.999375 2.018598
C 0.018281 2.943701 1.977597
C 1.038449 2.972270 1.999949
C 1.997463 2.972146 1.997935
C 2.969472 2.967273 1.999844
C 3.967643 2.982159 1.982677
C 4.953869 3.012690 2.007005
C 5.988296 3.004373 2.006310
C 6.960435 2.993016 1.990174
C 0.025136 4.022868 1.971169
C 1.027585 3.992983 1.961215
C 1.979683 3.959408 1.985019
C 3.019395 4.015264 2.028426
C 4.030095 3.995913 2.019312
C 4.987310 3.973500 1.967648
C 6.004699 3.971596 1.970849
C 6.968096 3.964950 2.002887
C 0.007185 4.990562 1.967352
C 0.991016 4.988563 2.031002
C 1.989710 5.044601 2.001816
C 2.995034 5.024419 2.017011
C 3.983609 5.002342 2.031779
C 5.020311 5.032786 2.004106
C 5.978231 5.010081 1.953405
C 6.959354 4.972783 1.984947
C 0.017580 5.980536 2.017223
C 1.028361 5.983550 1.958775
C 1.950728 6.042237 1.994459
C 2.978959 6.011098 1.994083
C 3.963291 6.012857 1.995788
C 4.983926 6.014938 2.047241
C 5.976134 5.990694 2.014224
C 6.991504 6.019673 2.001429
C 0.033650 6.988543 1.961277
C 1.039417 6.997206 2.033505
C 2.005201 6.976296 1.953841
C 3.020192 6.977171 1.997338
C 4.007619 6.996547 1.961482
C 4.975189 6.971657 2.018212
C 6.002424 6.998263 2.019757
C 6.993015 6.995741 1.990115
C 0.009871 0.051589 3.011326
C 0.965829 0.014241 3.002318
C 1.971440 0.047608 2.949269
C 2.972931 0.006004 3.021388
C 3.968762 0.002271 2.992009
C 5.013113 0.023767 3.000277
C 6.025760 0.021505 2.991187
C 6.966867 0.012530 3.041188
C 0.005277 1.035160 2.929008
C 1.019030 0.964265 2.983245
C 2.021230 0.978252 2.981706
C 3.010828 0.952696 3.008758
C 4.020027 0.965066 2.976324
C 4.988521 0.984416 2.968696
C 6.005860 0.998200 3.031243
C 6.994474 1.029052 3.001923
C 0.005309 1.992021 3.025451
C 0.989946 2.038293 2.993105
C 2.009981 1.973125 3.010300
C 3.026645 1.997124 2.977639
C 4.027490 2.004028 3.036689
C 5.031720 2.002635 2.986719
C 6.024845 1.971893 2.963653
C 6.988116 1.984398 2.975738
C 0.020162 2.990849 2.988019
C 0.994109 2.986754 3.046592
C 1.996698 2.986023 2.957138
C 2.950151 2.984577 3.010323
C 4.029375 2.998920 2.985071
C 4.988757 3.007129 2.977206
C 5.980757 2.990325 2.961557
C 6.986187 2.990692 2.978416
C 0.002775 3.980799 3.041133
C 1.013038 3.969541 2.966577
C 2.010288 4.029383 2.997287
C 3.001386 3.992319 3.030587
C 3.985602 3.996514 2.980202
C 4.973731 4.020143 2.961098
C 6.013675 3.984702 2.964548
C 6.972512 3.961678 2.987992
C 0.010006 4.987098 3.037246
C 0.958923 5.010729 2.993385
C 2.032418 5.007506 2.969185
C 2.981690 5.002263 3.000653
C 4.021972 5.007328 2.985447
C 4.996031 5.029274 2.998589
C 5.967462 4.983990 3.001780
C 6.973908 5.013552 3.035009
C 0.019739 6.013193 2.989192
C 1.007289 6.003047 2.986105
C 2.017404 6.011628 3.000988
C 2.989714 5.990379 2.978597
C 4.052456 6.010897 3.013119
C 5.025862 6.002547 3.028697
C 6.004052 6.017969 2.997536
C 6.982116 5.965719 3.011875
C 0.042062 6.984454 2.963216
C 0.972107 6.978941 3.027626
C 2.055108 6.992665 2.967601
C 2.967410 6.981397 3.042673
C 4.012463 6.993191 2.996471
C 4.999666 6.967685 2.985512
C 5.969257 6.964733 2.979560
C 6.997058 6.964868 2.984300
C 0.011425 0.063446 4.002548
C 1.016005 0.004898 3.985412
C 2.020073 0.013322 4.008425
C 3.050027 0.002011 4.001340
C 4.040897 0.004205 4.014229
C 5.013344 0.010954 4.058767
C 6.025837 0.029391 4.025789
C 6.976054 0.065618 4.021158
C 0.006888 1.009716 3.961294
C 1.000912 0.982459 4.038726
C 1.984294 1.022733 3.986801
C 3.041526 0.967843 3.997688
C 3.984951 1.014113 3.967711
C 4.964274 0.983832 3.992534
C 5.988599 0.980448 3.996172
C 6.999836 1.050944 3.980919
C 0.009451 2.031286 3.994615
C 0.978336 2.012109 3.994308
C 1.988398 1.989124 3.998888
C 2.963606 1.983244 3.992436
C 4.036403 2.018265 4.006882
C 4.986729 1.974406 3.989735
C 5.998563 1.998771 4.026319
C 6.989624 1.994310 4.028934
C 0.034256 2.985507 3.989523
C 1.045068 2.970955 4.000155
C 1.987043 3.014298 3.951765
C 3.004820 2.990004 4.022404
C 4.007756 3.024933 3.971861
C 5.034491 3.014850 4.043640
C 6.005808 3.006590 3.976744
C 6.981618 3.019197 3.998056
C 0.003515 3.986234 4.016603
C 1.020968 4.036223 4.019229
C 2.005329 4.015450 3.955543
C 3.016390 3.947958 3.977620
C 4.001357 4.049138 3.994511
C 4.959460 4.021481 3.996305
C 5.964913 4.009487 3.989049
C 6.950566 4.005174 4.010204
C 0.022567 5.023882 4.001591
C 0.989966 5.001516 4.020587
C 2.013051 5.012436 4.029922
C 2.980704 4.969757 4.001557
C 4.036289 5.000296 4.011556
C 5.004990 4.997234 3.975479
C 5.991708 4.984412 3.953634
C 6.981951 4.943500 3.968748
C 0.001237 5.984780 4.059958
C 1.056524 5.993202 4.000984
C 1.993427 6.029279 4.037441
C 3.021389 6.021196 4.024692
C 3.965168 6.004714 3.983908
C 5.041444 6.021330 4.021323
C 6.017577 6.006033 4.001403
C 6.989708 5.964834 4.009020
C 0.034530 6.977745 3.974494
C 0.997219 6.991478 4.063641
C 2.012337 6.960195 3.985076
C 2.988053 6.973880 4.002513
C 4.018807 6.992351 4.036250
C 5.017745 6.999140 4.015690
C 5.982048 6.995982 4.028120
C 6.997335 6.983402 3.959394
C 0.011114 0.038161 5.052130
C 0.958952 0.032557 4.963999
C 1.999610 0.016600 4.964439
C 2.955042 0.006692 4.956707
C 4.005252 0.024921 5.002283
C 5.041316 0.021145 5.028208
C 5.982847 0.054736 4.966387
C 6.971927 0.015867 5.046948
C 0.014939 0.967846 4.966214
C 1.043977 0.982804 4.994962
C 2.016933 0.976047 5.029423
C 3.019045 1.006759 5.030854
C 3.986787 0.983909 4.982088
C 4.975565 1.034499 5.007096
C 5.977716 0.965019 5.032168
C 6.977680 0.960217 4.992992
C 0.024174 2.025076 4.988139
C 1.011830 1.999232 5.004249
C 1.987092 2.027779 4.969808
C 3.019359 2.012897 5.018769
C 3.979346 1.961648 5.002180
C 5.023122 1.997905 5.032849
C 6.057940 1.976620 4.980916
C 6.982140 1.967318 5.041995
C 0.019641 2.979977 5.029445
C 1.039430 3.019723 5.005011
C 1.998709 2.985974 5.020775
C 2.999625 3.009224 5.052494
C 4.015668 3.021635 5.041490
C 4.968353 3.022695 5.008252
C 5.969254 2.979005 4.976816
C 6.970053 2.963032 4.983406
C 0.005688 4.011456 5.021319
C 1.024267 3.982472 5.015684
C 1.994647 4.014663 4.975137
C 2.995607 4.010995 4.947381
C 4.034895 3.994269 4.982043
C 4.985259 4.017168 5.024239
C 6.020796 4.014702 4.977788
C 6.982494 4.006657 4.979114
C 0.005250 4.978969 4.955998
C 0.964328 4.976489 5.028114
C 2.017277 4.984570 5.044218
C 3.021765 4.954351 4.998569
C 4.027707 5.016957 4.983158
C 4.970231 4.977525 5.033644
C 6.028035 4.985317 4.994301
C 6.993126 4.967894 5.001771
C 0.034700 5.970142 5.023785
C 0.995226 5.994922 5.050136
C 2.021981 5.997454 5.013856
C 3.003002 5.998614 5.037828
C 3.979683 6.015041 5.051470
C 4.986827 6.006947 4.998039
C 6.002179 5.976240 5.020435
C 6.991441 5.957598 5.000293
C 0.017575 6.958164 4.933256
C 1.001789 6.968725 5.021679
C 2.026229 6.983371 5.027476
C 2.981096 6.985367 5.044677
C 4.027282 6.972356 5.034255
C 5.032083 6.994113 4.977314
C 5.982155 6.998187 5.008439
C 6.939566 6.989032 5.028598
C 0.043487 0.027319 6.003887
C 0.997204 0.036293 5.960186
C 1.965284 0.011197 5.979334
C 2.998516 0.001145 5.954683
C 4.006925 0.011548 5.991499
C 4.955029 0.003607 5.953092
C 5.976988 0.004844 5.968341
C 6.949681 0.064059 6.072748
C 0.031533 1.025586 6.030399
C 0.988274 1.024138 6.011485
C 1.986361 0.978441 5.993927
C 2.980068 1.014074 5.977895
C 4.004503 1.033033 5.982563
C 4.981836 0.996532 6.044141
C 6.033115 0.983842 5.999775
C 6.997415 0.997774 5.974476
C 0.014704 2.028376 6.036155
C 0.979986 1.976871 6.049518
C 2.012540 1.988331 6.022581
C 3.028428 2.018090 5.991625
C 3.994967 2.028356 6.017206
C 5.053536 2.025542 6.004215
C 6.021693 1.977665 5.998108
C 6.977085 2.018096 6.033081
C 0.002991 2.981029 5.992414
C 1.045965 2.975276 6.032643
C 1.994741 2.977006 5.995045
C 2.986384 2.974039 6.034295
C 4.013333 2.974013 5.984738
C 4.991332 2.975860 5.964980
C 6.023640 2.983100 6.004593
C 6.976163 3.007428 5.983781
C 0.048219 4.021330 5.972428
C 1.020803 4.009746 5.971993
C 1.972564 4.013341 6.006077
C 3.002738 3.969646 5.990865
C 4.032330 4.001998 5.982639
C 5.013133 3.968474 6.007185
C 6.027330 4.039647 5.997294
C 6.987939 3.966746 5.955128
C 0.018837 5.020642 6.002536
C 1.010967 4.965790 6.023751
C 2.038412 4.985989 6.001102
C 3.016422 4.984642 5.998237
C 4.031118 4.977895 6.027275
C 5.024338 5.026585 5.961633
C 5.993733 4.986849 5.989685
C 6.997979 5.023754 5.990411
C 0.012742 6.030327 5.948887
C 1.046932 6.010732 6.009675
C 2.012415 6.008306 6.002405
C 2.964098 6.047546 6.007608
C 3.995539 6.021186 6.015708
C 4.997183 5.970700 5.993450
C 5.982844 6.026895 5.961470
C 6.974324 5.998337 5.970328
C 0.029557 6.984289 5.956547
C 1.053452 6.987743 6.008284
C 2.040644 6.996941 5.987572
C 2.966734 6.993874 6.047968
C 3.980095 6.979880 5.989207
C 4.975246 6.994812 5.948836
C 5.969060 6.988630 5.962089
C 6.983422 6.992405 6.001675
C 0.061159 0.053572 6.988926
C 1.023119 0.007317 6.941570
C 1.977920 0.027596 6.964841
C 3.002174 0.057307 6.998096
C 4.022245 0.057983 6.989216
C 5.008869 0.040855 6.942024
C 5.978616 0.051207 6.985697
C 6.978965 0.005999 6.994194
C 0.002537 0.955646 6.939279
C 0.968862 1.006400 6.986670
C 2.043381 0.967849 6.974951
C 3.030070 1.010370 6.995165
C 4.013466 1.057632 6.961347
C 4.975122 0.968816 6.998034
C 5.986880 1.048724 6.991171
C 6.947633 1.039416 6.978494
C 0.036740 1.960549 6.975412
C 1.025946 1.981014 6.991344
C 2.019353 2.025599 6.994197
C 3.035437 2.049013 6.984520
C 3.959162 1.991028 6.962005
C 4.999519 1.961537 6.992600
C 6.000012 2.019012 6.958688
C 6.979871 1.995248 6.995566
C 0.014511 2.934481 6.991919
C 0.986065 3.023108 6.964418
C 2.006017 3.004804 6.946789
C 3.018614 3.004523 6.978963
C 3.960926 3.047084 6.978748
C 5.019889 2.982906 6.993350
C 6.000937 2.980142 6.975098
C 6.969555 3.012083 6.966177
C 0.005150 4.012438 6.939829
C 1.015278 4.014468 6.970677
C 2.029208 3.949590 6.991337
C 2.976857 3.982584 6.988144
C 4.023375 3.974541 6.967766
C 5.011843 3.988826 6.959579
C 6.019132 3.939163 6.985551
C 6.958004 4.038211 6.999926
C 0.042138 4.977403 6.980161
C 0.998192 5.020346 6.951342
C 2.023428 5.027382 6.977104
C 3.022283 5.043922 6.996501
C 3.978477 5.010971 6.968707
C 4.977796 5.016839 6.974422
C 6.000801 5.021929 6.970976
C 6.970803 4.992834 6.988374
C 0.007163 6.016634 6.973305
C 1.042690 6.015605 6.986962
C 1.985606 5.974238 6.961623
C 3.039858 5.990870 6.968454
C 4.010792 6.014842 6.972202
C 4.974521 6.009937 6.974973
C 5.997642 6.019181 6.961716
C 6.955378 5.959912 6.995150
C 0.065512 6.957557 6.929351
C 0.991965 6.997854 6.980871
C 1.986275 6.995009 6.972923
C 2.988376 6.950024 6.993789
C 4.022368 6.993222 6.985256
C 5.039263 6.990871 6.977004
C 6.009758 6.980006 6.964957
C 6.983134 6.914863 6.992553
512
Frame 3/10
C 0.061366 0.039840 0.070791
C 0.995417 0.163384 0.137938
C 1.908181 0.064087 0.089245
C 3.014565 0.059167 0.011413
C 4.098025 0.048214 0.071644
C 5.075851 0.011474 0.117465
C 5.949767 0.037841 0.012009
C 6.989152 0.060675 0.073844
C 0.018584 1.127923 0.083230
C 1.003234 1.024278 0.019865
C 2.064872 1.059206 0.024217
C 2.996311 1.006034 0.101711
C 3.931962 0.932731 0.005457
C 5.061946 1.050476 0.013776
C 5.967830 0.995134 0.036090
C 6.917013 0.982535 0.109452
C 0.099637 2.039439 0.111033
C 1.037331 1.925931 0.095267
C 2.033197 1.979183 0.111015
C 3.118019 1.956828 0.056376
C 4.028471 2.083353 0.059395
C 4.948658 1.925421 0.000984
C 5.973721 2.042516 0.031994
C 6.964136 2.033017 0.043015
C 0.027796 2.929603 0.122774
C 0.949959 2.954561 0.009475
C 1.984685 3.016503 0.012804
C 2.956888 3.062489 0.004633
C 3.993772 3.077882 0.014970
C 5.011095 3.024878 0.017239
C 6.042449 3.063253 0.047440
C 6.984817 2.973654 0.001532
C 0.088471 3.944017 0.153713
C 1.024818 3.911818 0.093787
C 2.051551 4.053509 0.079597
C 2.957755 4.083224 0.042353
C 3.973213 3.990646 0.105062
C 4.884549 4.044476 0.029327
C 6.042818 4.043516 0.082770
C 6.933857 3.943562 0.042728
C 0.038959 4.972223 0.103949
C 0.937077 5.088379 0.041407
C 1.921812 5.073713 0.037301
C 3.079508 5.036307 0.030913
C 3.997277 4.942220 0.054300
C 4.925711 5.101041 0.047219
C 6.035719 5.079585 0.132924
C 6.994104 4.972525 0.069495
C 0.082277 5.977780 0.072554
C 0.989333 5.991672 0.041157
C 1.989828 5.969409 0.010545
C 3.112346 5.992024 0.003568
C 4.014407 5.920946 0.067317
C 4.913870 6.037506 0.014403
C 6.031334 6.008862 0.017633
C 6.944801 5.909794 0.149049
C 0.136727 6.880552 0.057408
C 1.094318 6.973677 0.010314
C 2.070135 6.883248 0.029548
C 3.004297 6.943574 0.012915
C 3.950506 6.917312 0.009042
C 5.055393 6.977107 0.009882
C 5.969607 6.943722 0.053835
C 6.989131 6.836127 0.082426
C 0.026980 0.031367 1.048377
C 1.024144 0.055171 1.051493
C 1.940886 0.024441 1.045290
C 3.061862 0.001638 0.952709
C 3.982319 0.018464 1.050530
C 4.987698 0.019359 1.056922
C 6.028640 0.005377 0.928258
C 6.873983 0.111989 1.001634
C 0.033949 0.959827 0.964318
C 0.969384 1.042740 1.014874
C 2.035452 1.070359 0.968003
C 3.014677 1.059972 1.089162
C 3.975502 1.022266 1.028488
C 5.077173 0.992733 0.939147
C 5.973855 0.928150 0.957775
C 6.985828 1.092640 0.994024
C 0.038819 2.030528 1.042269
C 1.015612 2.046225 0.965171
C 2.009982 1.985680 1.100724
C 3.043610 2.040460 0.947069
C 3.982890 2.025884 0.973805
C 4.998531 2.003278 1.053218
C 5.949808 2.020064 0.995566
C 6.981548 2.037745 0.962245
C 0.020593 3.050884 0.983122
C 0.975647 2.947584 1.052402
C 1.972772 2.994958 1.055091
C 2.982148 2.965570 0.963483
C 4.023559 2.986859 1.067255
C 5.001442 3.045673 0.931192
C 5.946112 2.977540 0.980383
C 6.919300 2.972662 1.043894
C 0.007429 4.108790 1.045055
C 0.931042 4.020457 1.053198
C 2.010642 4.063047 1.009385
C 3.004794 4.037680 1.047400
C 4.021030 3.998670 1.034509
C 4.988849 4.050298 0.936127
C 6.080440 3.974526 1.012061
C 6.989897 3.932299 1.051593
C 0.097859 5.010489 1.052096
C 0.996577 5.060361 0.948548
C 2.005974 5.066216 0.921419
C 3.052641 4.964363 1.046953
C 3.988638 4.965946 0.971861
C 5.081946 5.029920 0.981010
C 5.987426 4.938493 1.024371
C 6.991228 4.901945 1.022569
C 0.022223 6.060669 1.064057
C 0.919954 6.032241 0.974371
C 1.959459 5.974729 0.983771
C 2.955653 5.994998 1.057730
C 3.906260 6.047768 1.064911
C 4.973370 5.965228 1.107186
C 6.031055 5.988740 1.014842
C 6.961257 6.058038 0.992226
C 0.018435 6.907175 0.906970
C 0.988503 6.998881 1.061879
C 1.950234 6.990419 0.895986
C 3.111420 6.980377 0.966952
C 4.009759 6.927698 0.938273
C 5.039469 6.997905 0.985377
C 6.050283 6.968850 0.952478
C 6.993177 6.977220 0.966237
C 0.006741 0.020546 2.001011
C 1.000993 0.009714 2.069682
C 2.076002 0.010003 2.031917
C 3.008031 0.047856 1.958287
C 4.016710 0.030135 2.054588
C 4.970195 0.077896 1.973692
C 6.022779 0.051753 2.015479
C 6.974831 0.075468 2.095757
C 0.049767 0.952903 1.984025
C 1.021737 0.991623 1.983614
C 1.956944 1.071944 2.067946
C 3.041587 1.010466 2.082287
C 4.039987 1.045636 2.017092
C 5.006428 1.049336 2.024473
C 5.923461 1.037526 1.957933
C 6.979272 1.000151 1.938984
C 0.071372 1.973118 2.019010
C 1.043014 1.907657 2.017372
C 1.992325 1.983000 2.099674
C 2.930010 2.019012 1.933803
C 3.934353 2.055050 2.021528
C 4.929706 1.954381 2.015894
C 6.013084 1.933468 1.945826
C 6.996045 1.998750 2.037197
C 0.036562 2.887402 1.955194
C 1.076897 2.944541 1.999897
C 1.994926 2.944292 1.995869
C 2.938944 2.934545 1.999688
C 3.935287 2.964319 1.965354
C 4.907738 3.025379 2.014009
C 5.976592 3.008747 2.012621
C 6.920870 2.986032 1.980347
C 0.050272 4.045736 1.942337
C 1.055169 3.985966 1.922431
C 1.959365 3.918815 1.970037
C 3.038790 4.030529 2.056851
C 4.060191 3.991827 2.038624
C 4.974619 3.947001 1.935296
C 6.009398 3.943192 1.941697
C 6.936192 3.929900 2.005774
C 0.014371 4.981125 1.934703
C 0.982032 4.977126 2.062003
C 1.979421 5.089202 2.003632
C 2.990067 5.048838 2.034021
C 3.967217 5.004683 2.063558
C 5.040623 5.065573 2.008212
C 5.956463 5.020163 1.906811
C 6.918707 4.945566 1.969894
C 0.035160 5.961072 2.034447
C 1.056722 5.967099 1.917551
C 1.901455 6.084473 1.988918
C 2.957919 6.022195 1.988165
C 3.926582 6.025714 1.991576
C 4.967852 6.029875 2.094482
C 5.952268 5.981387 2.028449
C 6.983007 6.039346 2.002857
C 0.067299 6.977087 1.922555
C 1.078833 6.994413 2.067010
C 2.010402 6.952591 1.907682
C 3.040383 6.954341 1.994676
C 4.015239 6.993093 1.922964
C 4.950378 6.943313 2.036425
C 6.004848 6.996526 2.039515
C 6.986030 6.991482 1.980231
C 0.019743 0.103179 3.022652
C 0.931659 0.028482 3.004636
C 1.942879 0.095215 2.898539
C 2.945862 0.012008 3.042776
C 3.937523 0.004543 2.984019
C 5.026226 0.047534 3.000553
C 6.051520 0.043010 2.982373
C 6.933733 0.025059 3.082375
C 0.010553 1.070320 2.858016
C 1.038059 0.928530 2.966489
C 2.042461 0.956504 2.963411
C 3.021655 0.905393 3.017515
C 4.040055 0.930133 2.952648
C 4.977041 0.968831 2.937391
C 6.011721 0.996399 3.062485
C 6.988948 1.058104 3.003846
C 0.010618 1.984042 3.050902
C 0.979893 2.076586 2.986209
C 2.019962 1.946249 3.020600
C 3.053290 1.994249 2.955278
C 4.054980 2.008056 3.073377
C 5.063440 2.005270 2.973438
C 6.049689 1.943786 2.927307
C 6.976232 1.968795 2.951476
C 0.040324 2.981697 2.976037
C 0.988218 2.973509 3.093184
C 1.993396 2.972045 2.914276
C 2.900302 2.969153 3.020647
C 4.058751 2.997840 2.970141
C 4.977513 3.014258 2.954411
C 5.961513 2.980650 2.923114
C 6.972375 2.981385 2.956832
C 0.005550 3.961599 3.082266
C 1.026076 3.939083 2.933154
C 2.020575 4.058766 2.994573
C 3.002773 3.984637 3.061174
C 3.971203 3.993029 2.960405
C 4.947461 4.040286 2.922195
C 6.027351 3.969405 2.929095
C 6.945024 3.923356 2.975985
C 0.020011 4.974196 3.074493
C 0.917845 5.021459 2.986770
C 2.064835 5.015012 2.938369
C 2.963380 5.004527 3.001305
C 4.043945 5.014656 2.970894
C 4.992062 5.058547 2.997179
C 5.934923 4.967979 3.003560
C 6.947816 5.027105 3.070018
C 0.039478 6.026385 2.978384
C 1.014578 6.006093 2.972209
C 2.034809 6.023256 3.001976
C 2.979428 5.980758 2.957193
C 4.104912 6.021794 3.026238
C 5.051723 6.005095 3.057394
C 6.008105 6.035937 2.995072
C 6.964232 5.931438 3.023750
C 0.084124 6.968909 2.926431
C 0.944213 6.957881 3.055252
C 2.110215 6.985329 2.935202
C 2.934819 6.962793 3.085345
C 4.024926 6.986381 2.992942
C 4.999332 6.935370 2.971025
C 5.938514 6.929465 2.959119
C 6.994116 6.929737 2.968601
C 0.022850 0.126891 4.005097
C 1.032010 0.009796 3.970823
C 2.040146 0.026644 4.016851
C 3.100054 0.004022 4.002679
C 4.081795 0.008410 4.028459
C 5.026689 0.021909 4.117535
C 6.051673 0.058782 4.051578
C 6.952107 0.131237 4.042317
C 0.013776 1.019433 3.922587
C 1.001824 0.964918 4.077452
C 1.968588 1.045466 3.973602
C 3.083052 0.935687 3.995376
C 3.969903 1.028227 3.935423
C 4.928548 0.967664 3.985067
C 5.977199 0.960896 3.992345
C 6.999672 1.101888 3.961838
C 0.018902 2.062571 3.989230
C 0.956671 2.024219 3.988615
C 1.976796 1.978248 3.997776
C 2.927212 1.966488 3.984872
C 4.072806 2.036530 4.013764
C 4.973458 1.948812 3.979471
C 5.997125 1.997543 4.052639
C 6.979248 1.988620 4.057868
C 0.068513 2.971014 3.979046
C 1.090135 2.941911 4.000310
C 1.974085 3.028597 3.903530
C 3.009640 2.980008 4.044809
C 4.015511 3.049865 3.943723
C 5.068982 3.029700 4.087280
C 6.011616 3.013181 3.953487
C 6.963236 3.038393 3.996112
C 0.007029 3.972468 4.033206
C 1.041935 4.072446 4.038457
C 2.010658 4.030900 3.911087
C 3.032779 3.895916 3.955241
C 4.002715 4.098276 3.989021
C 4.918920 4.042962 3.992611
C 5.929827 4.018974 3.978098
C 6.901132 4.010349 4.020409
C 0.045135 5.047764 4.003183
C 0.979933 5.003031 4.041174
C 2.026101 5.024872 4.059844
C 2.961407 4.939515 4.003114
C 4.072577 5.000593 4.023113
C 5.009979 4.994467 3.950958
C 5.983415 4.968825 3.907267
C 6.963902 4.887000 3.937497
C 0.002474 5.969561 4.119916
C 1.113048 5.986405 4.001968
C 1.986855 6.058558 4.074883
C 3.042778 6.042392 4.049384
C 3.930336 6.009429 3.967816
C 5.082888 6.042660 4.042646
C 6.035154 6.012066 4.002805
C 6.979415 5.929668 4.018039
C 0.069061 6.955491 3.948988
C 0.994438 6.982956 4.127283
C 2.024673 6.920390 3.970153
C 2.976107 6.947760 4.005025
C 4.037614 6.984702 4.072499
C 5.035490 6.998280 4.031379
C 5.964096 6.991965 4.056239
C 6.994670 6.966804 3.918788
C 0.022228 0.076322 5.104259
C 0.917903 0.065114 4.927999
C 1.999220 0.033199 4.928877
C 2.910083 0.013384 4.913413
C 4.010504 0.049841 5.004566
C 5.082632 0.042290 5.056415
C 5.965694 0.109473 4.932774
C 6.943854 0.031735 5.093897
C 0.029878 0.935693 4.932427
C 1.087954 0.965609 4.989924
C 2.033866 0.952093 5.058847
C 3.038089 1.013517 5.061709
C 3.973574 0.967819 4.964176
C 4.951131 1.068997 5.014192
C 5.955431 0.930039 5.064335
C 6.955359 0.920433 4.985985
C 0.048349 2.050152 4.976278
C 1.023660 1.998463 5.008498
C 1.974184 2.055559 4.939615
C 3.038717 2.025795 5.037537
C 3.958691 1.923295 5.004361
C 5.046245 1.995809 5.065698
C 6.115880 1.953240 4.961831
C 6.964280 1.934636 5.083989
C 0.039283 2.959955 5.058891
C 1.078860 3.039446 5.010022
C 1.997418 2.971948 5.041551
C 2.999250 3.018449 5.104988
C 4.031336 3.043270 5.082980
C 4.936705 3.045390 5.016503
C 5.938508 2.958010 4.953633
C 6.940106 2.926063 4.966812
C 0.011375 4.022912 5.042638
C 1.048534 3.964945 5.031369
C 1.989294 4.029326 4.950275
C 2.991215 4.021989 4.894762
C 4.069789 3.988538 4.964086
C 4.970519 4.034335 5.048478
C 6.041592 4.029404 4.955576
C 6.964988 4.013314 4.958227
C 0.010500 4.957937 4.911996
C 0.928657 4.952978 5.056228
C 2.034555 4.969140 5.088435
C 3.043530 4.908702 4.997138
C 4.055414 5.033915 4.966316
C 4.940461 4.955050 5.067287
C 6.056069 4.970634 4.988603
C 6.986252 4.935789 5.003542
C 0.069400 5.940284 5.047570
C 0.990452 5.989844 5.100271
C 2.043962 5.994908 5.027711
C 3.006005 5.997227 5.075656
C 3.959367 6.030082 5.102940
C 4.973655 6.013893 4.996077
C 6.004357 5.952480 5.040869
C 6.982883 5.915195 5.000586
C 0.035150 6.916329 4.866511
C 1.003579 6.937450 5.043358
C 2.052457 6.966741 5.054953
C 2.962193 6.970735 5.089355
C 4.054565 6.944711 5.068511
C 5.064166 6.988226 4.954628
C 5.964310 6.996375 5.016877
C 6.879133 6.978064 5.057195
C 0.086974 0.054638 6.007774
C 0.994407 0.072586 5.920371
C 1.930569 0.022395 5.958667
C 2.997032 0.002290 5.909367
C 4.013850 0.023097 5.982998
C 4.910057 0.007214 5.906183
C 5.953976 0.009687 5.936682
C 6.899362 0.128118 6.145496
C 0.063066 1.051172 6.060798
C 0.976548 1.048277 6.022970
C 1.972722 0.956882 5.987855
C 2.960136 1.028148 5.955791
C 4.009006 1.066066 5.965126
C 4.963671 0.993064 6.088281
C 6.066230 0.967684 5.999550
C 6.994829 0.995548 5.948953
C 0.029409 2.056752 6.072310
C 0.959971 1.953743 6.099035
C 2.025080 1.976663 6.045162
C 3.056856 2.036181 5.983250
C 3.989934 2.056712 6.034413
C 5.107072 2.051084 6.008430
C 6.043386 1.955330 5.996216
C 6.954170 2.036192 6.066163
C 0.005982 2.962059 5.984827
C 1.091931 2.950551 6.065287
C 1.989483 2.954013 5.990091
C 2.972768 2.948079 6.068589
C 4.026666 2.948026 5.969476
C 4.982664 2.951719 5.929959
C 6.047280 2.966199 6.009187
C 6.952326 3.014856 5.967563
C 0.096438 4.042659 5.944856
C 1.041606 4.019492 5.943987
C 1.945128 4.026683 6.012155
C 3.005475 3.939291 5.981730
C 4.064660 4.003996 5.965277
C 5.026266 3.936949 6.014370
C 6.054659 4.079294 5.994589
C 6.975878 3.933493 5.910256
C 0.037674 5.041285 6.005071
C 1.021933 4.931581 6.047502
C 2.076824 4.971977 6.002204
C 3.032844 4.969284 5.996475
C 4.062236 4.955790 6.054550
C 5.048676 5.053169 5.923266
C 5.987466 4.973697 5.979371
C 6.995959 5.047508 5.980822
C 0.025484 6.060655 5.897773
C 1.093864 6.021465 6.019349
C 2.024831 6.016613 6.004809
C 2.928196 6.095093 6.015216
C 3.991078 6.042372 6.031416
C 4.994366 5.941400 5.986900
C 5.965689 6.053790 5.922939
C 6.948648 5.996674 5.940656
C 0.059115 6.968578 5.913093
C 1.106903 6.975487 6.016568
C 2.081288 6.993881 5.975144
C 2.933468 6.987749 6.095935
C 3.960190 6.959760 5.978415
C 4.950493 6.989625 5.897673
C 5.938120 6.977260 5.924179
C 6.966845 6.984811 6.003351
C 0.122318 0.107143 6.977853
C 1.046238 0.014633 6.883139
C 1.955841 0.055191 6.929682
C 3.004348 0.114615 6.996192
C 4.044489 0.115965 6.978433
C 5.017738 0.081710 6.884048
C 5.957233 0.102414 6.971394
C 6.957931 0.011997 6.988388
C 0.005074 0.911292 6.878558
C 0.937723 1.012801 6.973340
C 2.086761 0.935697 6.949903
C 3.060140 1.020739 6.990329
C 4.026931 1.115263 6.922694
C 4.950245 0.937632 6.996069
C 5.973761 1.097447 6.982342
C 6.895266 1.078833 6.956988
C 0.073480 1.921098 6.950824
C 1.051891 1.962028 6.982688
C 2.038705 2.051198 6.988394
C 3.070874 2.098026 6.969039
C 3.918324 1.982056 6.924009
C 4.999037 1.923074 6.985200
C 6.000023 2.038024 6.917377
C 6.959742 1.990497 6.991131
C 0.029023 2.868963 6.983838
C 0.972131 3.046217 6.928836
C 2.012033 3.009609 6.893578
C 3.037228 3.009046 6.957925
C 3.921851 3.094168 6.957497
C 5.039778 2.965813 6.986700
C 6.001875 2.960285 6.950196
C 6.939110 3.024165 6.932354
C 0.010301 4.024876 6.879657
C 1.030556 4.028936 6.941354
C 2.058416 3.899181 6.982675
C 2.953713 3.965168 6.976288
C 4.046749 3.949083 6.935531
C 5.023687 3.977653 6.919158
C 6.038264 3.878327 6.971101
C 6.916009 4.076422 6.999851
C 0.084276 4.954807 6.960322
C 0.996384 5.040692 6.902684
C 2.046856 5.054764 6.954208
C 3.044565 5.087845 6.993002
C 3.956953 5.021942 6.937414
C 4.955592 5.033677 6.948844
C 6.001603 5.043858 6.941951
C 6.941607 4.985667 6.976749
C 0.014326 6.033267 6.946611
C 1.085380 6.031210 6.973924
C 1.971212 5.948476 6.923246
C 3.079715 5.981739 6.936907
C 4.021583 6.029685 6.944404
C 4.949043 6.019874 6.949945
C 5.995283 6.038362 6.923431
C 6.910755 5.919825 6.990300
C 0.131024 6.915115 6.858702
C 0.983931 6.995708 6.961742
C 1.972550 6.990018 6.945845
C 2.976752 6.900048 6.987577
C 4.044736 6.986444 6.970511
C 5.078525 6.981743 6.954008
C 6.019515 6.960011 6.929914
C 6.966268 6.829727 6.985106
512
Frame 4/10
C 0.092049 0.059760 0.106187
C 0.993126 0.245077 0.206907
C 1.862272 0.096131 0.133867
C 3.021847 0.088750 0.017120
C 4.147037 0.072321 0.107466
C 5.113777 0.017211 0.176197
C 5.924650 0.056761 0.018014
C 6.983728 0.091012 0.110766
C 0.027875 1.191885 0.124845
C 1.004850 1.036417 0.029798
C 2.097308 1.088810 0.036325
C 2.994466 1.009051 0.152567
C 3.897943 0.899097 0.008185
C 5.092919 1.075714 0.020664
C 5.951745 0.992700 0.054135
C 6.875519 0.973802 0.164179
C 0.149456 2.059158 0.166549
C 1.055996 1.888896 0.142900
C 2.049796 1.968774 0.166522
C 3.177028 1.935241 0.084564
C 4.042706 2.125029 0.089092
C 4.922986 1.888132 0.001475
C 5.960581 2.063774 0.047991
C 6.946205 2.049525 0.064523
C 0.041694 2.894404 0.184162
C 0.924939 2.931841 0.014213
C 1.977027 3.024755 0.019206
C 2.935332 3.093734 0.006949
C 3.990658 3.116824 0.022455
C 5.016643 3.037317 0.025859
C 6.063673 3.094880 0.071161
C 6.977225 2.960481 0.002298
C 0.132706 3.916025 0.230570
C 1.037227 3.867727 0.140681
C 2.077327 4.080264 0.119395
C 2.936632 4.124836 0.063530
C 3.959819 3.985969 0.157593
C 4.826823 4.066713 0.043991
C 6.064226 4.065274 0.124155
C 6.900786 3.915343 0.064091
C 0.058438 4.958334 0.155923
C 0.905616 5.132568 0.062110
C 1.882718 5.110569 0.055951
C 3.119262 5.054461 0.046369
C 3.995915 4.913330 0.081450
C 4.888567 5.151562 0.070829
C 6.053579 5.119378 0.199386
C 6.991156 4.958788 0.104242
C 0.123416 5.966670 0.108830
C 0.984000 5.987508 0.061736
C 1.984742 5.954113 0.015817
C 3.168519 5.988036 0.005352
C 4.021611 5.881419 0.100975
C 4.870805 6.056259 0.021605
C 6.047001 6.013293 0.026450
C 6.917201 5.864691 0.223573
C 0.205090 6.820828 0.086112
C 1.141477 6.960515 0.015471
C 2.105203 6.824872 0.044322
C 3.006446 6.915361 0.019372
C 3.925759 6.875969 0.013563
C 5.083089 6.965661 0.014822
C 5.954411 6.915583 0.080753
C 6.983696 6.754190 0.123639
C 0.040470 0.047051 1.072566
C 1.036215 0.082756 1.077239
C 1.911329 0.036662 1.067935
C 3.092794 0.002457 0.929064
C 3.973479 0.027697 1.075795
C 4.981547 0.029039 1.085384
C 6.042960 0.008065 0.892387
C 6.810975 0.167983 1.002451
C 0.050923 0.939740 0.946477
C 0.954076 1.064110 1.022311
C 2.053177 1.105539 0.952005
C 3.022016 1.089958 1.133744
C 3.963253 1.033399 1.042732
C 5.115759 0.989099 0.908721
C 5.960782 0.892226 0.936662
C 6.978743 1.138960 0.991036
C 0.058228 2.045792 1.063403
C 1.023418 2.069337 0.947756
C 2.014972 1.978520 1.151086
C 3.065414 2.060690 0.920604
C 3.974336 2.038826 0.960707
C 4.997796 2.004917 1.079827
C 5.924711 2.030096 0.993349
C 6.972322 2.056618 0.943368
C 0.030890 3.076326 0.974683
C 0.963470 2.921376 1.078604
C 1.959158 2.992437 1.082637
C 2.973221 2.948355 0.945224
C 4.035338 2.980289 1.100882
C 5.002163 3.068509 0.896787
C 5.919167 2.966309 0.970575
C 6.878950 2.958993 1.065841
C 0.011144 4.163184 1.067583
C 0.896563 4.030686 1.079797
C 2.015963 4.094571 1.014078
C 3.007190 4.056520 1.071100
C 4.031545 3.998005 1.051763
C 4.983274 4.075447 0.904191
C 6.120660 3.961789 1.018092
C 6.984846 3.898449 1.077390
C 0.146788 5.015734 1.078144
C 0.994865 5.090541 0.922822
C 2.008961 5.099324 0.882129
C 3.078962 4.946545 1.070429
C 3.982956 4.948918 0.957791
C 5.122919 5.044880 0.971515
C 5.981140 4.907740 1.036556
C 6.986842 4.852917 1.033853
C 0.033334 6.091004 1.096085
C 0.879931 6.048361 0.961557
C 1.939188 5.962094 0.975656
C 2.933480 5.992497 1.086595
C 3.859390 6.071653 1.097366
C 4.960055 5.947842 1.160779
C 6.046582 5.983110 1.022263
C 6.941885 6.087056 0.988340
C 0.027652 6.860762 0.860455
C 0.982755 6.998322 1.092819
C 1.925352 6.985629 0.843978
C 3.167130 6.970565 0.950428
C 4.014639 6.891546 0.907410
C 5.059203 6.996858 0.978065
C 6.075424 6.953275 0.928717
C 6.989765 6.965830 0.949356
C 0.010111 0.030819 2.001516
C 1.001489 0.014572 2.104522
C 2.114003 0.015005 2.047876
C 3.012046 0.071784 1.937431
C 4.025065 0.045202 2.081882
C 4.955292 0.116844 1.960538
C 6.034169 0.077629 2.023218
C 6.962247 0.113202 2.143636
C 0.074650 0.929354 1.976037
C 1.032606 0.987435 1.975421
C 1.935415 1.107916 2.101918
C 3.062380 1.015699 2.123430
C 4.059981 1.068454 2.025637
C 5.009643 1.074005 2.036710
C 5.885192 1.056289 1.936899
C 6.968908 1.000227 1.908477
C 0.107058 1.959677 2.028515
C 1.064521 1.861486 2.026057
C 1.988487 1.974501 2.149510
C 2.895015 2.028518 1.900704
C 3.901529 2.082575 2.032293
C 4.894559 1.931571 2.023841
C 6.019626 1.900202 1.918739
C 6.994068 1.998126 2.055795
C 0.054843 2.831103 1.932790
C 1.115346 2.916811 1.999846
C 1.992389 2.916437 1.993804
C 2.908415 2.901818 1.999532
C 3.902930 2.946478 1.948031
C 4.861606 3.038069 2.021014
C 5.964887 3.013120 2.018931
C 6.881305 2.979049 1.970521
C 0.075409 4.068604 1.913506
C 1.082754 3.978949 1.883646
C 1.939048 3.878223 1.955056
C 3.058186 4.045793 2.085277
C 4.090286 3.987740 2.057937
C 4.961929 3.920501 1.902943
C 6.014097 3.914788 1.912546
C 6.904288 3.894851 2.008662
C 0.021556 4.971687 1.902055
C 0.973048 4.965689 2.093005
C 1.969131 5.133802 2.005448
C 2.985101 5.073257 2.051032
C 3.950826 5.007025 2.095338
C 5.060934 5.098359 2.012318
C 5.934694 5.030244 1.860216
C 6.878061 4.918349 1.954841
C 0.052740 5.941608 2.051670
C 1.085084 5.950649 1.876326
C 1.852183 6.126710 1.983378
C 2.936878 6.033293 1.982248
C 3.889874 6.038571 1.987363
C 4.951779 6.044813 2.141723
C 5.928402 5.972081 2.042673
C 6.974511 6.059019 2.004286
C 0.100949 6.965630 1.883832
C 1.118250 6.991619 2.100515
C 2.015603 6.928887 1.861523
C 3.060575 6.931512 1.992015
C 4.022858 6.989640 1.884446
C 4.925568 6.914970 2.054637
C 6.007272 6.994789 2.059272
C 6.979045 6.987224 1.970346
C 0.029614 0.154768 3.033978
C 0.897488 0.042722 3.006954
C 1.914319 0.142823 2.847808
C 2.918793 0.018012 3.064164
C 3.906285 0.006814 2.976028
C 5.039338 0.071301 3.000830
C 6.077280 0.064516 2.973560
C 6.900600 0.037589 3.123563
C 0.015830 1.105480 2.787025
C 1.057089 0.892795 2.949734
C 2.063691 0.934755 2.945117
C 3.032483 0.858089 3.026273
C 4.060082 0.895199 2.928972
C 4.965562 0.953247 2.906087
C 6.017581 0.994599 3.093728
C 6.983422 1.087156 3.005769
C 0.015927 1.976064 3.076353
C 0.969839 2.114879 2.979314
C 2.029943 1.919374 3.030900
C 3.079935 1.991373 2.932917
C 4.082471 2.012084 3.110066
C 5.095161 2.007905 2.960158
C 6.074534 1.915679 2.890960
C 6.964347 1.953193 2.927214
C 0.060485 2.972546 2.964056
C 0.982328 2.960263 3.139776
C 1.990094 2.958068 2.871414
C 2.850453 2.953730 3.030970
C 4.088126 2.996760 2.955212
C 4.966270 3.021386 2.931617
C 5.942270 2.970974 2.884671
C 6.958562 2.972077 2.935248
C 0.008325 3.942398 3.123399
C 1.039114 3.908624 2.899731
C 2.030863 4.088149 2.991860
C 3.004159 3.976956 3.091760
C 3.956805 3.989543 2.940607
C 4.921192 4.060428 2.883293
C 6.041026 3.954107 2.893643
C 6.917536 3.885034 2.963977
C 0.030017 4.961294 3.111739
C 0.876768 5.032188 2.980154
C 2.097253 5.022518 2.907554
C 2.945070 5.006790 3.001958
C 4.065917 5.021984 2.956342
C 4.988093 5.087821 2.995768
C 5.902385 4.951969 3.005341
C 6.921725 5.040657 3.105027
C 0.059216 6.039578 2.967576
C 1.021867 6.009140 2.958314
C 2.052213 6.034884 3.002965
C 2.969142 5.971137 2.935790
C 4.157368 6.032692 3.039357
C 5.077585 6.007642 3.086091
C 6.012157 6.053906 2.992608
C 6.946349 5.897157 3.035625
C 0.126186 6.953363 2.889647
C 0.916320 6.936822 3.082878
C 2.165323 6.977994 2.902802
C 2.902229 6.944190 3.128018
C 4.037390 6.979572 2.989413
C 4.998998 6.903055 2.956537
C 5.907771 6.894198 2.938679
C 6.991174 6.894605 2.952901
C 0.034275 0.190337 4.007645
C 1.048015 0.014694 3.956235
C 2.060220 0.039966 4.025276
C 3.150081 0.006033 4.004019
C 4.122692 0.012614 4.042688
C 5.040033 0.032863 4.176302
C 6.077510 0.088174 4.077367
C 6.928161 0.196855 4.063475
C 0.020664 1.029149 3.883881
C 1.002736 0.947377 4.116178
C 1.952882 1.068199 3.960403
C 3.124577 0.903530 3.993063
C 3.954854 1.042340 3.903134
C 4.892823 0.951497 3.977601
C 5.965798 0.941344 3.988517
C 6.999508 1.152832 3.942757
C 0.028353 2.093857 3.983845
C 0.935007 2.036328 3.982923
C 1.965194 1.967372 3.996665
C 2.890818 1.949732 3.977308
C 4.109209 2.054795 4.020645
C 4.960187 1.923219 3.969206
C 5.995688 1.996314 4.078958
C 6.968871 1.982930 4.086802
C 0.102769 2.956520 3.968568
C 1.135203 2.912866 4.000464
C 1.961128 3.042895 3.855296
C 3.014460 2.970012 4.067213
C 4.023267 3.074798 3.915584
C 5.103473 3.044551 4.130920
C 6.017424 3.019771 3.930231
C 6.944854 3.057590 3.994167
C 0.010544 3.958702 4.049809
C 1.062903 4.108670 4.057686
C 2.015987 4.046349 3.866630
C 3.049169 3.843874 3.932861
C 4.004072 4.147414 3.983532
C 4.878380 4.064443 3.988916
C 5.894740 4.028462 3.967146
C 6.851698 4.015523 4.030613
C 0.067702 5.071646 4.004774
C 0.969899 5.004547 4.061761
C 2.039152 5.037308 4.089766
C 2.942111 4.909272 4.004670
C 4.108866 5.000889 4.034669
C 5.014969 4.991701 3.926437
C 5.975123 4.953237 3.860901
C 6.945853 4.830500 3.906245
C 0.003711 5.954341 4.179873
C 1.169572 5.979607 4.002952
C 1.980282 6.087837 4.112324
C 3.064167 6.063588 4.074076
C 3.895505 6.014143 3.951724
C 5.124331 6.063989 4.063970
C 6.052730 6.018099 4.004208
C 6.969123 5.894502 4.027059
C 0.103591 6.933236 3.923482
C 0.991657 6.974434 4.190924
C 2.037010 6.880585 3.955229
C 2.964160 6.921640 4.007538
C 4.056421 6.977053 4.108749
C 5.053235 6.997420 4.047069
C 5.946143 6.987947 4.084359
C 6.992004 6.950206 3.878182
C 0.033343 0.114483 5.156389
C 0.876855 0.097671 4.891998
C 1.998829 0.049799 4.893316
C 2.865125 0.020076 4.870120
C 4.015756 0.074762 5.006849
C 5.123948 0.063434 5.084623
C 5.948541 0.164209 4.899161
C 6.915781 0.047602 5.140845
C 0.044817 0.903539 4.898641
C 1.131931 0.948413 4.984885
C 2.050799 0.928140 5.088270
C 3.057134 1.020276 5.092563
C 3.960360 0.951728 4.946264
C 4.926696 1.103496 5.021288
C 5.933147 0.895058 5.096503
C 6.933039 0.880650 4.978977
C 0.072523 2.075228 4.964418
C 1.035490 1.997695 5.012746
C 1.961276 2.083338 4.909423
C 3.058076 2.038692 5.056306
C 3.938037 1.884943 5.006541
C 5.069367 1.993714 5.098547
C 6.173820 1.929860 4.942747
C 6.946420 1.901954 5.125984
C 0.058924 2.939932 5.088336
C 1.118291 3.059169 5.015033
C 1.996128 2.957921 5.062326
C 2.998875 3.027673 5.157482
C 4.047003 3.064904 5.124470
C 4.905058 3.068086 5.024755
C 5.907762 2.937015 4.930449
C 6.910159 2.889095 4.950218
C 0.017063 4.034368 5.063957
C 1.072801 3.947417 5.047053
C 1.983941 4.043989 4.925412
C 2.986822 4.032984 4.842143
C 4.104684 3.982807 4.946130
C 4.955778 4.051503 5.072718
C 6.062389 4.044106 4.933364
C 6.947482 4.019970 4.937341
C 0.015751 4.936906 4.867994
C 0.892985 4.929467 5.084343
C 2.051832 4.953710 5.132653
C 3.065295 4.863053 4.995706
C 4.083121 5.050872 4.949474
C 4.910692 4.932575 5.100931
C 6.084104 4.955951 4.982904
C 6.979378 4.903683 5.005313
C 0.104100 5.910426 5.071355
C 0.985677 5.984766 5.150407
C 2.065943 5.992362 5.041567
C 3.009007 5.995841 5.113484
C 3.939050 6.045123 5.154410
C 4.960482 6.020840 4.994116
C 6.006536 5.928720 5.061304
C 6.974324 5.872793 5.000879
C 0.052725 6.874493 4.799767
C 1.005368 6.906176 5.065037
C 2.078686 6.950112 5.082429
C 2.943289 6.956102 5.134032
C 4.081847 6.917067 5.102766
C 5.096249 6.982339 4.931942
C 5.946465 6.994562 5.025316
C 6.818699 6.967096 5.085793
C 0.130460 0.081957 6.011660
C 0.991611 0.108879 5.880557
C 1.895853 0.033592 5.938001
C 2.995549 0.003436 5.864050
C 4.020775 0.034645 5.974498
C 4.865086 0.010820 5.859275
C 5.930964 0.014531 5.905023
C 6.849043 0.192177 6.218245
C 0.094599 1.076758 6.091196
C 0.964823 1.072415 6.034454
C 1.959083 0.935323 5.981782
C 2.940204 1.042222 5.933686
C 4.013510 1.099098 5.947689
C 4.945507 0.989595 6.132422
C 6.099345 0.951526 5.999326
C 6.992244 0.993323 5.923429
C 0.044113 2.085128 6.108465
C 0.939957 1.930614 6.148553
C 2.037620 1.964994 6.067743
C 3.085284 2.054271 5.974875
C 3.984901 2.085068 6.051619
C 5.160608 2.076625 6.012645
C 6.065079 1.932995 5.994323
C 6.931254 2.054288 6.099244
C 0.008972 2.943088 5.977241
C 1.137896 2.925827 6.097930
C 1.984224 2.931019 5.985136
C 2.959152 2.922118 6.102884
C 4.039999 2.922039 5.954214
C 4.973996 2.927579 5.894939
C 6.070921 2.949299 6.013780
C 6.928490 3.022284 5.951344
C 0.144657 4.063989 5.917283
C 1.062409 4.029238 5.915980
C 1.917692 4.040024 6.018232
C 3.008213 3.908937 5.972595
C 4.096990 4.005993 5.947916
C 5.039399 3.905423 6.021555
C 6.081989 4.118940 5.991883
C 6.963817 3.900239 5.865383
C 0.056511 5.061927 6.007607
C 1.032900 4.897371 6.071253
C 2.115236 4.957966 6.003307
C 3.049266 4.953926 5.994712
C 4.093353 4.933685 6.081825
C 5.073013 5.079754 5.884899
C 5.981200 4.960546 5.969056
C 6.993938 5.071261 5.971233
C 0.038225 6.090982 5.846660
C 1.140796 6.032197 6.029024
C 2.037246 6.024919 6.007214
C 2.892293 6.142639 6.022824
C 3.986618 6.063558 6.047124
C 4.991548 5.912100 5.980350
C 5.948533 6.080685 5.884409
C 6.922972 5.995011 5.910985
C 0.088672 6.952867 5.869640
C 1.160355 6.963230 6.024852
C 2.121931 6.990822 5.962716
C 2.900202 6.981623 6.143903
C 3.940286 6.939640 5.967622
C 4.925739 6.984437 5.846509
C 5.907180 6.965891 5.886268
C 6.950267 6.977216 6.005026
C 0.183477 0.160715 6.966779
C 1.069356 0.021950 6.824709
C 1.933761 0.082787 6.894523
C 3.006522 0.171922 6.994288
C 4.066734 0.173948 6.967649
C 5.026608 0.122565 6.826073
C 5.935849 0.153621 6.957091
C 6.936896 0.017996 6.982582
C 0.007611 0.866938 6.817837
C 0.906585 1.019201 6.960010
C 2.130142 0.903546 6.924854
C 3.090210 1.031109 6.985494
C 4.040397 1.172895 6.884041
C 4.925367 0.906448 6.994103
C 5.960641 1.146171 6.973514
C 6.842899 1.118249 6.935482
C 0.110220 1.881646 6.926235
C 1.077837 1.943042 6.974031
C 2.058058 2.076798 6.982591
C 3.106311 2.147038 6.953559
C 3.877487 1.973084 6.886014
C 4.998556 1.884610 6.977800
C 6.000035 2.057037 6.876065
C 6.939612 1.985745 6.986697
C 0.043534 2.803444 6.975757
C 0.958196 3.069325 6.893254
C 2.018050 3.014413 6.840367
C 3.055843 3.013569 6.936888
C 3.882777 3.141252 6.936245
C 5.059667 2.948719 6.980051
C 6.002812 2.940427 6.925294
C 6.908664 3.036248 6.898531
C 0.015451 4.037315 6.819486
C 1.045833 4.043403 6.912031
C 2.087624 3.848771 6.974012
C 2.930570 3.947752 6.964432
C 4.070124 3.923624 6.903297
C 5.035530 3.966479 6.878737
C 6.057396 3.817490 6.956652
C 6.874013 4.114634 6.999777
C 0.126414 4.932210 6.940484
C 0.994577 5.061038 6.854026
C 2.070284 5.082146 6.931313
C 3.066848 5.131767 6.989503
C 3.935430 5.032912 6.906120
C 4.933388 5.050516 6.923266
C 6.002404 5.065787 6.912927
C 6.912410 4.978501 6.965123
C 0.021489 6.049901 6.919916
C 1.128071 6.046815 6.960886
C 1.956817 5.922714 6.884869
C 3.119573 5.972609 6.905361
C 4.032375 6.044527 6.916605
C 4.923564 6.029811 6.924918
C 5.992925 6.057543 6.885147
C 6.866133 5.879737 6.985449
C 0.196536 6.872672 6.788053
C 0.975896 6.993562 6.942613
C 1.958825 6.985028 6.918768
C 2.965128 6.850072 6.981366
C 4.067104 6.979665 6.955767
C 5.117788 6.972614 6.931012
C 6.029273 6.940017 6.894871
C 6.949402 6.744590 6.977658
512
Frame 5/10
C 0.122732 0.079680 0.141583
C 0.990835 0.326769 0.275876
C 1.816363 0.128174 0.178490
C 3.029129 0.118333 0.022826
C 4.196050 0.096429 0.143288
C 5.151702 0.022947 0.234929
C 5.899533 0.075682 0.024019
C 6.978304 0.121350 0.147688
C 0.037167 1.255846 0.166460
C 1.006467 1.048557 0.039731
C 2.129743 1.118413 0.048433
C 2.992621 1.012068 0.203423
C 3.863924 0.865462 0.010914
C 5.123893 1.100952 0.027552
C 5.935659 0.990267 0.072180
C 6.834026 0.965070 0.218905
C 0.199275 2.078877 0.222066
C 1.074662 1.851862 0.190534
C 2.066395 1.958366 0.222029
C 3.236038 1.913655 0.112753
C 4.056942 2.166706 0.118790
C 4.897315 1.850842 0.001967
C 5.947442 2.085032 0.063988
C 6.928273 2.066034 0.086030
C 0.055592 2.859205 0.245549
C 0.899918 2.909122 0.018951
C 1.969369 3.033007 0.025608
C 2.913777 3.124979 0.009265
C 3.987543 3.155765 0.029939
C 5.022190 3.049756 0.034479
C 6.084897 3.126507 0.094881
C 6.969633 2.947309 0.003064
C 0.176942 3.888033 0.307426
C 1.049636 3.823636 0.187575
C 2.103102 4.107018 0.159193
C 2.915509 4.166448 0.084706
C 3.946425 3.981292 0.210124
C 4.769097 4.088951 0.058655
C 6.085635 4.087031 0.165541
C 6.867715 3.887124 0.085455
C 0.077917 4.944445 0.207897
C 0.874155 5.176757 0.082813
C 1.843623 5.147425 0.074601
C 3.159015 5.072614 0.061825
C 3.994554 4.884440 0.108600
C 4.851423 5.202082 0.094438
C 6.071439 5.159171 0.265848
C 6.988208 4.945050 0.138989
C 0.164555 5.955560 0.145107
C 0.978667 5.983344 0.082315
C 1.979655 5.938818 0.021089
C 3.224692 5.984048 0.007136
C 4.028814 5.841891 0.134634
C 4.827740 6.075011 0.028807
C 6.062668 6.017725 0.035266
C 6.889601 5.819588 0.298098
C 0.273453 6.761104 0.114817
C 1.188636 6.947353 0.020629
C 2.140270 6.766496 0.059096
C 3.008595 6.887147 0.025829
C 3.901012 6.834625 0.018084
C 5.110786 6.954214 0.019763
C 5.939215 6.887444 0.107671
C 6.978261 6.672254 0.164853
C 0.053960 0.062734 1.096754
C 1.048287 0.110342 1.102986
C 1.881772 0.048882 1.090580
C 3.123725 0.003276 0.905418
C 3.964639 0.036929 1.101060
C 4.975396 0.038718 1.113845
C 6.057280 0.010754 0.856516
C 6.747967 0.223977 1.003267
C 0.067897 0.919653 0.928635
C 0.938768 1.085480 1.029748
C 2.070903 1.140719 0.936006
C 3.029354 1.119944 1.178325
C 3.951004 1.044532 1.056976
C 5.154345 0.985465 0.878295
C 5.947709 0.856301 0.915550
C 6.971657 1.185280 0.988048
C 0.077637 2.061056 1.084537
C 1.031224 2.092449 0.930342
C 2.019963 1.971360 1.201448
C 3.087219 2.080920 0.894139
C 3.965781 2.051768 0.947609
C 4.997061 2.006556 1.106435
C 5.899615 2.040129 0.991132
C 6.963096 2.075490 0.924491
C 0.041187 3.101768 0.966244
C 0.951294 2.895169 1.104805
C 1.945544 2.989916 1.110183
C 2.964295 2.931140 0.926965
C 4.047117 2.973718 1.134510
C 5.002884 3.091345 0.862383
C 5.892223 2.955079 0.960766
C 6.838599 2.945324 1.087788
C 0.014859 4.217579 1.090110
C 0.862084 4.040914 1.106396
C 2.021285 4.126095 1.018770
C 3.009587 4.075360 1.094800
C 4.042060 3.997341 1.069017
C 4.977699 4.100596 0.872254
C 6.160880 3.949052 1.024123
C 6.979794 3.864598 1.103186
C 0.195717 5.020978 1.104193
C 0.993153 5.120722 0.897096
C 2.011948 5.132432 0.842839
C 3.105283 4.928727 1.093905
C 3.977275 4.931891 0.943722
C 5.163892 5.059840 0.962020
C 5.974853 4.876986 1.048741
C 6.982456 4.803890 1.045138
C 0.044445 6.121338 1.128113
C 0.839908 6.064482 0.948743
C 1.918918 5.949459 0.967541
C 2.911306 5.989996 1.115460
C 3.812520 6.095537 1.129822
C 4.946740 5.930455 1.214372
C 6.062109 5.977480 1.029685
C 6.922514 6.116075 0.984453
C 0.036870 6.814349 0.813939
C 0.977006 6.997763 1.123758
C 1.900469 6.980838 0.791971
C 3.222841 6.960754 0.933903
C 4.019519 6.855395 0.876547
C 5.078938 6.995811 0.970753
C 6.100565 6.937700 0.904955
C 6.986354 6.954440 0.932475
C 0.013482 0.041092 2.002021
C 1.001985 0.019429 2.139363
C 2.152004 0.020007 2.063834
C 3.016061 0.095711 1.916574
C 4.033420 0.060270 2.109176
C 4.940389 0.155792 1.947383
C 6.045559 0.103505 2.030957
C 6.949662 0.150936 2.191515
C 0.099533 0.905806 1.968049
C 1.043474 0.983247 1.967228
C 1.913887 1.143888 2.135891
C 3.083173 1.020932 2.164574
C 4.079975 1.091272 2.034183
C 5.012857 1.098673 2.048946
C 5.846922 1.075052 1.915865
C 6.958544 1.000302 1.877969
C 0.142744 1.946236 2.038021
C 1.086028 1.815314 2.034743
C 1.984649 1.966001 2.199347
C 2.860019 2.038024 1.867605
C 3.868706 2.110099 2.043057
C 4.859412 1.908762 2.031788
C 6.026168 1.866937 1.891652
C 6.992090 1.997501 2.074394
C 0.073124 2.774804 1.910387
C 1.153795 2.889082 1.999794
C 1.989852 2.888583 1.991738
C 2.877887 2.869090 1.999376
C 3.870574 2.928638 1.930707
C 4.815475 3.050758 2.028018
C 5.953183 3.017493 2.025241
C 6.841739 2.972065 1.960695
C 0.100545 4.091472 1.884674
C 1.110338 3.971932 1.844861
C 1.918730 3.837630 1.940075
C 3.077581 4.061058 2.113703
C 4.120382 3.983653 2.077249
C 4.949239 3.894002 1.870591
C 6.018796 3.886385 1.883395
C 6.872384 3.859801 2.011549
C 0.028742 4.962250 1.869406
C 0.964064 4.954252 2.124007
C 1.958841 5.178403 2.007264
C 2.980134 5.097676 2.068042
C 3.934435 5.009366 2.127117
C 5.081245 5.131146 2.016424
C 5.912926 5.040326 1.813621
C 6.837415 4.891132 1.939788
C 0.070320 5.922144 2.068893
C 1.113445 5.934198 1.835101
C 1.802910 6.168947 1.977837
C 2.915837 6.044390 1.976330
C 3.853165 6.051428 1.983151
C 4.935705 6.059750 2.188964
C 5.904536 5.962774 2.056897
C 6.966015 6.078693 2.005714
C 0.134599 6.954173 1.845109
C 1.157667 6.988826 2.134020
C 2.020804 6.905183 1.815365
C 3.080766 6.908683 1.989353
C 4.030477 6.986187 1.845928
C 4.900757 6.886626 2.072850
C 6.009696 6.993052 2.079030
C 6.972059 6.982965 1.960461
C 0.039485 0.206358 3.045304
C 0.863318 0.056963 3.009272
C 1.885759 0.190430 2.797077
C 2.891725 0.024016 3.085552
C 3.875047 0.009085 2.968037
C 5.052451 0.095068 3.001106
C 6.103040 0.086021 2.964747
C 6.867467 0.050119 3.164750
C 0.021107 1.140640 2.716033
C 1.076118 0.857060 2.932979
C 2.084922 0.913007 2.926823
C 3.043310 0.810786 3.035030
C 4.080110 0.860266 2.905296
C 4.954083 0.937663 2.874782
C 6.023441 0.992798 3.124970
C 6.977896 1.116208 3.007692
C 0.021236 1.968085 3.101804
C 0.959785 2.153172 2.972418
C 2.039924 1.892499 3.041200
C 3.106579 1.988498 2.910556
C 4.109961 2.016112 3.146755
C 5.126881 2.010540 2.946877
C 6.099379 1.887572 2.854614
C 6.952463 1.937591 2.902952
C 0.080647 2.963395 2.952074
C 0.976437 2.947018 3.186368
C 1.986792 2.944090 2.828552
C 2.800605 2.938307 3.041294
C 4.117502 2.995680 2.940283
C 4.955027 3.028515 2.908823
C 5.923027 2.961299 2.846228
C 6.944749 2.962769 2.913664
C 0.011101 3.923197 3.164532
C 1.052152 3.878166 2.866308
C 2.041150 4.117532 2.989146
C 3.005545 3.969274 3.122347
C 3.942406 3.986057 2.920809
C 4.894923 4.080571 2.844390
C 6.054701 3.938810 2.858190
C 6.890048 3.846712 2.951969
C 0.040023 4.948392 3.148985
C 0.835690 5.042917 2.973539
C 2.129670 5.030024 2.876738
C 2.926759 5.009053 3.002611
C 4.087889 5.029312 2.941789
C 4.984125 5.117095 2.994357
C 5.869847 4.935959 3.007121
C 6.895633 5.054210 3.140036
C 0.078955 6.052770 2.956768
C 1.029156 6.012186 2.944418
C 2.069617 6.046512 3.003953
C 2.958857 5.961516 2.914387
C 4.209824 6.043589 3.052477
C 5.103447 6.010189 3.114788
C 6.016210 6.071874 2.990144
C 6.928465 5.862875 3.047500
C 0.168248 6.937818 2.852862
C 0.888426 6.915762 3.110505
C 2.220431 6.970659 2.870403
C 2.869639 6.925587 3.170691
C 4.049853 6.972762 2.985884
C 4.998664 6.870740 2.942049
C 5.877029 6.858930 2.918238
C 6.988232 6.859474 2.937201
C 0.045700 0.253783 4.010194
C 1.064020 0.019591 3.941647
C 2.080293 0.053287 4.033701
C 3.200108 0.008044 4.005358
C 4.163590 0.016819 4.056918
C 5.053378 0.043817 4.235069
C 6.103346 0.117565 4.103156
C 6.904214 0.262474 4.084634
C 0.027552 1.038865 3.845174
C 1.003648 0.929836 4.154904
C 1.937176 1.090932 3.947203
C 3.166103 0.871374 3.990751
C 3.939806 1.056453 3.870845
C 4.857097 0.935329 3.970134
C 5.954397 0.921792 3.984689
C 6.999344 1.203776 3.923675
C 0.037804 2.125142 3.978460
C 0.913343 2.048437 3.977231
C 1.953592 1.956496 3.995553
C 2.854424 1.932977 3.969744
C 4.145612 2.073060 4.027527
C 4.946916 1.897625 3.958941
C 5.994251 1.995085 4.105278
C 6.958495 1.977239 4.115736
C 0.137026 2.942027 3.958091
C 1.180271 2.883822 4.000619
C 1.948170 3.057194 3.807061
C 3.019280 2.960015 4.089618
C 4.031022 3.099730 3.887446
C 5.137964 3.059401 4.174560
C 6.023232 3.026362 3.906974
C 6.926472 3.076786 3.992223
C 0.014058 3.944936 4.066412
C 1.083870 4.144893 4.076915
C 2.021315 4.061799 3.822173
C 3.065558 3.791831 3.910481
C 4.005429 4.196551 3.978042
C 4.837840 4.085924 3.985222
C 5.859654 4.037949 3.956195
C 6.802264 4.020698 4.040818
C 0.090270 5.095528 4.006366
C 0.959865 5.006062 4.082348
C 2.052202 5.049744 4.119688
C 2.922814 4.879030 4.006227
C 4.145155 5.001186 4.046225
C 5.019959 4.988935 3.901916
C 5.966831 4.937650 3.814534
C 6.927803 4.774000 3.874993
C 0.004948 5.939122 4.239831
C 1.226096 5.972809 4.003935
C 1.973710 6.117116 4.149766
C 3.085557 6.084784 4.098768
C 3.860673 6.018857 3.935632
C 5.165775 6.085319 4.085293
C 6.070307 6.024132 4.005611
C 6.958830 5.859335 4.036079
C 0.138122 6.910982 3.897976
C 0.988876 6.965912 4.254565
C 2.049347 6.840781 3.940305
C 2.952213 6.895520 4.010050
C 4.075229 6.969403 4.144998
C 5.070980 6.996560 4.062758
C 5.928191 6.983929 4.112479
C 6.989339 6.933607 3.837576
C 0.044457 0.152644 5.208518
C 0.835807 0.130228 4.855998
C 1.998439 0.066398 4.857755
C 2.820166 0.026768 4.826827
C 4.021008 0.099682 5.009132
C 5.165263 0.084579 5.112830
C 5.931388 0.218945 4.865549
C 6.887708 0.063470 5.187794
C 0.059756 0.871386 4.864855
C 1.175908 0.931218 4.979847
C 2.067732 0.904186 5.117694
C 3.076178 1.027035 5.123417
C 3.947147 0.935637 4.928352
C 4.902262 1.137994 5.028384
C 5.910863 0.860078 5.128671
C 6.910718 0.840866 4.971970
C 0.096698 2.100304 4.952557
C 1.047319 1.996927 5.016995
C 1.948368 2.111118 4.879231
C 3.077435 2.051589 5.075075
C 3.917383 1.846590 5.008722
C 5.092490 1.991618 5.131396
C 6.231759 1.906480 4.923662
C 6.928560 1.869272 5.167978
C 0.078566 2.919910 5.117781
C 1.157721 3.078891 5.020044
C 1.994837 2.943895 5.083102
C 2.998500 3.036897 5.209977
C 4.062671 3.086539 5.165960
C 4.873410 3.090781 5.033007
C 5.877016 2.916019 4.907266
C 6.880212 2.852126 4.933623
C 0.022750 4.045824 5.085276
C 1.097068 3.929889 5.062737
C 1.978588 4.058652 4.900550
C 2.982430 4.043978 4.789524
C 4.139579 3.977076 4.928173
C 4.941038 4.068671 5.096957
C 6.083185 4.058809 4.911152
C 6.929976 4.026627 4.916454
C 0.021001 4.915875 4.823992
C 0.857314 4.905956 5.112457
C 2.069109 4.938279 5.176870
C 3.087060 4.817405 4.994275
C 4.110828 5.067830 4.932632
C 4.880922 4.910100 5.134574
C 6.112139 4.941267 4.977205
C 6.972503 4.871578 5.007084
C 0.138799 5.880569 5.095140
C 0.980903 5.979688 5.200543
C 2.087924 5.989816 5.055423
C 3.012010 5.994455 5.151312
C 3.918734 6.060164 5.205880
C 4.947310 6.027787 4.992155
C 6.008714 5.904961 5.081738
C 6.965765 5.830390 5.001172
C 0.070300 6.832658 4.733022
C 1.007158 6.874901 5.086716
C 2.104914 6.933482 5.109906
C 2.924385 6.941470 5.178709
C 4.109129 6.889423 5.137021
C 5.128332 6.976451 4.909256
C 5.928620 6.992749 5.033754
C 6.758265 6.956127 5.114391
C 0.173947 0.109277 6.015547
C 0.988815 0.145172 5.840742
C 1.861137 0.044789 5.917335
C 2.994065 0.004581 5.818734
C 4.027699 0.046193 5.965997
C 4.820114 0.014427 5.812367
C 5.907952 0.019375 5.873363
C 6.798724 0.256236 6.290993
C 0.126132 1.102344 6.121595
C 0.953097 1.096553 6.045939
C 1.945444 0.913763 5.975710
C 2.920271 1.056296 5.911582
C 4.018013 1.132131 5.930253
C 4.927343 0.986127 6.176563
C 6.132460 0.935368 5.999101
C 6.989659 0.991097 5.897906
C 0.058817 2.113504 6.144620
C 0.919943 1.907486 6.198071
C 2.050159 1.953326 6.090325
C 3.113712 2.072362 5.966500
C 3.979867 2.113424 6.068826
C 5.214145 2.102167 6.016860
C 6.086772 1.910660 5.992431
C 6.908339 2.072384 6.132326
C 0.011963 2.924118 5.969654
C 1.183862 2.901103 6.130573
C 1.978965 2.908025 5.980181
C 2.945536 2.896158 6.137179
C 4.053332 2.896052 5.938952
C 4.965329 2.903438 5.859919
C 6.094561 2.932399 6.018374
C 6.904653 3.029712 5.935125
C 0.192877 4.085318 5.889711
C 1.083212 4.038984 5.887974
C 1.890256 4.053365 6.024310
C 3.010951 3.878582 5.963460
C 4.129320 4.007991 5.930554
C 5.052532 3.873898 6.028739
C 6.109319 4.158587 5.989178
C 6.951756 3.866986 5.820511
C 0.075348 5.082569 6.010143
C 1.043866 4.863161 6.095004
C 2.153648 4.943955 6.004409
C 3.065689 4.938568 5.992950
C 4.124471 4.911580 6.109101
C 5.097351 5.106339 5.846531
C 5.974933 4.947395 5.958741
C 6.991917 5.095015 5.961644
C 0.050967 6.121309 5.795546
C 1.187727 6.042930 6.038699
C 2.049662 6.033225 6.009618
C 2.856391 6.190186 6.030432
C 3.982157 6.084744 6.062832
C 4.988731 5.882800 5.973799
C 5.931377 6.107580 5.845879
C 6.897296 5.993348 5.881313
C 0.118230 6.937156 5.826186
C 1.213806 6.950973 6.033137
C 2.162575 6.987762 5.950288
C 2.866937 6.975497 6.191871
C 3.920381 6.919520 5.956830
C 4.900985 6.979250 5.795345
C 5.876239 6.954521 5.848357
C 6.933690 6.969621 6.006701
C 0.244636 0.214287 6.955705
C 1.092475 0.029267 6.766279
C 1.911681 0.110382 6.859364
C 3.008696 0.229229 6.992383
C 4.088979 0.231931 6.956865
C 5.035477 0.163421 6.768097
C 5.914465 0.204828 6.942788
C 6.915861 0.023994 6.976776
C 0.010148 0.822585 6.757116
C 0.875446 1.025601 6.946680
C 2.173523 0.871395 6.899805
C 3.120280 1.041479 6.980658
C 4.053863 1.230526 6.845388
C 4.900489 0.875264 6.992138
C 5.947522 1.194895 6.964685
C 6.790532 1.157666 6.913977
C 0.146960 1.842195 6.901647
C 1.103782 1.924056 6.965375
C 2.077411 2.102397 6.976788
C 3.141748 2.196051 6.938078
C 3.836649 1.964112 6.848018
C 4.998074 1.846147 6.970401
C 6.000046 2.076049 6.834753
C 6.919483 1.980994 6.982262
C 0.058046 2.737925 6.967676
C 0.944262 3.092433 6.857672
C 2.024067 3.019217 6.787156
C 3.074457 3.018093 6.915850
C 3.843702 3.188336 6.914994
C 5.079557 2.931625 6.973401
C 6.003750 2.920569 6.900392
C 6.878219 3.048331 6.864708
C 0.020601 4.049753 6.759315
C 1.061111 4.057871 6.882708
C 2.116832 3.798361 6.965350
C 2.907427 3.930336 6.952575
C 4.093498 3.898166 6.871062
C 5.047373 3.955305 6.838316
C 6.076528 3.756654 6.942202
C 6.832017 4.152845 6.999703
C 0.168552 4.909613 6.920645
C 0.992769 5.081385 6.805368
C 2.093711 5.109528 6.908417
C 3.089130 5.175690 6.986005
C 3.913907 5.043883 6.874827
C 4.911184 5.067354 6.897689
C 6.003205 5.087717 6.883902
C 6.883214 4.971334 6.953497
C 0.028652 6.066535 6.893222
C 1.170761 6.062420 6.947848
C 1.942423 5.896952 6.846492
C 3.159431 5.963479 6.873814
C 4.043167 6.059370 6.888807
C 4.898086 6.039747 6.899891
C 5.990567 6.076724 6.846863
C 6.821510 5.839649 6.980599
C 0.262049 6.830229 6.717404
C 0.967861 6.991416 6.923483
C 1.945100 6.980037 6.891690
C 2.953504 6.800096 6.975154
C 4.089472 6.972887 6.941023
C 5.157050 6.963486 6.908016
C 6.039030 6.920022 6.859828
C 6.932536 6.659454 6.970211
512
Frame 6/10
C 0.153415 0.099599 0.176978
C 0.988543 0.408461 0.344844
C 1.770453 0.160218 0.223112
C 3.036411 0.147916 0.028533
C 4.245062 0.120536 0.179110
C 5.189628 0.028684 0.293661
C 5.874416 0.094602 0.030024
C 6.972880 0.151687 0.184610
C 0.046459 1.319808 0.208075
C 1.008084 1.060696 0.049663
C 2.162179 1.148016 0.060541
C 2.990776 1.015085 0.254279
C 3.829905 0.831828 0.013642
C 5.154866 1.126190 0.034439
C 5.919574 0.987834 0.090225
C 6.792532 0.956337 0.273631
C 0.249093 2.098597 0.277582
C 1.093327 1.814827 0.238167
C 2.082993 1.947957 0.277537
C 3.295047 1.892069 0.140941
C 4.071177 2.208382 0.148487
C 4.871644 1.813553 0.002459
C 5.934302 2.106290 0.079985
C 6.910341 2.082542 0.107538
C 0.069490 2.824006 0.306936
C 0.874898 2.886402 0.023688
C 1.961712 3.041258 0.032010
C 2.892221 3.156224 0.011582
C 3.984429 3.194706 0.037424
C 5.027738 3.062196 0.043099
C 6.106122 3.158134 0.118601
C 6.962041 2.934136 0.003830
C 0.221177 3.860041 0.384283
C 1.062044 3.779546 0.234469
C 2.128878 4.133773 0.198991
C 2.894387 4.208060 0.105883
C 3.933032 3.976615 0.262655
C 4.711371 4.111189 0.073319
C 6.107044 4.108789 0.206926
C 6.834644 3.858905 0.106819
C 0.097396 4.930557 0.259872
C 0.842693 5.220946 0.103516
C 1.804529 5.184281 0.093252
C 3.198769 5.090768 0.077282
C 3.993192 4.855550 0.135751
C 4.814278 5.252603 0.118048
C 6.089298 5.198963 0.332309
C 6.985260 4.931313 0.173737
C 0.205693 5.944450 0.181384
C 0.973334 5.979180 0.102893
C 1.974569 5.923522 0.026362
C 3.280866 5.980060 0.008920
C 4.036018 5.802364 0.168292
C 4.784675 6.093764 0.036009
C 6.078335 6.022156 0.044083
C 6.862002 5.774485 0.372622
C 0.341817 6.701379 0.143521
C 1.235795 6.934191 0.025786
C 2.175338 6.708119 0.073870
C 3.010744 6.858934 0.032287
C 3.876265 6.793281 0.022605
C 5.138482 6.942768 0.024704
C 5.924018 6.859305 0.134588
C 6.972827 6.590317 0.206066
C 0.067451 0.078418 1.120943
C 1.060359 0.137927 1.128732
C 1.852215 0.061103 1.113225
C 3.154656 0.004095 0.881773
C 3.955798 0.046161 1.126325
C 4.969245 0.048398 1.142306
C 6.071600 0.013442 0.820645
C 6.684958 0.279972 1.004084
C 0.084871 0.899567 0.910794
C 0.923460 1.106850 1.037185
C 2.088629 1.175899 0.920008
C 3.036693 1.149929 1.222906
C 3.938755 1.055665 1.071220
C 5.192931 0.981832 0.847869
C 5.934636 0.820376 0.894437
C 6.964571 1.231600 0.985060
C 0.097046 2.076320 1.105672
C 1.039030 2.115562 0.912927
C 2.024954 1.964200 1.251810
C 3.109024 2.101150 0.867673
C 3.957226 2.064710 0.934512
C 4.996326 2.008195 1.133044
C 5.874519 2.050161 0.988915
C 6.953870 2.094363 0.905613
C 0.051483 3.127210 0.957805
C 0.939117 2.868961 1.131006
C 1.931930 2.987396 1.137728
C 2.955369 2.913925 0.908707
C 4.058897 2.967148 1.168137
C 5.003605 3.114182 0.827979
C 5.865279 2.943849 0.950958
C 6.798249 2.931655 1.109735
C 0.018573 4.271974 1.112638
C 0.827605 4.051143 1.132995
C 2.026606 4.157618 1.023463
C 3.011984 4.094200 1.118500
C 4.052575 3.996676 1.086271
C 4.972123 4.125744 0.840318
C 6.201099 3.936315 1.030153
C 6.974743 3.830748 1.128983
C 0.244647 5.026223 1.130241
C 0.991442 5.150902 0.871370
C 2.014935 5.165540 0.803548
C 3.131603 4.910908 1.117381
C 3.971594 4.914864 0.929652
C 5.204865 5.074800 0.952525
C 5.968566 4.846233 1.060926
C 6.978070 4.754862 1.056422
C 0.055557 6.151673 1.160142
C 0.799885 6.080602 0.935928
C 1.898647 5.936824 0.959427
C 2.889133 5.987494 1.144324
C 3.765650 6.119421 1.162277
C 4.933425 5.913069 1.267964
C 6.077637 5.971850 1.037106
C 6.903142 6.145094 0.980566
C 0.046087 6.767936 0.767424
C 0.971258 6.997204 1.154698
C 1.875586 6.976048 0.739964
C 3.278551 6.950942 0.917379
C 4.024399 6.819244 0.845683
C 5.098672 6.994763 0.963441
C 6.125707 6.922124 0.881194
C 6.982942 6.943050 0.915593
C 0.016852 0.051365 2.002527
C 1.002482 0.024286 2.174204
C 2.190005 0.025008 2.079793
C 3.020077 0.119639 1.895718
C 4.041775 0.075337 2.136470
C 4.925487 0.194740 1.934229
C 6.056949 0.129381 2.038697
C 6.937078 0.188670 2.239393
C 0.124417 0.882257 1.960062
C 1.054343 0.979058 1.959035
C 1.892359 1.179861 2.169864
C 3.103967 1.026165 2.205717
C 4.099969 1.114090 2.042729
C 5.016071 1.123341 2.061183
C 5.808653 1.093815 1.894832
C 6.948180 1.000378 1.847461
C 0.178430 1.932795 2.047526
C 1.107535 1.769143 2.043429
C 1.980811 1.957501 2.249184
C 2.825024 2.047530 1.834507
C 3.835882 2.137624 2.053821
C 4.824265 1.885952 2.039735
C 6.032709 1.833671 1.864564
C 6.990113 1.996876 2.092992
C 0.091405 2.718505 1.887984
C 1.192243 2.861352 1.999743
C 1.987315 2.860729 1.989673
C 2.847359 2.836363 1.999220
C 3.838217 2.910797 1.913384
C 4.769344 3.063448 2.035023
C 5.941479 3.021867 2.031552
C 6.802174 2.965081 1.950868
C 0.125681 4.114340 1.855843
C 1.137923 3.964915 1.806077
C 1.898413 3.797038 1.925094
C 3.096976 4.076322 2.142129
C 4.150477 3.979567 2.096561
C 4.936548 3.867502 1.838239
C 6.023495 3.857981 1.854244
C 6.840480 3.824751 2.014436
C 0.035927 4.952812 1.836758
C 0.955081 4.942815 2.155009
C 1.948552 5.223004 2.009080
C 2.975168 5.122095 2.085053
C 3.918044 5.011708 2.158896
C 5.101557 5.163932 2.020530
C 5.891157 5.050407 1.767026
C 6.796768 4.863915 1.924735
C 0.087900 5.902680 2.086117
C 1.141806 5.917748 1.793876
C 1.753638 6.211184 1.972296
C 2.894797 6.055488 1.970413
C 3.816456 6.064285 1.978939
C 4.919631 6.074688 2.236205
C 5.880670 5.953468 2.071122
C 6.957519 6.098366 2.007143
C 0.168248 6.942716 1.806387
C 1.197083 6.986032 2.167525
C 2.026005 6.881479 1.769206
C 3.100958 6.885854 1.986691
C 4.038096 6.982734 1.807409
C 4.875946 6.858283 2.091062
C 6.012120 6.991315 2.098787
C 6.965074 6.978706 1.950577
C 0.049357 0.257947 3.056630
C 0.829147 0.071204 3.011590
C 1.857198 0.238038 2.746346
C 2.864656 0.030020 3.106940
C 3.843809 0.011357 2.960046
C 5.065564 0.118834 3.001383
C 6.128800 0.107526 2.955934
C 6.834333 0.062648 3.205938
C 0.026383 1.175800 2.645041
C 1.095148 0.821325 2.916224
C 2.106152 0.891259 2.908528
C 3.054138 0.763482 3.043788
C 4.100137 0.825332 2.881620
C 4.942604 0.922079 2.843478
C 6.029301 0.990998 3.156213
C 6.972370 1.145260 3.009615
C 0.026544 1.960106 3.127255
C 0.949732 2.191465 2.965523
C 2.049905 1.865623 3.051500
C 3.133224 1.985622 2.888195
C 4.137451 2.020140 3.183443
C 5.158601 2.013175 2.933596
C 6.124223 1.859464 2.818267
C 6.940579 1.921988 2.878690
C 0.100809 2.954243 2.940093
C 0.970546 2.933772 3.232960
C 1.983490 2.930113 2.785689
C 2.750756 2.922883 3.051617
C 4.146877 2.994599 2.925354
C 4.943783 3.035644 2.886028
C 5.903783 2.951624 2.807785
C 6.930937 2.953461 2.892080
C 0.013876 3.903997 3.205666
C 1.065190 3.847707 2.832884
C 2.051438 4.146915 2.986433
C 3.006931 3.961593 3.152934
C 3.928008 3.982571 2.901012
C 4.868654 4.100714 2.805488
C 6.068377 3.923512 2.822738
C 6.862560 3.808390 2.939961
C 0.050028 4.935490 3.186231
C 0.794613 5.053646 2.966924
C 2.162088 5.037530 2.845923
C 2.908449 5.011317 3.003263
C 4.109861 5.036640 2.927236
C 4.980156 5.146369 2.992947
C 5.837309 4.919948 3.008901
C 6.869541 5.067762 3.175045
C 0.098694 6.065963 2.945960
C 1.036445 6.015233 2.930523
C 2.087022 6.058140 3.004941
C 2.948571 5.951895 2.892983
C 4.262279 6.054486 3.065596
C 5.129308 6.012736 3.143485
C 6.020262 6.089843 2.987680
C 6.910581 5.828594 3.059375
C 0.210311 6.922272 2.816078
C 0.860533 6.894703 3.138131
C 2.275539 6.963323 2.838004
C 2.837049 6.906983 3.213363
C 4.062316 6.965953 2.982355
C 4.998330 6.838425 2.927561
C 5.846286 6.823663 2.897798
C 6.985290 6.824342 2.921501
C 0.057125 0.317229 4.012742
C 1.080025 0.024489 3.927059
C 2.100366 0.066609 4.042127
C 3.250134 0.010055 4.006698
C 4.204487 0.021024 4.071147
C 5.066722 0.054772 4.293837
C 6.129183 0.146956 4.128945
C 6.880268 0.328092 4.105792
C 0.034440 1.048581 3.806468
C 1.004560 0.912294 4.193630
C 1.921470 1.113665 3.934004
C 3.207629 0.839217 3.988439
C 3.924757 1.070567 3.838557
C 4.821371 0.919161 3.962668
C 5.942997 0.902240 3.980861
C 6.999179 1.254720 3.904594
C 0.047255 2.156428 3.973075
C 0.891678 2.060546 3.971538
C 1.941990 1.945620 3.994441
C 2.818030 1.916221 3.962180
C 4.182015 2.091325 4.034409
C 4.933646 1.872031 3.948677
C 5.992813 1.993856 4.131597
C 6.948119 1.971549 4.144670
C 0.171282 2.927534 3.947614
C 1.225339 2.854777 4.000774
C 1.935213 3.071492 3.758826
C 3.024100 2.950019 4.112022
C 4.038778 3.124663 3.859307
C 5.172455 3.074251 4.218200
C 6.029040 3.032952 3.883718
C 6.908090 3.095983 3.990279
C 0.017573 3.931170 4.083016
C 1.104838 4.181116 4.096144
C 2.026644 4.077249 3.777716
C 3.081948 3.739789 3.888102
C 4.006787 4.245689 3.972553
C 4.797300 4.107405 3.981527
C 5.824567 4.047436 3.945244
C 6.752830 4.025872 4.051022
C 0.112837 5.119410 4.007957
C 0.949831 5.007578 4.102935
C 2.065253 5.062179 4.149609
C 2.903518 4.848787 4.007784
C 4.181444 5.001482 4.057782
C 5.024948 4.986169 3.877395
C 5.958539 4.922062 3.768168
C 6.909754 4.717500 3.843742
C 0.006185 5.923902 4.299789
C 1.282620 5.966011 4.004919
C 1.967137 6.146395 4.187207
C 3.106946 6.105980 4.123460
C 3.825841 6.023572 3.919540
C 5.207219 6.106649 4.106616
C 6.087884 6.030165 4.007013
C 6.948538 5.824169 4.045098
C 0.172652 6.888727 3.872470
C 0.986095 6.957390 4.318207
C 2.061683 6.800976 3.925381
C 2.940267 6.869399 4.012563
C 4.094036 6.961754 4.181248
C 5.088725 6.995699 4.078448
C 5.910239 6.979911 4.140599
C 6.986674 6.917009 3.796970
C 0.055571 0.190805 5.260648
C 0.794759 0.162785 4.819997
C 1.998049 0.082998 4.822193
C 2.775208 0.033460 4.783533
C 4.026260 0.124603 5.011415
C 5.206579 0.105724 5.141038
C 5.914235 0.273682 4.831936
C 6.859635 0.079337 5.234742
C 0.074695 0.839232 4.831068
C 1.219885 0.914022 4.974809
C 2.084665 0.880233 5.147117
C 3.095223 1.033793 5.154271
C 3.933934 0.919547 4.910441
C 4.877827 1.172493 5.035480
C 5.888579 0.825097 5.160839
C 6.888398 0.801083 4.964962
C 0.120872 2.125380 4.940696
C 1.059149 1.996159 5.021244
C 1.935460 2.138897 4.849039
C 3.096793 2.064486 5.093843
C 3.896728 1.808238 5.010902
C 5.115612 1.989523 5.164245
C 6.289699 1.883100 4.904578
C 6.910700 1.836590 5.209973
C 0.098207 2.899887 5.147227
C 1.197151 3.098614 5.025055
C 1.993546 2.929869 5.103877
C 2.998125 3.046122 5.262471
C 4.078339 3.108174 5.207450
C 4.841763 3.113476 5.041258
C 5.846270 2.895024 4.884082
C 6.850265 2.815158 4.917029
C 0.028438 4.057281 5.106594
C 1.121335 3.912361 5.078422
C 1.973235 4.073315 4.875687
C 2.978037 4.054973 4.736906
C 4.174473 3.971345 4.910216
C 4.926297 4.085838 5.121196
C 6.103981 4.073511 4.888939
C 6.912470 4.033284 4.895568
C 0.026251 4.894844 4.779990
C 0.821642 4.882445 5.140571
C 2.086387 4.922849 5.221088
C 3.108826 4.771756 4.992844
C 4.138535 5.084787 4.915790
C 4.851153 4.887625 5.168218
C 6.140173 4.926584 4.971506
C 6.965629 4.839472 5.008856
C 0.173499 5.850711 5.118925
C 0.976129 5.974610 5.250678
C 2.109905 5.987270 5.069278
C 3.015012 5.993068 5.189140
C 3.898417 6.075205 5.257351
C 4.934137 6.034734 4.990194
C 6.010893 5.881201 5.102173
C 6.957207 5.787988 5.001465
C 0.087875 6.790822 4.666278
C 1.008947 6.843626 5.108396
C 2.131143 6.916853 5.137382
C 2.905482 6.926837 5.223387
C 4.136411 6.861778 5.171277
C 5.160415 6.970564 4.886571
C 5.910775 6.990937 5.042193
C 6.697832 6.945159 5.142989
C 0.217434 0.136596 6.019434
C 0.986019 0.181464 5.800928
C 1.826422 0.055987 5.896668
C 2.992581 0.005726 5.773417
C 4.034624 0.057742 5.957496
C 4.775143 0.018034 5.765459
C 5.884940 0.024218 5.841704
C 6.748405 0.320295 6.363741
C 0.157665 1.127930 6.151994
C 0.941371 1.120691 6.057424
C 1.931805 0.892204 5.969637
C 2.900339 1.070370 5.889477
C 4.022516 1.165164 5.912816
C 4.909178 0.982659 6.220703
C 6.165574 0.919210 5.998876
C 6.987074 0.988871 5.872382
C 0.073521 2.141880 6.180775
C 0.899929 1.884357 6.247589
C 2.062699 1.941657 6.112906
C 3.142140 2.090452 5.958125
C 3.974834 2.141781 6.086032
C 5.267681 2.127709 6.021075
C 6.108465 1.888325 5.990539
C 6.885424 2.090480 6.165407
C 0.014954 2.905147 5.962068
C 1.229827 2.876378 6.163217
C 1.973706 2.885031 5.975226
C 2.931920 2.870197 6.171473
C 4.066666 2.870065 5.923689
C 4.956661 2.879298 5.824899
C 6.118201 2.915498 6.022967
C 6.880816 3.037140 5.918906
C 0.241096 4.106648 5.862139
C 1.104015 4.048730 5.859967
C 1.862821 4.066707 6.030387
C 3.013688 3.848228 5.954325
C 4.161650 4.009989 5.913193
C 5.065665 3.842372 6.035924
C 6.136648 4.198234 5.986472
C 6.939695 3.833732 5.775639
C 0.094185 5.103212 6.012678
C 1.054833 4.828952 6.118755
C 2.192059 4.929943 6.005511
C 3.082111 4.923211 5.991187
C 4.155589 4.889475 6.136376
C 5.121689 5.132924 5.808164
C 5.968666 4.934243 5.948426
C 6.989897 5.118769 5.952055
C 0.063709 6.151636 5.744433
C 1.234659 6.053662 6.048374
C 2.062077 6.041531 6.012023
C 2.820489 6.237732 6.038040
C 3.977696 6.105930 6.078540
C 4.985914 5.853500 5.967249
C 5.914222 6.134475 5.807348
C 6.871620 5.991685 5.851641
C 0.147787 6.921445 5.782733
C 1.267258 6.938716 6.041421
C 2.203219 6.984703 5.937860
C 2.833671 6.969371 6.239839
C 3.900476 6.899400 5.946037
C 4.876232 6.974062 5.744181
C 5.845299 6.943151 5.810447
C 6.917112 6.962026 6.008377
C 0.305795 0.267858 6.944631
C 1.115594 0.036583 6.707848
C 1.889602 0.137978 6.824205
C 3.010870 0.286536 6.990479
C 4.111223 0.289914 6.946082
C 5.044346 0.204276 6.710121
C 5.893081 0.256035 6.928485
C 6.894827 0.029993 6.970969
C 0.012685 0.778231 6.696395
C 0.844308 1.032001 6.933350
C 2.216903 0.839243 6.874756
C 3.150350 1.051848 6.975823
C 4.067329 1.288158 6.806734
C 4.875611 0.844080 6.990172
C 5.934402 1.243618 6.955856
C 6.738165 1.197082 6.892471
C 0.183701 1.802744 6.877059
C 1.129728 1.905070 6.956719
C 2.096764 2.127996 6.970984
C 3.177185 2.245064 6.922598
C 3.795811 1.955140 6.810023
C 4.997593 1.807684 6.963001
C 6.000058 2.095061 6.793442
C 6.899354 1.976242 6.977828
C 0.072557 2.672407 6.959595
C 0.930327 3.115542 6.822091
C 2.030083 3.024022 6.733945
C 3.093071 3.022616 6.894813
C 3.804628 3.235420 6.893742
C 5.099446 2.914532 6.966751
C 6.004687 2.900711 6.875490
C 6.847774 3.060414 6.830885
C 0.025752 4.062191 6.699143
C 1.076389 4.072339 6.853386
C 2.146040 3.747952 6.956687
C 2.884284 3.912920 6.940719
C 4.116873 3.872707 6.838828
C 5.059217 3.944132 6.797895
C 6.095660 3.695817 6.927753
C 6.790022 4.191056 6.999629
C 0.210690 4.887017 6.900806
C 0.990961 5.101731 6.756710
C 2.117139 5.136910 6.885521
C 3.111413 5.219612 6.982506
C 3.892383 5.054854 6.843534
C 4.888980 5.084193 6.872111
C 6.004006 5.109646 6.854878
C 6.854017 4.964168 6.941871
C 0.035815 6.083168 6.866527
C 1.213451 6.078025 6.934810
C 1.928029 5.871190 6.808115
C 3.199289 5.954348 6.842268
C 4.053958 6.074212 6.861009
C 4.872607 6.049684 6.874863
C 5.988209 6.095905 6.808578
C 6.776888 5.799562 6.975749
C 0.327561 6.787787 6.646754
C 0.959826 6.989269 6.904354
C 1.931374 6.975046 6.864613
C 2.941880 6.750121 6.968943
C 4.111840 6.966109 6.926279
C 5.196313 6.954357 6.885020
C 6.048788 6.900028 6.824785
C 6.915670 6.574317 6.962764
512
Frame 7/10
C 0.184097 0.119519 0.212374
C 0.986252 0.490153 0.413813
C 1.724544 0.192261 0.267734
C 3.043694 0.177500 0.034239
C 4.294074 0.144643 0.214932
C 5.227554 0.034421 0.352394
C 5.849300 0.113522 0.036028
C 6.967456 0.182024 0.221532
C 0.055751 1.383770 0.249690
C 1.009701 1.072835 0.059596
C 2.194615 1.177619 0.072650
C 2.988932 1.018102 0.305134
C 3.795886 0.798194 0.016371
C 5.185839 1.151428 0.041327
C 5.903489 0.985401 0.108270
C 6.751039 0.947604 0.328357
C 0.298912 2.118316 0.333099
C 1.111993 1.777792 0.285801
C 2.099592 1.937548 0.333044
C 3.354056 1.870483 0.169129
C 4.085413 2.250059 0.178184
C 4.845973 1.776263 0.002951
C 5.921162 2.127548 0.095982
C 6.892409 2.099051 0.129045
C 0.083389 2.788808 0.368323
C 0.849877 2.863682 0.028426
C 1.954054 3.049510 0.038412
C 2.870665 3.187468 0.013898
C 3.981315 3.233647 0.044909
C 5.033285 3.074635 0.051718
C 6.127346 3.189760 0.142321
C 6.954450 2.920963 0.004596
C 0.265412 3.832050 0.461139
C 1.074453 3.735455 0.281362
C 2.154653 4.160527 0.238790
C 2.873264 4.249673 0.127059
C 3.919638 3.971938 0.315186
C 4.653646 4.133427 0.087982
C 6.128453 4.130547 0.248311
C 6.801572 3.830687 0.128183
C 0.116876 4.916668 0.311846
C 0.811232 5.265136 0.124220
C 1.765435 5.221138 0.111902
C 3.238523 5.108922 0.092738
C 3.991830 4.826660 0.162901
C 4.777134 5.303123 0.141657
C 6.107158 5.238756 0.398771
C 6.982312 4.917575 0.208484
C 0.246832 5.933340 0.217661
C 0.968000 5.975016 0.123472
C 1.969483 5.908226 0.031634
C 3.337039 5.976072 0.010704
C 4.043221 5.762837 0.201951
C 4.741610 6.112517 0.043210
C 6.094002 6.026587 0.052900
C 6.834402 5.729382 0.447146
C 0.410180 6.641655 0.172225
C 1.282954 6.921030 0.030943
C 2.210405 6.649743 0.088644
C 3.012892 6.830721 0.038744
C 3.851518 6.751937 0.027126
C 5.166179 6.931321 0.029645
C 5.908822 6.831166 0.161506
C 6.967392 6.508381 0.247279
C 0.080941 0.094102 1.145131
C 1.072431 0.165512 1.154478
C 1.822658 0.073323 1.135870
C 3.185587 0.004914 0.858128
C 3.946958 0.055393 1.151590
C 4.963094 0.058077 1.170767
C 6.085920 0.016130 0.784774
C 6.621950 0.335966 1.004901
C 0.101846 0.879480 0.892953
C 0.908152 1.128220 1.044622
C 2.106355 1.211078 0.904009
C 3.044031 1.179915 1.267487
C 3.926506 1.066798 1.085464
C 5.231518 0.978198 0.817442
C 5.921564 0.784451 0.873324
C 6.957485 1.277920 0.982072
C 0.116456 2.091584 1.126806
C 1.046836 2.138674 0.895513
C 2.029945 1.957040 1.302172
C 3.130829 2.121381 0.841208
C 3.948671 2.077652 0.921414
C 4.995592 2.009834 1.159653
C 5.849423 2.060193 0.986698
C 6.944645 2.113235 0.886736
C 0.061780 3.152652 0.949366
C 0.926941 2.842753 1.157207
C 1.918316 2.984875 1.165274
C 2.946443 2.896709 0.890448
C 4.070676 2.960577 1.201765
C 5.004325 3.137018 0.793575
C 5.838335 2.932619 0.941150
C 6.757899 2.917986 1.131682
C 0.022288 4.326369 1.135165
C 0.793126 4.061372 1.159595
C 2.031927 4.189142 1.028155
C 3.014381 4.113040 1.142200
C 4.063091 3.996011 1.103526
C 4.966548 4.150893 0.808381
C 6.241319 3.923578 1.036184
C 6.969691 3.796897 1.154779
C 0.293576 5.031468 1.156289
C 0.989730 5.181083 0.845644
C 2.017922 5.198648 0.764258
C 3.157924 4.893090 1.140858
C 3.965913 4.897837 0.915583
C 5.245839 5.089760 0.943030
C 5.962279 4.815480 1.073112
C 6.973684 4.705835 1.067707
C 0.066668 6.182007 1.192170
C 0.759862 6.096723 0.923114
C 1.878377 5.924188 0.951312
C 2.866960 5.984993 1.173189
C 3.718780 6.143305 1.194732
C 4.920110 5.895683 1.321557
C 6.093164 5.966220 1.044527
C 6.883771 6.174113 0.976679
C 0.055305 6.721524 0.720909
C 0.965509 6.996644 1.185637
C 1.850703 6.971257 0.687957
C 3.334261 6.941130 0.900855
C 4.029278 6.783093 0.814820
C 5.118407 6.993716 0.956130
C 6.150848 6.906549 0.857433
C 6.979530 6.931659 0.898712
C 0.020223 0.061638 2.003032
C 1.002978 0.029143 2.209045
C 2.228006 0.030010 2.095752
C 3.024092 0.143567 1.874861
C 4.050130 0.090405 2.163764
C 4.910584 0.233687 1.921075
C 6.068338 0.155258 2.046436
C 6.924494 0.226405 2.287272
C 0.149300 0.858709 1.952074
C 1.065211 0.974870 1.950842
C 1.870831 1.215833 2.203837
C 3.124760 1.031398 2.246861
C 4.119962 1.136908 2.051275
C 5.019285 1.148009 2.073420
C 5.770384 1.112577 1.873798
C 6.937817 1.000454 1.816953
C 0.214117 1.919354 2.057031
C 1.129042 1.722972 2.052115
C 1.976974 1.949001 2.299021
C 2.790029 2.057037 1.801408
C 3.803059 2.165149 2.064585
C 4.789118 1.863142 2.047682
C 6.039251 1.800405 1.837477
C 6.988135 1.996251 2.111590
C 0.109686 2.662205 1.865581
C 1.230692 2.833623 1.999691
C 1.984778 2.832875 1.987608
C 2.816831 2.803636 1.999064
C 3.805861 2.892957 1.896061
C 4.723213 3.076137 2.042027
C 5.929775 3.026240 2.037862
C 6.762609 2.958097 1.941042
C 0.150817 4.137208 1.827011
C 1.165507 3.957898 1.767292
C 1.878095 3.756445 1.910112
C 3.116371 4.091587 2.170554
C 4.180573 3.975480 2.115873
C 4.923858 3.841002 1.805887
C 6.028193 3.829577 1.825092
C 6.808576 3.789701 2.017323
C 0.043113 4.943375 1.804109
C 0.946097 4.931378 2.186010
C 1.938262 5.267605 2.010896
C 2.970201 5.146514 2.102064
C 3.901652 5.014049 2.190675
C 5.121868 5.196718 2.024636
C 5.869388 5.060488 1.720432
C 6.756122 4.836698 1.909682
C 0.105480 5.883217 2.103340
C 1.170167 5.901297 1.752652
C 1.704365 6.253420 1.966755
C 2.873756 6.066585 1.964496
C 3.779747 6.077142 1.974727
C 4.903557 6.089626 2.283446
C 5.856804 5.944162 2.085346
C 6.949022 6.118039 2.008572
C 0.201898 6.931260 1.767664
C 1.236500 6.983239 2.201030
C 2.031206 6.857774 1.723047
C 3.121149 6.863024 1.984029
C 4.045716 6.979280 1.768891
C 4.851135 6.829939 2.109274
C 6.014543 6.989578 2.118545
C 6.958089 6.974447 1.940692
C 0.059228 0.309537 3.067956
C 0.794976 0.085445 3.013908
C 1.828638 0.285645 2.695616
C 2.837587 0.036024 3.128328
C 3.812570 0.013628 2.952056
C 5.078677 0.142601 3.001659
C 6.154560 0.129031 2.947120
C 6.801200 0.075178 3.247125
C 0.031660 1.210960 2.574049
C 1.114178 0.785590 2.899468
C 2.127383 0.869511 2.890234
C 3.064966 0.716179 3.052546
C 4.120165 0.790399 2.857944
C 4.931124 0.906494 2.812173
C 6.035162 0.989197 3.187455
C 6.966844 1.174312 3.011538
C 0.031853 1.952127 3.152706
C 0.939678 2.229758 2.958627
C 2.059886 1.838748 3.061800
C 3.159869 1.982746 2.865834
C 4.164941 2.024167 3.220132
C 5.190321 2.015810 2.920315
C 6.149068 1.831357 2.781921
C 6.928695 1.906386 2.854428
C 0.120971 2.945092 2.928111
C 0.964655 2.920527 3.279553
C 1.980188 2.916135 2.742827
C 2.700907 2.907460 3.061940
C 4.176253 2.993519 2.910424
C 4.932540 3.042773 2.863234
C 5.884540 2.941949 2.769342
C 6.917124 2.944154 2.870495
C 0.016651 3.884796 3.246799
C 1.078228 3.817249 2.799461
C 2.061726 4.176298 2.983720
C 3.008318 3.953911 3.183521
C 3.913609 3.979086 2.881214
C 4.842384 4.120857 2.766585
C 6.082052 3.908214 2.787286
C 6.835072 3.770069 2.927954
C 0.060034 4.922587 3.223478
C 0.753535 5.064376 2.960309
C 2.194505 5.045036 2.815107
C 2.890139 5.013580 3.003916
C 4.131834 5.043968 2.912683
C 4.976187 5.175642 2.991536
C 5.804770 4.903938 3.010681
C 6.843449 5.081315 3.210054
C 0.118433 6.079155 2.935152
C 1.043734 6.018280 2.916627
C 2.104426 6.069768 3.005929
C 2.938285 5.942274 2.871580
C 4.314735 6.065383 3.078715
C 5.155170 6.015284 3.172182
C 6.024314 6.107811 2.985216
C 6.892697 5.794313 3.071250
C 0.252373 6.906726 2.779294
C 0.832639 6.873643 3.165757
C 2.330646 6.955988 2.805605
C 2.804458 6.888380 3.256036
C 4.074779 6.959144 2.978826
C 4.997996 6.806110 2.913074
C 5.815543 6.788395 2.877358
C 6.982348 6.789211 2.905802
C 0.068550 0.380674 4.015290
C 1.096030 0.029387 3.912470
C 2.120439 0.079931 4.050552
C 3.300161 0.012066 4.008038
C 4.245385 0.025229 4.085377
C 5.080067 0.065726 4.352604
C 6.155020 0.176347 4.154734
C 6.856321 0.393711 4.126950
C 0.041328 1.058298 3.767761
C 1.005472 0.894753 4.232356
C 1.905763 1.136398 3.920805
C 3.249155 0.807061 3.986127
C 3.909709 1.084680 3.806268
C 4.785645 0.902993 3.955201
C 5.931596 0.882688 3.977034
C 6.999015 1.305664 3.885513
C 0.056706 2.187714 3.967690
C 0.870014 2.072656 3.965846
C 1.930388 1.934743 3.993329
C 2.781636 1.899465 3.954616
C 4.218418 2.109590 4.041291
C 4.920375 1.846437 3.938412
C 5.991376 1.992628 4.157916
C 6.937743 1.965859 4.173604
C 0.205538 2.913041 3.937137
C 1.270406 2.825732 4.000929
C 1.922255 3.085791 3.710591
C 3.028921 2.940023 4.134427
C 4.046533 3.149595 3.831169
C 5.206946 3.089101 4.261840
C 6.034848 3.039543 3.860461
C 6.889708 3.115179 3.988335
C 0.021087 3.917404 4.099619
C 1.125806 4.217339 4.115372
C 2.031973 4.092699 3.733260
C 3.098337 3.687747 3.865722
C 4.008144 4.294827 3.967064
C 4.756760 4.128886 3.977833
C 5.789480 4.056923 3.934293
C 6.703396 4.031046 4.061227
C 0.135405 5.143292 4.009549
C 0.939798 5.009094 4.123523
C 2.078303 5.074615 4.179531
C 2.884221 4.818545 4.009341
C 4.217732 5.001779 4.069338
C 5.029938 4.983402 3.852874
C 5.950246 4.906475 3.721801
C 6.891705 4.661000 3.812490
C 0.007422 5.908683 4.359747
C 1.339143 5.959214 4.005903
C 1.960565 6.175674 4.224649
C 3.128335 6.127176 4.148152
C 3.791009 6.028286 3.903448
C 5.248663 6.127979 4.127939
C 6.105461 6.036198 4.008416
C 6.938245 5.789003 4.054118
C 0.207183 6.866472 3.846964
C 0.983314 6.948869 4.381848
C 2.074020 6.761171 3.910458
C 2.928320 6.843279 4.015076
C 4.112843 6.954105 4.217498
C 5.106469 6.994839 4.094138
C 5.892287 6.975894 4.168718
C 6.984009 6.900411 3.756364
C 0.066685 0.228966 5.312777
C 0.753710 0.195341 4.783997
C 1.997659 0.099597 4.786632
C 2.730250 0.040151 4.740240
C 4.031513 0.149524 5.013698
C 5.247895 0.126869 5.169245
C 5.897083 0.328418 4.798323
C 6.831561 0.095204 5.281690
C 0.089634 0.807079 4.797282
C 1.263862 0.896827 4.969771
C 2.101598 0.856279 5.176540
C 3.114268 1.040552 5.185126
C 3.920721 0.903456 4.892529
C 4.853392 1.206991 5.042575
C 5.866294 0.790117 5.193006
C 6.866078 0.761299 4.957954
C 0.145046 2.150456 4.928835
C 1.070979 1.995390 5.025493
C 1.922552 2.166677 4.818846
C 3.116152 2.077384 5.112612
C 3.876074 1.769886 5.013083
C 5.138734 1.987427 5.197094
C 6.347639 1.859720 4.885493
C 6.892840 1.803908 5.251967
C 0.117848 2.879865 5.176672
C 1.236581 3.118337 5.030066
C 1.992255 2.915843 5.124653
C 2.997750 3.055346 5.314965
C 4.094007 3.129809 5.248940
C 4.810116 3.136171 5.049510
C 5.815524 2.874029 4.860899
C 6.820318 2.778189 4.900435
C 0.034125 4.068737 5.127913
C 1.145602 3.894834 5.094106
C 1.967882 4.087978 4.850825
C 2.973645 4.065968 4.684287
C 4.209368 3.965614 4.892259
C 4.911557 4.103006 5.145435
C 6.124777 4.088213 4.866727
C 6.894964 4.039941 4.874681
C 0.031501 4.873812 4.735988
C 0.785971 4.858935 5.168685
C 2.103664 4.907419 5.265305
C 3.130591 4.726107 4.991413
C 4.166242 5.101744 4.898948
C 4.821384 4.865150 5.201861
C 6.168208 4.911901 4.965808
C 6.958755 4.807367 5.010627
C 0.208199 5.820853 5.142710
C 0.971355 5.969532 5.300814
C 2.131886 5.984725 5.083134
C 3.018015 5.991682 5.226969
C 3.878101 6.090246 5.308821
C 4.920965 6.041680 4.988232
C 6.013071 5.857441 5.122607
C 6.948648 5.745586 5.001758
C 0.105450 6.748987 4.599533
C 1.010737 6.812351 5.130075
C 2.157371 6.900224 5.164859
C 2.886578 6.912204 5.268064
C 4.163694 6.834134 5.205532
C 5.192497 6.964677 4.863885
C 5.892930 6.989124 5.050631
C 6.637398 6.934191 5.171586
C 0.260921 0.163915 6.023321
C 0.983222 0.217757 5.761114
C 1.791706 0.067184 5.876002
C 2.991097 0.006871 5.728100
C 4.041549 0.069290 5.948995
C 4.730171 0.021641 5.718550
C 5.861928 0.029062 5.810045
C 6.698086 0.384353 6.436489
C 0.189198 1.153516 6.182393
C 0.929645 1.144830 6.068909
C 1.918166 0.870645 5.963565
C 2.880407 1.084444 5.867373
C 4.027019 1.198197 5.895379
C 4.891014 0.979191 6.264844
C 6.198689 0.903053 5.998651
C 6.984488 0.986645 5.846858
C 0.088226 2.170256 6.216930
C 0.879914 1.861229 6.297106
C 2.075239 1.929989 6.135487
C 3.170568 2.108543 5.949750
C 3.969801 2.170137 6.103239
C 5.321217 2.153251 6.025290
C 6.130158 1.865990 5.988647
C 6.862509 2.108576 6.198489
C 0.017945 2.886177 5.954481
C 1.275792 2.851654 6.195860
C 1.968448 2.862038 5.970272
C 2.918304 2.844236 6.205768
C 4.079999 2.844078 5.908427
C 4.947993 2.855157 5.789878
C 6.141841 2.898598 6.027560
C 6.856979 3.044568 5.902688
C 0.289315 4.127977 5.834567
C 1.124818 4.058476 5.831961
C 1.835385 4.080048 6.036465
C 3.016426 3.817874 5.945190
C 4.193980 4.011987 5.895831
C 5.078798 3.810847 6.043109
C 6.163978 4.237881 5.983767
C 6.927634 3.800478 5.730767
C 0.113022 5.123854 6.015214
C 1.065800 4.794742 6.142506
C 2.230471 4.915932 6.006613
C 3.098533 4.907853 5.989425
C 4.186707 4.867370 6.163651
C 5.146027 5.159508 5.769797
C 5.962399 4.921092 5.938112
C 6.987876 5.142523 5.942466
C 0.076451 6.181964 5.693319
C 1.281591 6.064394 6.058048
C 2.074492 6.049838 6.014428
C 2.784587 6.285279 6.045648
C 3.973235 6.127116 6.094247
C 4.983097 5.824200 5.960699
C 5.897066 6.161370 5.768818
C 6.845944 5.990022 5.821969
C 0.177344 6.905734 5.739280
C 1.320709 6.926460 6.049705
C 2.243863 6.981643 5.925432
C 2.800405 6.963246 6.287806
C 3.880571 6.879280 5.935245
C 4.851478 6.968874 5.693018
C 5.814359 6.931781 5.772536
C 6.900535 6.954432 6.010052
C 0.366954 0.321430 6.933558
C 1.138713 0.043900 6.649418
C 1.867522 0.165574 6.789046
C 3.013044 0.343844 6.988575
C 4.133468 0.347896 6.935298
C 5.053215 0.245131 6.652145
C 5.871698 0.307242 6.914182
C 6.873792 0.035992 6.965163
C 0.015222 0.733877 6.635674
C 0.813170 1.038402 6.920020
C 2.260284 0.807092 6.849708
C 3.180420 1.062218 6.970988
C 4.080794 1.345790 6.768081
C 4.850734 0.812896 6.988206
C 5.921283 1.292342 6.947027
C 6.685798 1.236499 6.870965
C 0.220441 1.763293 6.852471
C 1.155673 1.886084 6.948063
C 2.116116 2.153595 6.965181
C 3.212622 2.294077 6.907117
C 3.754973 1.946168 6.772027
C 4.997111 1.769221 6.955601
C 6.000069 2.114073 6.752130
C 6.879225 1.971490 6.973393
C 0.087068 2.606888 6.951514
C 0.916392 3.138650 6.786509
C 2.036100 3.028826 6.680733
C 3.111685 3.027139 6.873775
C 3.765553 3.282504 6.872490
C 5.119335 2.897438 6.960101
C 6.005625 2.880854 6.850588
C 6.817329 3.072496 6.797062
C 0.030902 4.074629 6.638972
C 1.091667 4.086807 6.824063
C 2.175248 3.697542 6.948025
C 2.861140 3.895503 6.928863
C 4.140248 3.847249 6.806593
C 5.071060 3.932958 6.757474
C 6.114792 3.634981 6.913303
C 6.748026 4.229267 6.999554
C 0.252829 4.864420 6.880967
C 0.989153 5.122077 6.708052
C 2.140567 5.164292 6.862625
C 3.133695 5.263535 6.979007
C 3.870860 5.065825 6.812241
C 4.866776 5.101032 6.846533
C 6.004808 5.131575 6.825853
C 6.824821 4.957002 6.930246
C 0.042978 6.099802 6.839833
C 1.256141 6.093630 6.921772
C 1.913635 5.845429 6.769738
C 3.239146 5.945218 6.810721
C 4.064750 6.089054 6.833211
C 4.847128 6.059621 6.849836
C 5.985850 6.115085 6.770294
C 6.732265 5.759474 6.970899
C 0.393073 6.745344 6.576105
C 0.951792 6.987123 6.885225
C 1.917649 6.970055 6.837536
C 2.930256 6.700145 6.962731
C 4.134208 6.959331 6.911534
C 5.235575 6.945229 6.862025
C 6.058545 6.880033 6.789742
C 6.898804 6.489181 6.955317
512
Frame 8/10
C 0.214780 0.139439 0.247770
C 0.983961 0.571846 0.482782
C 1.678635 0.224305 0.312357
C 3.050976 0.207083 0.039946
C 4.343087 0.168750 0.250754
C 5.265479 0.040158 0.411126
C 5.824183 0.132443 0.042033
C 6.962032 0.212362 0.258454
C 0.065042 1.447731 0.291305
C 1.011318 1.084974 0.069529
C 2.227051 1.207223 0.084758
C 2.987087 1.021119 0.355990
C 3.761867 0.764559 0.019099
C 5.216812 1.176666 0.048215
C 5.887404 0.982968 0.126315
C 6.709545 0.938872 0.383084
C 0.348730 2.138035 0.388615
C 1.130658 1.740758 0.333434
C 2.116191 1.927140 0.388551
C 3.413066 1.848896 0.197317
C 4.099648 2.291735 0.207882
C 4.820301 1.738974 0.003443
C 5.908023 2.148807 0.111979
C 6.874477 2.115559 0.150553
C 0.097287 2.753609 0.429710
C 0.824857 2.840963 0.033163
C 1.946396 3.057761 0.044814
C 2.849109 3.218713 0.016214
C 3.978201 3.272588 0.052394
C 5.038833 3.087074 0.060338
C 6.148571 3.221387 0.166041
C 6.946858 2.907790 0.005362
C 0.309648 3.804058 0.537996
C 1.086862 3.691364 0.328256
C 2.180429 4.187282 0.278588
C 2.852141 4.291285 0.148236
C 3.906244 3.967261 0.367716
C 4.595920 4.155664 0.102646
C 6.149862 4.152305 0.289696
C 6.768501 3.802468 0.149547
C 0.136355 4.902779 0.363820
C 0.779771 5.309325 0.144923
C 1.726341 5.257994 0.130552
C 3.278277 5.127075 0.108194
C 3.990469 4.797770 0.190051
C 4.739990 5.353644 0.165267
C 6.125018 5.278548 0.465233
C 6.979364 4.903838 0.243231
C 0.287971 5.922229 0.253937
C 0.962667 5.970852 0.144051
C 1.964397 5.892931 0.036906
C 3.393212 5.972084 0.012488
C 4.050425 5.723310 0.235609
C 4.698545 6.131270 0.050412
C 6.109669 6.031018 0.061716
C 6.806803 5.684279 0.521671
C 0.478544 6.581931 0.200929
C 1.330113 6.907868 0.036100
C 2.245473 6.591367 0.103418
C 3.015041 6.802508 0.045201
C 3.826771 6.710593 0.031647
C 5.193875 6.919875 0.034586
C 5.893625 6.803027 0.188424
C 6.961958 6.426444 0.288492
C 0.094431 0.109785 1.169320
C 1.084503 0.193098 1.180225
C 1.793101 0.085544 1.158515
C 3.216519 0.005733 0.834482
C 3.938118 0.064626 1.176855
C 4.956943 0.067757 1.199228
C 6.100240 0.018819 0.748904
C 6.558942 0.391961 1.005718
C 0.118820 0.859393 0.875112
C 0.892843 1.149590 1.052059
C 2.124080 1.246258 0.888011
C 3.051370 1.209901 1.312068
C 3.914257 1.077931 1.099708
C 5.270104 0.974565 0.787016
C 5.908491 0.748526 0.852212
C 6.950399 1.324240 0.979083
C 0.135865 2.106848 1.147941
C 1.054642 2.161787 0.878098
C 2.034935 1.949880 1.352534
C 3.152634 2.141611 0.814743
C 3.940116 2.090594 0.908317
C 4.994857 2.011473 1.186262
C 5.824326 2.070225 0.984482
C 6.935419 2.132108 0.867859
C 0.072077 3.178094 0.940927
C 0.914764 2.816545 1.183408
C 1.904702 2.982354 1.192820
C 2.937517 2.879494 0.872190
C 4.082455 2.954007 1.235392
C 5.005046 3.159855 0.759170
C 5.811391 2.921389 0.931341
C 6.717549 2.904317 1.153628
C 0.026002 4.380764 1.157693
C 0.758647 4.071600 1.186194
C 2.037248 4.220666 1.032848
C 3.016778 4.131880 1.165900
C 4.073606 3.995346 1.120780
C 4.960973 4.176042 0.776445
C 6.281539 3.910841 1.042214
C 6.964640 3.763047 1.180576
C 0.342505 5.036712 1.182337
C 0.988018 5.211263 0.819918
C 2.020909 5.231756 0.724968
C 3.184244 4.875272 1.164334
C 3.960232 4.880810 0.901513
C 5.286812 5.104719 0.933535
C 5.955992 4.784726 1.085297
C 6.969298 4.656807 1.078991
C 0.077779 6.212342 1.224199
C 0.719839 6.112843 0.910300
C 1.858106 5.911553 0.943197
C 2.844786 5.982492 1.202054
C 3.671910 6.167189 1.227188
C 4.906796 5.878297 1.375150
C 6.108691 5.960590 1.051948
C 6.864399 6.203131 0.972792
C 0.064522 6.675111 0.674394
C 0.959761 6.996085 1.216577
C 1.825821 6.966467 0.635950
C 3.389971 6.931319 0.884331
C 4.034158 6.746942 0.783957
C 5.138141 6.992668 0.948818
C 6.175989 6.890974 0.833672
C 6.976119 6.920269 0.881831
C 0.023593 0.071910 2.003537
C 1.003474 0.034001 2.243885
C 2.266007 0.035012 2.111710
C 3.028108 0.167495 1.854005
C 4.058485 0.105472 2.191058
C 4.895681 0.272635 1.907921
C 6.079728 0.181134 2.054176
C 6.911909 0.264139 2.335151
C 0.174183 0.835160 1.944086
C 1.076080 0.970682 1.942650
C 1.849303 1.251805 2.237810
C 3.145553 1.036631 2.288004
C 4.139956 1.159726 2.059820
C 5.022499 1.172678 2.085656
C 5.732114 1.131340 1.852764
C 6.927453 1.000529 1.786445
C 0.249803 1.905913 2.066536
C 1.150548 1.676800 2.060801
C 1.973136 1.940501 2.348857
C 2.755034 2.066543 1.768309
C 3.770235 2.192674 2.075350
C 4.753971 1.840333 2.055629
C 6.045793 1.767139 1.810390
C 6.986158 1.995627 2.130189
C 0.127967 2.605906 1.843177
C 1.269140 2.805893 1.999640
C 1.982241 2.805020 1.985542
C 2.786303 2.770908 1.998909
C 3.773504 2.875116 1.878738
C 4.677082 3.088827 2.049032
C 5.918071 3.030613 2.044173
C 6.723044 2.951114 1.931216
C 0.175953 4.160076 1.798180
C 1.193092 3.950880 1.728507
C 1.857778 3.715853 1.895131
C 3.135766 4.106851 2.198980
C 4.210668 3.971394 2.135186
C 4.911167 3.814503 1.773535
C 6.032892 3.801173 1.795941
C 6.776672 3.754652 2.020211
C 0.050298 4.933937 1.771461
C 0.937113 4.919941 2.217012
C 1.927972 5.312206 2.012712
C 2.965235 5.170934 2.119074
C 3.885261 5.016391 2.222455
C 5.142179 5.229505 2.028742
C 5.847620 5.070570 1.673837
C 6.715476 4.809481 1.894629
C 0.123060 5.863753 2.120563
C 1.198528 5.884847 1.711427
C 1.655093 6.295657 1.961215
C 2.852715 6.077683 1.958578
C 3.743038 6.089999 1.970514
C 4.887483 6.104563 2.330687
C 5.832938 5.934855 2.099570
C 6.940526 6.137712 2.010000
C 0.235548 6.919803 1.728941
C 1.275916 6.980445 2.234535
C 2.036407 6.834070 1.676888
C 3.141341 6.840195 1.981367
C 4.053335 6.975827 1.730373
C 4.826325 6.801596 2.127487
C 6.016967 6.987841 2.138302
C 6.951104 6.970189 1.930807
C 0.069099 0.361126 3.079282
C 0.760806 0.099685 3.016226
C 1.800078 0.333253 2.644885
C 2.810518 0.042028 3.149716
C 3.781332 0.015900 2.944065
C 5.091789 0.166368 3.001936
C 6.180320 0.150536 2.938307
C 6.768067 0.087707 3.288313
C 0.036937 1.246120 2.503058
C 1.133207 0.749855 2.882713
C 2.148613 0.847763 2.871940
C 3.075793 0.668875 3.061303
C 4.140192 0.755465 2.834268
C 4.919645 0.890910 2.780869
C 6.041022 0.987397 3.218698
C 6.961317 1.203364 3.013461
C 0.037162 1.944149 3.178157
C 0.929624 2.268051 2.951732
C 2.069867 1.811873 3.072099
C 3.186514 1.979871 2.843473
C 4.192432 2.028195 3.256821
C 5.222042 2.018444 2.907035
C 6.173913 1.803250 2.745574
C 6.916810 1.890784 2.830166
C 0.141133 2.935941 2.916130
C 0.958765 2.907281 3.326145
C 1.976886 2.902158 2.699965
C 2.651058 2.892037 3.072264
C 4.205628 2.992439 2.895495
C 4.921296 3.049901 2.840440
C 5.865297 2.932274 2.730899
C 6.903311 2.934846 2.848911
C 0.019426 3.865595 3.287932
C 1.091266 3.786790 2.766038
C 2.072013 4.205681 2.981006
C 3.009704 3.946230 3.214107
C 3.899211 3.975600 2.861416
C 4.816115 4.141000 2.727683
C 6.095727 3.892917 2.751833
C 6.807584 3.731747 2.915946
C 0.070040 4.909685 3.260724
C 0.712458 5.075105 2.953693
C 2.226923 5.052543 2.784292
C 2.871829 5.015843 3.004569
C 4.153806 5.051296 2.898131
C 4.972218 5.204916 2.990126
C 5.772232 4.887928 3.012462
C 6.817357 5.094867 3.245063
C 0.138172 6.092348 2.924344
C 1.051023 6.021326 2.902732
C 2.121830 6.081396 3.006917
C 2.927999 5.932653 2.850177
C 4.367191 6.076280 3.091834
C 5.181032 6.017831 3.200879
C 6.028367 6.125780 2.982752
C 6.874813 5.760032 3.083125
C 0.294435 6.891181 2.742509
C 0.804746 6.852584 3.193383
C 2.385754 6.948653 2.773205
C 2.771868 6.869777 3.298709
C 4.087243 6.952334 2.975297
C 4.997663 6.773795 2.898586
C 5.784800 6.753128 2.856917
C 6.979406 6.754079 2.890102
C 0.079975 0.444120 4.017839
C 1.112035 0.034285 3.897882
C 2.140512 0.093253 4.058977
C 3.350188 0.014078 4.009377
C 4.286282 0.029433 4.099606
C 5.093411 0.076680 4.411371
C 6.180856 0.205738 4.180523
C 6.832375 0.459329 4.148109
C 0.048216 1.068014 3.729055
C 1.006384 0.877212 4.271082
C 1.890057 1.159132 3.907606
C 3.290680 0.774904 3.983815
C 3.894660 1.098793 3.773979
C 4.749919 0.886826 3.947735
C 5.920196 0.863136 3.973206
C 6.998851 1.356608 3.866432
C 0.066157 2.218999 3.962306
C 0.848350 2.084765 3.960154
C 1.918786 1.923867 3.992218
C 2.745243 1.882709 3.947052
C 4.254821 2.127855 4.048172
C 4.907104 1.820844 3.928148
C 5.989939 1.991399 4.184236
C 6.927367 1.960169 4.202538
C 0.239795 2.898547 3.926660
C 1.315474 2.796688 4.001083
C 1.909298 3.100089 3.662357
C 3.033741 2.930027 4.156831
C 4.054289 3.174528 3.803030
C 5.241437 3.103951 4.305480
C 6.040657 3.046133 3.837205
C 6.871326 3.134376 3.986391
C 0.024602 3.903638 4.116222
C 1.146773 4.253562 4.134601
C 2.037302 4.108149 3.688803
C 3.114727 3.635705 3.843342
C 4.009501 4.343965 3.961574
C 4.716220 4.150367 3.974138
C 5.754394 4.066411 3.923342
C 6.653962 4.036221 4.071431
C 0.157972 5.167175 4.011140
C 0.929764 5.010609 4.144110
C 2.091354 5.087051 4.209453
C 2.864925 4.788302 4.010897
C 4.254021 5.002075 4.080895
C 5.034927 4.980636 3.828353
C 5.941954 4.890887 3.675435
C 6.873656 4.604500 3.781239
C 0.008659 5.893463 4.419704
C 1.395667 5.952416 4.006887
C 1.953992 6.204953 4.262090
C 3.149724 6.148372 4.172844
C 3.756177 6.033000 3.887356
C 5.290107 6.149309 4.149262
C 6.123037 6.042231 4.009818
C 6.927953 5.753837 4.063137
C 0.241713 6.844218 3.821458
C 0.980533 6.940347 4.445490
C 2.086357 6.721366 3.895534
C 2.916373 6.817159 4.017588
C 4.131650 6.946456 4.253747
C 5.124214 6.993979 4.109827
C 5.874335 6.971876 4.196838
C 6.981343 6.883813 3.715758
C 0.077799 0.267128 5.364907
C 0.712662 0.227898 4.747996
C 1.997268 0.116197 4.751070
C 2.685291 0.046843 4.696947
C 4.036765 0.174444 5.015981
C 5.289211 0.148014 5.197453
C 5.879930 0.383154 4.764710
C 6.803488 0.111072 5.328639
C 0.104573 0.774925 4.763495
C 1.307839 0.879631 4.964733
C 2.118532 0.832326 5.205964
C 3.133312 1.047311 5.215980
C 3.907508 0.887366 4.874617
C 4.828958 1.241490 5.049671
C 5.844010 0.755136 5.225174
C 6.843757 0.721516 4.950947
C 0.169221 2.175532 4.916974
C 1.082809 1.994622 5.029742
C 1.909644 2.194456 4.788654
C 3.135511 2.090281 5.131381
C 3.855419 1.731533 5.015263
C 5.161857 1.985332 5.229944
C 6.405579 1.836340 4.866409
C 6.874980 1.771226 5.293962
C 0.137490 2.859842 5.206117
C 1.276011 3.138060 5.035077
C 1.990964 2.901816 5.145428
C 2.997375 3.064570 5.367459
C 4.109675 3.151444 5.290430
C 4.778468 3.158867 5.057762
C 5.784779 2.853034 4.837715
C 6.790371 2.741221 4.883841
C 0.039813 4.080193 5.149232
C 1.169869 3.877306 5.109790
C 1.962529 4.102641 4.825962
C 2.969252 4.076962 4.631668
C 4.244263 3.959883 4.874303
C 4.896816 4.120174 5.169674
C 6.145574 4.102915 4.844515
C 6.877458 4.046597 4.853795
C 0.036751 4.852781 4.691986
C 0.750299 4.835424 5.196800
C 2.120941 4.891989 5.309523
C 3.152356 4.680458 4.989982
C 4.193949 5.118702 4.882106
C 4.791614 4.842675 5.235505
C 6.196243 4.897218 4.960109
C 6.951881 4.775261 5.012398
C 0.242899 5.790995 5.166495
C 0.966580 5.964454 5.350950
C 2.153867 5.982179 5.096990
C 3.021017 5.990296 5.264797
C 3.857784 6.105287 5.360291
C 4.907792 6.048627 4.986271
C 6.015250 5.833681 5.143042
C 6.940089 5.703183 5.002051
C 0.123025 6.707151 4.532789
C 1.012526 6.781076 5.151754
C 2.183600 6.883594 5.192335
C 2.867674 6.897572 5.312741
C 4.190976 6.806490 5.239787
C 5.224580 6.958790 4.841199
C 5.875085 6.987312 5.059070
C 6.576965 6.923223 5.200184
C 0.304408 0.191234 6.027207
C 0.980426 0.254050 5.721299
C 1.756990 0.078381 5.855336
C 2.989613 0.008016 5.682784
C 4.048474 0.080838 5.940494
C 4.685200 0.025247 5.671642
C 5.838916 0.033906 5.778386
C 6.647767 0.448412 6.509238
C 0.220731 1.179102 6.212791
C 0.917920 1.168968 6.080393
C 1.904527 0.849086 5.957492
C 2.860475 1.098518 5.845268
C 4.031522 1.231230 5.877942
C 4.872850 0.975723 6.308985
C 6.231804 0.886895 5.998427
C 6.981903 0.984419 5.821335
C 0.102930 2.198633 6.253085
C 0.859900 1.838100 6.346624
C 2.087779 1.918320 6.158068
C 3.198996 2.126633 5.941374
C 3.964768 2.198493 6.120445
C 5.374753 2.178793 6.029505
C 6.151852 1.843654 5.986754
C 6.839594 2.126672 6.231570
C 0.020935 2.867206 5.946895
C 1.321758 2.826929 6.228503
C 1.963189 2.839044 5.965317
C 2.904688 2.818276 6.240063
C 4.093332 2.818091 5.893165
C 4.939325 2.831017 5.754858
C 6.165482 2.881698 6.032154
C 6.833143 3.051996 5.886469
C 0.337534 4.149307 5.806995
C 1.145621 4.068222 5.803954
C 1.807949 4.093390 6.042542
C 3.019164 3.787519 5.936056
C 4.226310 4.013984 5.878470
C 5.091931 3.779321 6.050294
C 6.191308 4.277528 5.981061
C 6.915574 3.767225 5.685895
C 0.131860 5.144497 6.017750
C 1.076766 4.760532 6.166257
C 2.268883 4.901921 6.007716
C 3.114955 4.892495 5.987662
C 4.217824 4.845265 6.190926
C 5.170365 5.186093 5.731430
C 5.956133 4.907941 5.927797
C 6.985856 5.166276 5.932877
C 0.089193 6.212291 5.642206
C 1.328523 6.075127 6.067723
C 2.086908 6.058144 6.016832
C 2.748685 6.332825 6.053255
C 3.968775 6.148302 6.109955
C 4.980279 5.794900 5.954149
C 5.879910 6.188265 5.730287
C 6.820268 5.988359 5.792298
C 0.206902 6.890023 5.695826
C 1.374161 6.914203 6.057989
C 2.284506 6.978584 5.913004
C 2.767139 6.957120 6.335774
C 3.860667 6.859160 5.924452
C 4.826724 6.963687 5.641854
C 5.783419 6.920411 5.734625
C 6.883957 6.946837 6.011727
C 0.428113 0.375002 6.922484
C 1.161831 0.051217 6.590988
C 1.845442 0.193169 6.753887
C 3.015218 0.401151 6.986671
C 4.155713 0.405879 6.924514
C 5.062084 0.285986 6.594170
C 5.850314 0.358449 6.899879
C 6.852758 0.041990 6.959357
C 0.017759 0.689523 6.574953
C 0.782031 1.044802 6.906690
C 2.303665 0.774941 6.824659
C 3.210490 1.072588 6.966152
C 4.094260 1.403421 6.729428
C 4.825856 0.781712 6.986241
C 5.908163 1.341066 6.938199
C 6.633430 1.275915 6.849459
C 0.257181 1.723841 6.827882
C 1.181619 1.867098 6.939407
C 2.135469 2.179194 6.959378
C 3.248059 2.343089 6.891637
C 3.714135 1.937196 6.734032
C 4.996630 1.730758 6.948201
C 6.000081 2.133085 6.710819
C 6.859096 1.966739 6.968959
C 0.101580 2.541370 6.943433
C 0.902458 3.161758 6.750927
C 2.042117 3.033630 6.627522
C 3.130300 3.031662 6.852738
C 3.726479 3.329588 6.851239
C 5.139224 2.880344 6.953452
C 6.006562 2.860996 6.825686
C 6.786884 3.084579 6.763240
C 0.036052 4.087067 6.578801
C 1.106945 4.101274 6.794740
C 2.204456 3.647132 6.939362
C 2.837997 3.878087 6.917007
C 4.163622 3.821790 6.774359
C 5.082904 3.921784 6.717053
C 6.133924 3.574144 6.898854
C 6.706030 4.267478 6.999480
C 0.294967 4.841823 6.861128
C 0.987345 5.142423 6.659393
C 2.163995 5.191674 6.839729
C 3.155978 5.307457 6.975508
C 3.849337 5.076795 6.780948
C 4.844572 5.117870 6.820955
C 6.005609 5.153504 6.796829
C 6.795624 4.949835 6.918620
C 0.050141 6.116436 6.813138
C 1.298832 6.109235 6.908734
C 1.899240 5.819667 6.731361
C 3.279004 5.936088 6.779175
C 4.075542 6.103897 6.805412
C 4.821650 6.069558 6.824809
C 5.983492 6.134266 6.732010
C 6.687643 5.719386 6.966049
C 0.458585 6.702901 6.505456
C 0.943757 6.984977 6.866096
C 1.903924 6.965065 6.810458
C 2.918632 6.650169 6.956520
C 4.156576 6.952553 6.896790
C 5.274838 6.936100 6.839029
C 6.068303 6.860039 6.754699
C 6.881938 6.404044 6.947869
512
Frame 9/10
C 0.245463 0.159359 0.283165
C 0.981669 0.653538 0.551751
C 1.632725 0.256348 0.356979
C 3.058258 0.236666 0.045652
C 4.392099 0.192857 0.286577
C 5.303405 0.045895 0.469858
C 5.799066 0.151363 0.048038
C 6.956608 0.242699 0.295375
C 0.074334 1.511693 0.332920
C 1.012935 1.097113 0.079461
C 2.259487 1.236826 0.096866
C 2.985242 1.024136 0.406846
C 3.727848 0.730925 0.021828
C 5.247785 1.201903 0.055103
C 5.871319 0.980534 0.144360
C 6.668052 0.930139 0.437810
C 0.398549 2.157755 0.444132
C 1.149324 1.703723 0.381068
C 2.132790 1.916731 0.444059
C 3.472075 1.827310 0.225505
C 4.113884 2.333412 0.237579
C 4.794630 1.701684 0.003935
C 5.894883 2.170065 0.127976
C 6.856546 2.132068 0.172060
C 0.111185 2.718410 0.491098
C 0.799836 2.818243 0.037901
C 1.938739 3.066013 0.051216
C 2.827553 3.249958 0.018530
C 3.975087 3.311530 0.059879
C 5.044380 3.099513 0.068958
C 6.169795 3.253014 0.189761
C 6.939266 2.894617 0.006128
C 0.353883 3.776066 0.614852
C 1.099271 3.647273 0.375150
C 2.206205 4.214036 0.318386
C 2.831019 4.332897 0.169412
C 3.892851 3.962584 0.420247
C 4.538194 4.177902 0.117310
C 6.171271 4.174063 0.331081
C 6.735430 3.774249 0.170911
C 0.155834 4.888891 0.415795
C 0.748309 5.353514 0.165626
C 1.687247 5.294850 0.149202
C 3.318031 5.145229 0.123651
C 3.989107 4.768880 0.217201
C 4.702846 5.404164 0.188877
C 6.142878 5.318341 0.531695
C 6.976416 4.890101 0.277979
C 0.329110 5.911119 0.290214
C 0.957334 5.966688 0.164629
C 1.959311 5.877635 0.042178
C 3.449385 5.968095 0.014272
C 4.057628 5.683783 0.269268
C 4.655480 6.150023 0.057614
C 6.125336 6.035449 0.070533
C 6.779203 5.639176 0.596195
C 0.546907 6.522207 0.229633
C 1.377272 6.894706 0.041257
C 2.280540 6.532991 0.118191
C 3.017190 6.774295 0.051659
C 3.802024 6.669250 0.036168
C 5.221572 6.908428 0.039526
C 5.878429 6.774888 0.215341
C 6.956523 6.344508 0.329705
C 0.107921 0.125469 1.193508
C 1.096575 0.220683 1.205971
C 1.763544 0.097764 1.181159
C 3.247450 0.006552 0.810837
C 3.929277 0.073858 1.202120
C 4.950792 0.077436 1.227689
C 6.114560 0.021507 0.713033
C 6.495933 0.447955 1.006535
C 0.135794 0.839307 0.857271
C 0.877535 1.170960 1.059497
C 2.141806 1.281438 0.872012
C 3.058709 1.239887 1.356650
C 3.902008 1.089063 1.113952
C 5.308690 0.970931 0.756590
C 5.895418 0.712601 0.831099
C 6.943314 1.370560 0.976095
C 0.155274 2.122112 1.169075
C 1.062448 2.184899 0.860684
C 2.039926 1.942720 1.402896
C 3.174438 2.161841 0.788277
C 3.931561 2.103536 0.895219
C 4.994122 2.013112 1.212871
C 5.799230 2.080257 0.982265
C 6.926193 2.150981 0.848982
C 0.082373 3.203536 0.932488
C 0.902588 2.790337 1.209610
C 1.891088 2.979833 1.220366
C 2.928590 2.862279 0.853931
C 4.094235 2.947436 1.269020
C 5.005767 3.182691 0.724766
C 5.784446 2.910158 0.921533
C 6.677199 2.890648 1.175575
C 0.029717 4.435158 1.180220
C 0.724168 4.081829 1.212793
C 2.042569 4.252189 1.037540
C 3.019174 4.150720 1.189600
C 4.084121 3.994681 1.138034
C 4.955398 4.201191 0.744508
C 6.321759 3.898104 1.048245
C 6.959589 3.729197 1.206372
C 0.391434 5.041957 1.208385
C 0.986307 5.241444 0.794192
C 2.023897 5.264864 0.685677
C 3.210565 4.857454 1.187810
C 3.954551 4.863782 0.887444
C 5.327785 5.119679 0.924040
C 5.949705 4.753973 1.097482
C 6.964912 4.607779 1.090276
C 0.088891 6.242677 1.256227
C 0.679817 6.128964 0.897486
C 1.837836 5.898918 0.935083
C 2.822613 5.979991 1.230919
C 3.625039 6.191074 1.259643
C 4.893481 5.860911 1.428743
C 6.124219 5.954960 1.059369
C 6.845027 6.232150 0.968906
C 0.073740 6.628698 0.627879
C 0.954012 6.995526 1.247516
C 1.800938 6.961676 0.583942
C 3.445681 6.921507 0.867807
C 4.039038 6.710791 0.753093
C 5.157876 6.991621 0.941506
C 6.201131 6.875399 0.809911
C 6.972707 6.908879 0.864950
C 0.026964 0.082183 2.004043
C 1.003971 0.038858 2.278726
C 2.304008 0.040013 2.127669
C 3.032123 0.191423 1.833148
C 4.066840 0.120540 2.218352
C 4.880779 0.311583 1.894767
C 6.091118 0.207010 2.061915
C 6.899325 0.301873 2.383030
C 0.199067 0.811612 1.936099
C 1.086948 0.966494 1.934457
C 1.827775 1.287777 2.271782
C 3.166347 1.041864 2.329148
C 4.159950 1.182544 2.068366
C 5.025714 1.197346 2.097893
C 5.693845 1.150103 1.831730
C 6.917089 1.000605 1.755938
C 0.285489 1.892472 2.076041
C 1.172055 1.630629 2.069486
C 1.969298 1.932001 2.398694
C 2.720039 2.076049 1.735210
C 3.737412 2.220199 2.086114
C 4.718824 1.817523 2.063576
C 6.052335 1.733873 1.783303
C 6.984180 1.995002 2.148787
C 0.146248 2.549607 1.820774
C 1.307589 2.778164 1.999589
C 1.979703 2.777166 1.983477
C 2.755775 2.738181 1.998753
C 3.741148 2.857276 1.861415
C 4.630951 3.101516 2.056036
C 5.906366 3.034987 2.050483
C 6.683479 2.944130 1.921389
C 0.201090 4.182944 1.769348
C 1.220676 3.943863 1.689723
C 1.837460 3.675261 1.880150
C 3.155162 4.122116 2.227406
C 4.240763 3.967307 2.154498
C 4.898477 3.788003 1.741183
C 6.037591 3.772769 1.766790
C 6.744768 3.719602 2.023098
C 0.057483 4.924500 1.738812
C 0.928129 4.908504 2.248014
C 1.917682 5.356806 2.014528
C 2.960268 5.195353 2.136085
C 3.868870 5.018732 2.254234
C 5.162491 5.262291 2.032848
C 5.825851 5.080651 1.627242
C 6.674829 4.782264 1.879576
C 0.140640 5.844289 2.137787
C 1.226889 5.868396 1.670202
C 1.605820 6.337894 1.955674
C 2.831674 6.088780 1.952661
C 3.706330 6.102856 1.966302
C 4.871409 6.119501 2.377928
C 5.809071 5.925549 2.113795
C 6.932030 6.157385 2.011429
C 0.269197 6.908346 1.690219
C 1.315333 6.977652 2.268041
C 2.041608 6.810366 1.630729
C 3.161532 6.817366 1.978705
C 4.060954 6.972374 1.691855
C 4.801514 6.773253 2.145699
C 6.019391 6.986103 2.158060
C 6.944119 6.965930 1.920923
C 0.078970 0.412716 3.090608
C 0.726635 0.113926 3.018544
C 1.771517 0.380860 2.594154
C 2.783449 0.048032 3.171104
C 3.750094 0.018171 2.936074
C 5.104902 0.190135 3.002212
C 6.206080 0.172041 2.929494
C 6.734933 0.100237 3.329501
C 0.042214 1.281281 2.432066
C 1.152237 0.714120 2.865958
C 2.169843 0.826014 2.853645
C 3.086621 0.621572 3.070061
C 4.160220 0.720532 2.810592
C 4.908166 0.875326 2.749564
C 6.046882 0.985596 3.249940
C 6.955791 1.232416 3.015384
C 0.042471 1.936170 3.203608
C 0.919570 2.306344 2.944836
C 2.079848 1.784997 3.082399
C 3.213159 1.976995 2.821112
C 4.219922 2.032223 3.293509
C 5.253762 2.021079 2.893754
C 6.198757 1.775143 2.709227
C 6.904926 1.875181 2.805904
C 0.161294 2.926790 2.904148
C 0.952874 2.894036 3.372737
C 1.973584 2.888180 2.657103
C 2.601209 2.876613 3.082587
C 4.235004 2.991359 2.880566
C 4.910053 3.057030 2.817645
C 5.846053 2.922599 2.692456
C 6.889499 2.925538 2.827327
C 0.022201 3.846395 3.329065
C 1.104304 3.756332 2.732615
C 2.082301 4.235064 2.978293
C 3.011090 3.938548 3.244694
C 3.884813 3.972114 2.841619
C 4.789846 4.161142 2.688780
C 6.109403 3.877619 2.716381
C 6.780096 3.693425 2.903938
C 0.080046 4.896783 3.297970
C 0.671381 5.085834 2.947078
C 2.259340 5.060049 2.753476
C 2.853519 5.018107 3.005222
C 4.175778 5.058624 2.883578
C 4.968249 5.234190 2.988715
C 5.739694 4.871917 3.014242
C 6.791266 5.108419 3.280073
C 0.157911 6.105540 2.913536
C 1.058312 6.024373 2.888836
C 2.139235 6.093024 3.007905
C 2.917713 5.923032 2.828773
C 4.419647 6.087177 3.104953
C 5.206893 6.020378 3.229576
C 6.032419 6.143748 2.980288
C 6.856929 5.725751 3.095000
C 0.336497 6.875635 2.705725
C 0.776852 6.831524 3.221009
C 2.440862 6.941317 2.740806
C 2.739278 6.851174 3.341382
C 4.099706 6.945525 2.971768
C 4.997329 6.741480 2.884098
C 5.754057 6.717860 2.836477
C 6.976464 6.718948 2.874402
C 0.091400 0.507566 4.020387
C 1.128040 0.039183 3.883294
C 2.160585 0.106575 4.067403
C 3.400215 0.016089 4.010717
C 4.327180 0.033638 4.113835
C 5.106756 0.087635 4.470138
C 6.206693 0.235129 4.206312
C 6.808428 0.524948 4.169267
C 0.055104 1.077730 3.690348
C 1.007296 0.859671 4.309809
C 1.874351 1.181865 3.894407
C 3.332206 0.742748 3.981502
C 3.879612 1.112907 3.741691
C 4.714194 0.870658 3.940269
C 5.908795 0.843584 3.969378
C 6.998687 1.407552 3.847351
C 0.075609 2.250285 3.956921
C 0.826685 2.096874 3.954461
C 1.907184 1.912991 3.991106
C 2.708849 1.865953 3.939488
C 4.291224 2.146121 4.055054
C 4.893833 1.795250 3.917883
C 5.988502 1.990170 4.210555
C 6.916991 1.954479 4.231472
C 0.274051 2.884054 3.916183
C 1.360542 2.767643 4.001238
C 1.896340 3.114388 3.614122
C 3.038561 2.920031 4.179236
C 4.062044 3.199460 3.774892
C 5.275928 3.118801 4.349120
C 6.046465 3.052724 3.813948
C 6.852944 3.153572 3.984446
C 0.028117 3.889872 4.132825
C 1.167741 4.289785 4.153830
C 2.042631 4.123599 3.644346
C 3.131116 3.583663 3.820963
C 4.010858 4.393103 3.956085
C 4.675680 4.171848 3.970444
C 5.719307 4.075898 3.912390
C 6.604528 4.041395 4.081636
C 0.180540 5.191057 4.012732
C 0.919730 5.012125 4.164697
C 2.104404 5.099487 4.239375
C 2.845629 4.758059 4.012454
C 4.290310 5.002372 4.092451
C 5.039917 4.977870 3.803832
C 5.933662 4.875300 3.629068
C 6.855607 4.548000 3.749987
C 0.009896 5.878243 4.479662
C 1.452191 5.945618 4.007871
C 1.947420 6.234232 4.299532
C 3.171113 6.169568 4.197537
C 3.721346 6.037715 3.871263
C 5.331550 6.170638 4.170585
C 6.140614 6.048264 4.011221
C 6.917661 5.718671 4.072157
C 0.276244 6.821963 3.795951
C 0.977752 6.931825 4.509131
C 2.098693 6.681561 3.880610
C 2.904426 6.791039 4.020101
C 4.150457 6.938807 4.289997
C 5.141959 6.993119 4.125517
C 5.856383 6.967858 4.224958
C 6.978678 6.867215 3.675152
C 0.088914 0.305289 5.417036
C 0.671614 0.260455 4.711995
C 1.996878 0.132797 4.715509
C 2.640333 0.053535 4.653653
C 4.042017 0.199365 5.018264
C 5.330527 0.169159 5.225660
C 5.862777 0.437891 4.731097
C 6.775415 0.126939 5.375587
C 0.119513 0.742772 4.729709
C 1.351816 0.862436 4.959694
C 2.135465 0.808372 5.235387
C 3.152357 1.054070 5.246834
C 3.894294 0.871275 4.856705
C 4.804523 1.275989 5.056767
C 5.821726 0.720155 5.257342
C 6.821437 0.681732 4.943939
C 0.193395 2.200608 4.905114
C 1.094639 1.993854 5.033991
C 1.896736 2.222235 4.758462
C 3.154869 2.103178 5.150149
C 3.834765 1.693181 5.017443
C 5.184979 1.983236 5.262793
C 6.463519 1.812960 4.847324
C 6.857120 1.738544 5.335956
C 0.157131 2.839820 5.235563
C 1.315441 3.157783 5.040088
C 1.989674 2.887790 5.166203
C 2.997000 3.073794 5.419953
C 4.125342 3.173078 5.331920
C 4.746821 3.181562 5.066013
C 5.754033 2.832039 4.814532
C 6.760424 2.704252 4.867247
C 0.045500 4.091649 5.170551
C 1.194136 3.859778 5.125475
C 1.957176 4.117304 4.801099
C 2.964860 4.087957 4.579049
C 4.279157 3.954152 4.856346
C 4.882076 4.137341 5.193913
C 6.166370 4.117617 4.822303
C 6.859952 4.053254 4.832908
C 0.042001 4.831750 4.647984
C 0.714627 4.811913 5.224914
C 2.138219 4.876559 5.353740
C 3.174121 4.634809 4.988551
C 4.221656 5.135659 4.865264
C 4.761845 4.820200 5.269148
C 6.224277 4.882535 4.954410
C 6.945007 4.743156 5.014169
C 0.277599 5.761137 5.190280
C 0.961806 5.959376 5.401086
C 2.175848 5.979633 5.110846
C 3.024020 5.988909 5.302625
C 3.837468 6.120328 5.411761
C 4.894619 6.055574 4.984310
C 6.017429 5.809921 5.163476
C 6.931531 5.660781 5.002344
C 0.140600 6.665316 4.466045
C 1.014316 6.749802 5.173433
C 2.209829 6.866965 5.219812
C 2.848771 6.882939 5.357419
C 4.218258 6.778845 5.274042
C 5.256663 6.952903 4.818513
C 5.857240 6.985499 5.067508
C 6.516531 6.912255 5.228782
C 0.347895 0.218553 6.031094
C 0.977630 0.290343 5.681485
C 1.722275 0.089579 5.834669
C 2.988130 0.009161 5.637467
C 4.055399 0.092387 5.931994
C 4.640228 0.028854 5.624734
C 5.815904 0.038749 5.746727
C 6.597448 0.512471 6.581986
C 0.252264 1.204688 6.243190
C 0.906194 1.193106 6.091878
C 1.890888 0.827527 5.951419
C 2.840543 1.112592 5.823164
C 4.036026 1.264262 5.860505
C 4.854686 0.972254 6.353125
C 6.264919 0.870737 5.998202
C 6.979318 0.982193 5.795811
C 0.117634 2.227009 6.289239
C 0.839886 1.814972 6.396142
C 2.100319 1.906652 6.180649
C 3.227424 2.144724 5.932999
C 3.959735 2.226849 6.137651
C 5.428289 2.204335 6.033720
C 6.173545 1.821319 5.984862
C 6.816678 2.144768 6.264652
C 0.023926 2.848236 5.939308
C 1.367723 2.802205 6.261147
C 1.957930 2.816050 5.960362
C 2.891072 2.792315 6.274358
C 4.106665 2.792104 5.877903
C 4.930657 2.806876 5.719838
C 6.189122 2.864797 6.036747
C 6.809306 3.059424 5.870250
C 0.385753 4.170636 5.779422
C 1.166424 4.077968 5.775947
C 1.780513 4.106731 6.048620
C 3.021901 3.757165 5.926921
C 4.258640 4.015982 5.861108
C 5.105064 3.747796 6.057479
C 6.218637 4.317174 5.978356
C 6.903513 3.733971 5.641022
C 0.150697 5.165139 6.020285
C 1.087733 4.726323 6.190008
C 2.307295 4.887910 6.008818
C 3.131377 4.877137 5.985900
C 4.248942 4.823160 6.218201
C 5.194702 5.212678 5.693063
C 5.949866 4.894789 5.917482
C 6.983835 5.190030 5.923288
C 0.101934 6.242618 5.591093
C 1.375455 6.085859 6.077398
C 2.099323 6.066450 6.019237
C 2.712783 6.380372 6.060863
C 3.964314 6.169488 6.125663
C 4.977462 5.765601 5.947599
C 5.862755 6.215160 5.691757
C 6.794592 5.986696 5.762626
C 0.236459 6.874312 5.652373
C 1.427612 6.901946 6.066273
C 2.325150 6.975524 5.900576
C 2.733873 6.950994 6.383742
C 3.840762 6.839040 5.913660
C 4.801971 6.958499 5.590690
C 5.752479 6.909041 5.696715
C 6.867380 6.939242 6.013403
C 0.489272 0.428573 6.911410
C 1.184950 0.058533 6.532557
C 1.823362 0.220765 6.718729
C 3.017392 0.458458 6.984767
C 4.177957 0.463862 6.913731
C 5.070953 0.326841 6.536194
C 5.828930 0.409656 6.885576
C 6.831723 0.047989 6.953551
C 0.020296 0.645169 6.514232
C 0.750893 1.051202 6.893360
C 2.347045 0.742789 6.799610
C 3.240560 1.082957 6.961317
C 4.107726 1.461053 6.690775
C 4.800978 0.750528 6.984275
C 5.895044 1.389790 6.929370
C 6.581063 1.315332 6.827953
C 0.293921 1.684390 6.803294
C 1.207564 1.848112 6.930750
C 2.154822 2.204793 6.953575
C 3.283496 2.392102 6.876156
C 3.673298 1.928224 6.696036
C 4.996148 1.692294 6.940801
C 6.000092 2.152097 6.669507
C 6.838967 1.961987 6.964524
C 0.116091 2.475851 6.935352
C 0.888523 3.184867 6.715345
C 2.048133 3.038435 6.574311
C 3.148914 3.036185 6.831700
C 3.687404 3.376672 6.829987
C 5.159113 2.863251 6.946802
C 6.007499 2.841138 6.800784
C 6.756438 3.096662 6.729417
C 0.041203 4.099505 6.518630
C 1.122223 4.115742 6.765417
C 2.233664 3.596722 6.930699
C 2.814854 3.860671 6.905151
C 4.186997 3.796332 6.742124
C 5.094747 3.910611 6.676632
C 6.153056 3.513308 6.884404
C 6.664035 4.305690 6.999406
C 0.337105 4.819227 6.841290
C 0.985537 5.162769 6.610735
C 2.187423 5.219056 6.816833
C 3.178261 5.351379 6.972009
C 3.827814 5.087766 6.749654
C 4.822368 5.134709 6.795377
C 6.006410 5.175433 6.767804
C 6.766427 4.942669 6.906994
C 0.057304 6.133069 6.786444
C 1.341522 6.124840 6.895695
C 1.884846 5.793905 6.692983
C 3.318862 5.926957 6.747628
C 4.086333 6.118739 6.777614
C 4.796171 6.079495 6.799781
C 5.981134 6.153447 6.693725
C 6.643020 5.679299 6.961199
C 0.524097 6.660459 6.434807
C 0.935722 6.982831 6.846967
C 1.890199 6.960074 6.783381
C 2.907008 6.600193 6.950308
C 4.178944 6.945774 6.882046
C 5.314101 6.926972 6.816033
C 6.078060 6.840044 6.719656
C 6.865072 6.318908 6.940422
512
Frame 10/10
C 0.276146 0.179279 0.318561
C 0.979378 0.735230 0.620720
C 1.586816 0.288392 0.401601
C 3.065540 0.266249 0.051359
C 4.441112 0.216964 0.322399
C 5.341331 0.051632 0.528591
C 5.773949 0.170283 0.054043
C 6.951184 0.273036 0.332297
C 0.083626 1.575655 0.374535
C 1.014551 1.109252 0.089394
C 2.291923 1.266429 0.108974
C 2.983397 1.027153 0.457702
C 3.693829 0.697290 0.024556
C 5.278758 1.227141 0.061991
C 5.855234 0.978101 0.162405
C 6.626558 0.921407 0.492536
C 0.448368 2.177474 0.499648
C 1.167989 1.666689 0.428701
C 2.149388 1.906322 0.499566
C 3.531085 1.805724 0.253693
C 4.128119 2.375088 0.267277
C 4.768959 1.664395 0.004426
C 5.881743 2.191323 0.143973
C 6.838614 2.148576 0.193568
C 0.125083 2.683211 0.552485
C 0.774816 2.795523 0.042639
C 1.931081 3.074265 0.057618
C 2.805997 3.281203 0.020847
C 3.971973 3.350471 0.067364
C 5.049928 3.111952 0.077578
C 6.191019 3.284641 0.213482
C 6.931675 2.881444 0.006894
C 0.398119 3.748074 0.691709
C 1.111680 3.603182 0.422044
C 2.231980 4.240791 0.358184
C 2.809896 4.374509 0.190589
C 3.879457 3.957907 0.472778
C 4.480468 4.200140 0.131974
C 6.192679 4.195821 0.372466
C 6.702359 3.746030 0.192274
C 0.175314 4.875002 0.467769
C 0.716848 5.397703 0.186330
C 1.648153 5.331706 0.167853
C 3.357785 5.163383 0.139107
C 3.987746 4.739990 0.244351
C 4.665701 5.454685 0.212486
C 6.160737 5.358134 0.598157
C 6.973468 4.876363 0.312726
C 0.370248 5.900009 0.326491
C 0.952000 5.962524 0.185208
C 1.954225 5.862340 0.047451
C 3.505558 5.964107 0.016056
C 4.064832 5.644256 0.302926
C 4.612415 6.168776 0.064815
C 6.141003 6.039880 0.079349
C 6.751603 5.594073 0.670719
C 0.615270 6.462483 0.258337
C 1.424431 6.881545 0.046414
C 2.315608 6.474615 0.132965
C 3.019339 6.746082 0.058116
C 3.777277 6.627906 0.040690
C 5.249268 6.896982 0.044467
C 5.863233 6.746749 0.242259
C 6.951088 6.262571 0.370918
C 0.121411 0.141153 1.217697
C 1.108646 0.248269 1.231717
C 1.733987 0.109985 1.203804
C 3.278381 0.007371 0.787191
C 3.920437 0.083090 1.227385
C 4.944641 0.087116 1.256151
C 6.128880 0.024195 0.677162
C 6.432925 0.503949 1.007352
C 0.152769 0.819220 0.839430
C 0.862227 1.192331 1.066934
C 2.159532 1.316618 0.856014
C 3.066047 1.269873 1.401231
C 3.889759 1.100196 1.128197
C 5.347277 0.967297 0.726164
C 5.882346 0.676677 0.809987
C 6.936228 1.416880 0.973107
C 0.174684 2.137377 1.190209
C 1.070254 2.208011 0.843269
C 2.044917 1.935560 1.453258
C 3.196243 2.182071 0.761812
C 3.923007 2.116478 0.882121
C 4.993388 2.014751 1.239480
C 5.774134 2.090289 0.980048
C 6.916967 2.169853 0.830104
C 0.092670 3.228978 0.924049
C 0.890411 2.764129 1.235811
C 1.877475 2.977312 1.247911
C 2.919664 2.845064 0.835672
C 4.106014 2.940866 1.302647
C 5.006488 3.205527 0.690362
C 5.757502 2.898928 0.911725
C 6.636849 2.876979 1.197522
C 0.033432 4.489553 1.202748
C 0.689689 4.092057 1.239392
C 2.047890 4.283713 1.042233
C 3.021571 4.169560 1.213300
C 4.094636 3.994016 1.155289
C 4.949822 4.226340 0.712572
C 6.361979 3.885366 1.054276
C 6.954537 3.695346 1.232169
C 0.440364 5.047201 1.234433
C 0.984595 5.271624 0.768466
C 2.026884 5.297971 0.646387
C 3.236886 4.839635 1.211286
C 3.948869 4.846755 0.873374
C 5.368758 5.134639 0.914545
C 5.943419 4.723219 1.109668
C 6.960526 4.558752 1.101560
C 0.100002 6.273011 1.288255
C 0.639794 6.145084 0.884671
C 1.817565 5.886283 0.926968
C 2.800439 5.977490 1.259784
C 3.578169 6.214958 1.292098
C 4.880166 5.843525 1.482336
C 6.139746 5.949330 1.066790
C 6.825656 6.261169 0.965019
C 0.082957 6.582286 0.581364
C 0.948264 6.994967 1.278456
C 1.776055 6.956886 0.531935
C 3.501391 6.911696 0.851283
C 4.043917 6.674639 0.722230
C 5.177610 6.990574 0.934194
C 6.226272 6.859824 0.786150
C 6.969296 6.897489 0.848068
C 0.030334 0.092456 2.004548
C 1.004467 0.043715 2.313567
C 2.342009 0.045015 2.143628
C 3.036138 0.215351 1.812292
C 4.075195 0.135607 2.245646
C 4.865876 0.350531 1.881613
C 6.102508 0.232886 2.069654
C 6.886740 0.339607 2.430908
C 0.223950 0.788063 1.928111
C 1.097817 0.962305 1.926264
C 1.806246 1.323749 2.305755
C 3.187140 1.047097 2.370291
C 4.179944 1.205362 2.076912
C 5.028928 1.222014 2.110130
C 5.655576 1.168866 1.810697
C 6.906725 1.000681 1.725430
C 0.321175 1.879031 2.085546
C 1.193562 1.584457 2.078172
C 1.965460 1.923502 2.448531
C 2.685044 2.085555 1.702112
C 3.704588 2.247724 2.096878
C 4.683677 1.794713 2.071523
C 6.058877 1.700607 1.756216
C 6.982203 1.994377 2.167386
C 0.164529 2.493308 1.798371
C 1.346038 2.750434 1.999537
C 1.977166 2.749312 1.981412
C 2.725246 2.705453 1.998597
C 3.708791 2.839435 1.844092
C 4.584819 3.114206 2.063041
C 5.894662 3.039360 2.056793
C 6.643914 2.937146 1.911563
C 0.226226 4.205812 1.740517
C 1.248261 3.936846 1.650938
C 1.817143 3.634668 1.865169
C 3.174557 4.137380 2.255831
C 4.270859 3.963220 2.173810
C 4.885787 3.761503 1.708830
C 6.042290 3.744365 1.737638
C 6.712864 3.684552 2.025985
C 0.064669 4.915062 1.706164
C 0.919145 4.897067 2.279015
C 1.907393 5.401407 2.016344
C 2.955302 5.219772 2.153095
C 3.852479 5.021074 2.286013
C 5.182802 5.295078 2.036954
C 5.804083 5.090733 1.580647
C 6.634183 4.755047 1.864523
C 0.158220 5.824825 2.155010
C 1.255251 5.851946 1.628978
C 1.556548 6.380131 1.950133
C 2.810634 6.099878 1.946743
C 3.669621 6.115712 1.962090
C 4.855336 6.134439 2.425170
C 5.785205 5.916242 2.128019
C 6.923534 6.177058 2.012858
C 0.302847 6.896889 1.651496
C 1.354750 6.974858 2.301546
C 2.046809 6.786661 1.584570
C 3.181724 6.794536 1.976044
C 4.068573 6.968921 1.653337
C 4.776703 6.744909 2.163912
C 6.021815 6.984366 2.177817
C 6.937134 6.961671 1.911038
C 0.088842 0.464305 3.101934
C 0.692465 0.128167 3.020862
C 1.742957 0.428468 2.543423
C 2.756380 0.054036 3.192492
C 3.718856 0.020442 2.928084
C 5.118015 0.213902 3.002489
C 6.231840 0.193547 2.920680
C 6.701800 0.112767 3.370688
C 0.047490 1.316441 2.361074
C 1.171266 0.678385 2.849203
C 2.191074 0.804266 2.835351
C 3.097449 0.574268 3.078818
C 4.180247 0.685598 2.786916
C 4.896687 0.859742 2.718260
C 6.052742 0.983796 3.281183
C 6.950265 1.261468 3.017308
C 0.047780 1.928191 3.229060
C 0.909517 2.344637 2.937941
C 2.089829 1.758122 3.092699
C 3.239804 1.974120 2.798750
C 4.247412 2.036251 3.330198
C 5.285482 2.023714 2.880473
C 6.223602 1.747036 2.672881
C 6.893042 1.859579 2.781642
C 0.181456 2.917638 2.892167
C 0.946983 2.880790 3.419329
C 1.970282 2.874203 2.614241
C 2.551360 2.861190 3.092910
C 4.264379 2.990279 2.865637
C 4.898810 3.064159 2.794851
C 5.826810 2.912923 2.654014
C 6.875686 2.916230 2.805743
C 0.024976 3.827194 3.370198
C 1.117342 3.725873 2.699192
C 2.092588 4.264447 2.975579
C 3.012476 3.930867 3.275281
C 3.870414 3.968628 2.821821
C 4.763576 4.181285 2.649878
C 6.123078 3.862321 2.680928
C 6.752608 3.655103 2.891930
C 0.090051 4.883881 3.335216
C 0.630303 5.096563 2.940463
C 2.291758 5.067555 2.722661
C 2.835209 5.020370 3.005874
C 4.197751 5.065953 2.869025
C 4.964280 5.263463 2.987304
C 5.707155 4.855907 3.016022
C 6.765174 5.121972 3.315082
C 0.177649 6.118733 2.902728
C 1.065601 6.027419 2.874941
C 2.156639 6.104652 3.008894
C 2.907427 5.913411 2.807370
C 4.472103 6.098075 3.118072
C 5.232755 6.022926 3.258272
C 6.036471 6.161717 2.977824
C 6.839046 5.691470 3.106876
C 0.378559 6.860089 2.668941
C 0.748959 6.810465 3.248635
C 2.495969 6.933982 2.708407
C 2.706687 6.832570 3.384054
C 4.112169 6.938715 2.968239
C 4.996995 6.709165 2.869610
C 5.723314 6.682593 2.816036
C 6.973522 6.683816 2.858702
C 0.102825 0.571011 4.022936
C 1.144045 0.044081 3.868705
C 2.180659 0.119897 4.075828
C 3.450242 0.018100 4.012057
C 4.368077 0.037843 4.128065
C 5.120100 0.098589 4.528906
C 6.232529 0.264521 4.232100
C 6.784482 0.590566 4.190426
C 0.061992 1.087447 3.651642
C 1.008208 0.842130 4.348535
C 1.858645 1.204598 3.881208
C 3.373732 0.710591 3.979190
C 3.864563 1.127020 3.709402
C 4.678468 0.854490 3.932802
C 5.897394 0.824032 3.965550
C 6.998523 1.458497 3.828270
C 0.085060 2.281571 3.951536
C 0.805021 2.108983 3.948769
C 1.895582 1.902115 3.989994
C 2.672455 1.849197 3.931924
C 4.327627 2.164386 4.061936
C 4.880562 1.769656 3.907618
C 5.987064 1.988942 4.236875
C 6.906614 1.948789 4.260406
C 0.308308 2.869561 3.905705
C 1.405610 2.738598 4.001393
C 1.883383 3.128686 3.565887
C 3.043381 2.910035 4.201640
C 4.069800 3.224393 3.746753
C 5.310419 3.133652 4.392760
C 6.052273 3.059314 3.790692
C 6.834562 3.172769 3.982502
C 0.031631 3.876106 4.149428
C 1.188708 4.326009 4.173058
C 2.047960 4.139048 3.599890
C 3.147506 3.531621 3.798583
C 4.012216 4.442241 3.950595
C 4.635140 4.193329 3.966749
C 5.684221 4.085385 3.901439
C 6.555095 4.046570 4.091840
C 0.203107 5.214939 4.014323
C 0.909696 5.013640 4.185284
C 2.117455 5.111923 4.269297
C 2.826332 4.727817 4.014011
C 4.326599 5.002668 4.104007
C 5.044907 4.975104 3.779311
C 5.925370 4.859712 3.582702
C 6.837558 4.491500 3.718735
C 0.011133 5.863024 4.539620
C 1.508715 5.938820 4.008855
C 1.940847 6.263510 4.336973
C 3.192502 6.190764 4.222229
C 3.686514 6.042429 3.855171
C 5.372994 6.191968 4.191909
C 6.158191 6.054297 4.012624
C 6.907368 5.683505 4.081177
C 0.310774 6.799709 3.770445
C 0.974971 6.923303 4.572772
C 2.111030 6.641756 3.865687
C 2.892480 6.764919 4.022613
C 4.169264 6.931158 4.326246
C 5.159704 6.992259 4.141207
C 5.838430 6.963841 4.253077
C 6.976013 6.850617 3.634546
C 0.100028 0.343450 5.469166
C 0.630565 0.293012 4.675995
C 1.996488 0.149396 4.679948
C 2.595374 0.060227 4.610360
C 4.047269 0.224285 5.020547
C 5.371843 0.190303 5.253868
C 5.845624 0.492627 4.697484
C 6.747342 0.142807 5.422536
C 0.134452 0.710618 4.695923
C 1.395793 0.845240 4.954656
C 2.152398 0.784419 5.264811
C 3.171402 1.060828 5.277689
C 3.881081 0.855184 4.838793
C 4.780088 1.310487 5.063863
C 5.799441 0.685175 5.289509
C 6.799116 0.641949 4.936932
C 0.217569 2.225684 4.893253
C 1.106469 1.993085 5.038239
C 1.883828 2.250015 4.728269
C 3.174228 2.116076 5.168918
C 3.814111 1.654828 5.019624
C 5.208102 1.981141 5.295642
C 6.521459 1.789580 4.828240
C 6.839260 1.705861 5.377951
C 0.176773 2.819797 5.265008
C 1.354872 3.177506 5.045099
C 1.988383 2.873764 5.186979
C 2.996625 3.083019 5.472447
C 4.141010 3.194713 5.373409
C 4.715173 3.204257 5.074265
C 5.723287 2.811044 4.791348
C 6.730477 2.667284 4.850653
C 0.051188 4.103105 5.191870
C 1.218403 3.842251 5.141159
C 1.951824 4.131967 4.776237
C 2.960467 4.098951 4.526430
C 4.314052 3.948421 4.838389
C 4.867335 4.154509 5.218153
C 6.187166 4.132319 4.800091
C 6.842446 4.059911 4.812022
C 0.047252 4.810719 4.603981
C 0.678956 4.788402 5.253028
C 2.155496 4.861129 5.397958
C 3.195886 4.589160 4.987119
C 4.249363 5.152617 4.848422
C 4.732075 4.797725 5.302792
C 6.252312 4.867852 4.948712
C 6.938133 4.711050 5.015940
C 0.312299 5.731279 5.214065
C 0.957032 5.954298 5.451221
C 2.197829 5.977087 5.124701
C 3.027022 5.987523 5.340453
C 3.817151 6.135368 5.463231
C 4.881447 6.062521 4.982348
C 6.019607 5.786161 5.183911
C 6.922972 5.618379 5.002637
C 0.158175 6.623480 4.399300
C 1.016105 6.718527 5.195112
C 2.236057 6.850336 5.247288
C 2.829867 6.868306 5.402096
C 4.245540 6.751201 5.308298
C 5.288746 6.947016 4.795827
C 5.839395 6.983686 5.075947
C 6.456097 6.901287 5.257380
C 0.391381 0.245872 6.034981
C 0.974833 0.326636 5.641670
C 1.687559 0.100776 5.814003
C 2.986646 0.010307 5.592151
C 4.062324 0.103935 5.923493
C 4.595257 0.032461 5.577825
C 5.792892 0.043593 5.715068
C 6.547129 0.576530 6.654734
C 0.283797 1.230274 6.273589
C 0.894468 1.217244 6.103363
C 1.877248 0.805968 5.945347
C 2.820611 1.126666 5.801059
C 4.040529 1.297295 5.843068
C 4.836521 0.968786 6.397266
C 6.298034 0.854579 5.997977
C 6.976732 0.979968 5.770288
C 0.132338 2.255385 6.325394
C 0.819872 1.791843 6.445660
C 2.112859 1.894983 6.203230
C 3.255852 2.162814 5.924624
C 3.954702 2.255205 6.154858
C 5.481825 2.229876 6.037935
C 6.195238 1.798984 5.982970
C 6.793763 2.162864 6.297733
C 0.026917 2.829265 5.931722
C 1.413688 2.777481 6.293790
C 1.952672 2.793057 5.955408
C 2.877456 2.766355 6.308652
C 4.119998 2.766117 5.862641
C 4.921989 2.782736 5.684817
C 6.212762 2.847897 6.041341
C 6.785469 3.066852 5.854032
C 0.433972 4.191966 5.751850
C 1.187227 4.087714 5.747941
C 1.753077 4.120072 6.054697
C 3.024639 3.726811 5.917786
C 4.290970 4.017980 5.843747
C 5.118197 3.716270 6.064664
C 6.245967 4.356821 5.975650
C 6.891452 3.700718 5.596150
C 0.169534 5.185781 6.022821
C 1.098699 4.692113 6.213759
C 2.345707 4.873898 6.009920
C 3.147799 4.861779 5.984137
C 4.280060 4.801055 6.245476
C 5.219040 5.239263 5.654696
C 5.943599 4.881638 5.907167
C 6.981814 5.213784 5.913699
C 0.114676 6.272945 5.539979
C 1.422387 6.096592 6.087072
C 2.111738 6.074757 6.021641
C 2.676880 6.427918 6.068471
C 3.959853 6.190674 6.141371
C 4.974645 5.736301 5.941049
C 5.845599 6.242055 5.653227
C 6.768916 5.985032 5.732954
C 0.266016 6.858601 5.608919
C 1.481064 6.889689 6.074557
C 2.365794 6.972465 5.888148
C 2.700607 6.944868 6.431709
C 3.820857 6.818920 5.902867
C 4.777217 6.953311 5.539526
C 5.721539 6.897672 5.658804
C 6.850802 6.931647 6.015078
C 0.550431 0.482145 6.900337
C 1.208069 0.065850 6.474127
C 1.801283 0.248360 6.683570
C 3.019566 0.515765 6.982863
C 4.200202 0.521845 6.902947
C 5.079823 0.367696 6.478218
C 5.807547 0.460863 6.871272
C 6.810688 0.053987 6.947745
C 0.022833 0.600815 6.453511
C 0.719755 1.057603 6.880030
C 2.390426 0.710638 6.774561
C 3.270630 1.093327 6.956482
C 4.121192 1.518684 6.652122
C 4.776100 0.719344 6.982309
C 5.881924 1.438513 6.920541
C 6.528696 1.354748 6.806447
C 0.330661 1.644939 6.778706
C 1.233510 1.829126 6.922094
C 2.174175 2.230393 6.947772
C 3.318933 2.441115 6.860676
C 3.632460 1.919252 6.658041
C 4.995667 1.653831 6.933401
C 6.000104 2.171110 6.628195
C 6.818837 1.957236 6.960090
C 0.130602 2.410332 6.927271
C 0.874589 3.207975 6.679763
C 2.054150 3.043239 6.521100
C 3.167528 3.040708 6.810663
C 3.648330 3.423756 6.808736
C 5.179002 2.846157 6.940152
C 6.008437 2.821280 6.775882
C 6.725993 3.108745 6.695594
C 0.046353 4.111944 6.458458
C 1.137500 4.130210 6.736094
C 2.262872 3.546313 6.922037
C 2.791710 3.843255 6.893295
C 4.210371 3.770873 6.709890
C 5.106590 3.899437 6.636211
C 6.172188 3.452471 6.869955
C 6.622039 4.343901 6.999331
C 0.379243 4.796630 6.821451
C 0.983730 5.183115 6.562077
C 2.210851 5.246438 6.793938
C 3.200543 5.395302 6.968510
C 3.806290 5.098737 6.718361
C 4.800164 5.151548 6.769799
C 6.007212 5.197362 6.738780
C 6.737231 4.935502 6.895368
C 0.064466 6.149703 6.759749
C 1.384212 6.140445 6.882657
C 1.870452 5.768143 6.654606
C 3.358720 5.917827 6.716082
C 4.097125 6.133581 6.749816
C 4.770693 6.089432 6.774754
C 5.978775 6.172628 6.655441
C 6.598398 5.639211 6.956348
C 0.589609 6.618016 6.364158
C 0.927688 6.980685 6.827838
C 1.876474 6.955083 6.756304
C 2.895384 6.550217 6.944097
C 4.201312 6.938996 6.867302
C 5.353363 6.917843 6.793037
C 6.087818 6.820050 6.684613
C 6.848206 6.233771 6.932975
