512
Frame 1/10
C 0.000000 0.000000 0.000000
C 1.000000 0.000000 0.000000
C 2.000000 0.000000 0.000000
C 3.000000 0.000000 0.000000
C 4.000000 0.000000 0.000000
C 5.000000 0.000000 0.000000
C 6.000000 0.000000 0.000000
C 7.000000 0.000000 0.000000
C 0.000000 1.000000 0.000000
C 1.000000 1.000000 0.000000
C 2.000000 1.000000 0.000000
C 3.000000 1.000000 0.000000
C 4.000000 1.000000 0.000000
C 5.000000 1.000000 0.000000
C 6.000000 1.000000 0.000000
C 7.000000 1.000000 0.000000
C 0.000000 2.000000 0.000000
C 1.000000 2.000000 0.000000
C 2.000000 2.000000 0.000000
C 3.000000 2.000000 0.000000
C 4.000000 2.000000 0.000000
C 5.000000 2.000000 0.000000
C 6.000000 2.000000 0.000000
C 7.000000 2.000000 0.000000
C 0.000000 3.000000 0.000000
C 1.000000 3.000000 0.000000
C 2.000000 3.000000 0.000000
C 3.000000 3.000000 0.000000
C 4.000000 3.000000 0.000000
C 5.000000 3.000000 0.000000
C 6.000000 3.000000 0.000000
C 7.000000 3.000000 0.000000
C 0.000000 4.000000 0.000000
C 1.000000 4.000000 0.000000
C 2.000000 4.000000 0.000000
C 3.000000 4.000000 0.000000
C 4.000000 4.000000 0.000000
C 5.000000 4.000000 0.000000
C 6.000000 4.000000 0.000000
C 7.000000 4.000000 0.000000
C 0.000000 5.000000 0.000000
C 1.000000 5.000000 0.000000
C 2.000000 5.000000 0.000000
C 3.000000 5.000000 0.000000
C 4.000000 5.000000 0.000000
C 5.000000 5.000000 0.000000
C 6.000000 5.000000 0.000000
C 7.000000 5.000000 0.000000
C 0.000000 6.000000 0.000000
C 1.000000 6.000000 0.000000
C 2.000000 6.000000 0.000000
C 3.000000 6.000000 0.000000
C 4.000000 6.000000 0.000000
C 5.000000 6.000000 0.000000
C 6.000000 6.000000 0.000000
C 7.000000 6.000000 0.000000
C 0.000000 7.000000 0.000000
C 1.000000 7.000000 0.000000
C 2.000000 7.000000 0.000000
C 3.000000 7.000000 0.000000
C 4.000000 7.000000 0.000000
C 5.000000 7.000000 0.000000
C 6.000000 7.000000 0.000000
C 7.000000 7.000000 0.000000
C 0.000000 0.000000 1.000000
C 1.000000 0.000000 1.000000
C 2.000000 0.000000 1.000000
C 3.000000 0.000000 1.000000
C 4.000000 0.000000 1.000000
C 5.000000 0.000000 1.000000
C 6.000000 0.000000 1.000000
C 7.000000 0.000000 1.000000
C 0.000000 1.000000 1.000000
C 1.000000 1.000000 1.000000
C 2.000000 1.000000 1.000000
C 3.000000 1.000000 1.000000
C 4.000000 1.000000 1.000000
C 5.000000 1.000000 1.000000
C 6.000000 1.000000 1.000000
C 7.000000 1.000000 1.000000
C 0.000000 2.000000 1.000000
C 1.000000 2.000000 1.000000
C 2.000000 2.000000 1.000000
C 3.000000 2.000000 1.000000
C 4.000000 2.000000 1.000000
C 5.000000 2.000000 1.000000
C 6.000000 2.000000 1.000000
C 7.000000 2.000000 1.000000
C 0.000000 3.000000 1.000000
C 1.000000 3.000000 1.000000
C 2.000000 3.000000 1.000000
C 3.000000 3.000000 1.000000
C 4.000000 3.000000 1.000000
C 5.000000 3.000000 1.000000
C 6.000000 3.000000 1.000000
C 7.000000 3.000000 1.000000
C 0.000000 4.000000 1.000000
C 1.000000 4.000000 1.000000
C 2.000000 4.000000 1.000000
C 3.000000 4.000000 1.000000
C 4.000000 4.000000 1.000000
C 5.000000 4.000000 1.000000
C 6.000000 4.000000 1.000000
C 7.000000 4.000000 1.000000
C 0.000000 5.000000 1.000000
C 1.000000 5.000000 1.000000
C 2.000000 5.000000 1.000000
C 3.000000 5.000000 1.000000
C 4.000000 5.000000 1.000000
C 5.000000 5.000000 1.000000
C 6.000000 5.000000 1.000000
C 7.000000 5.000000 1.000000
C 0.000000 6.000000 1.000000
C 1.000000 6.000000 1.000000
C 2.000000 6.000000 1.000000
C 3.000000 6.000000 1.000000
C 4.000000 6.000000 1.000000
C 5.000000 6.000000 1.000000
C 6.000000 6.000000 1.000000
C 7.000000 6.000000 1.000000
C 0.000000 7.000000 1.000000
C 1.000000 7.000000 1.000000
C 2.000000 7.000000 1.000000
C 3.000000 7.000000 1.000000
C 4.000000 7.000000 1.000000
C 5.000000 7.000000 1.000000
C 6.000000 7.000000 1.000000
C 7.000000 7.000000 1.000000
C 0.000000 0.000000 2.000000
C 1.000000 0.000000 2.000000
C 2.000000 0.000000 2.000000
C 3.000000 0.000000 2.000000
C 4.000000 0.000000 2.000000
C 5.000000 0.000000 2.000000
C 6.000000 0.000000 2.000000
C 7.000000 0.000000 2.000000
C 0.000000 1.000000 2.000000
C 1.000000 1.000000 2.000000
C 2.000000 1.000000 2.000000
C 3.000000 1.000000 2.000000
C 4.000000 1.000000 2.000000
C 5.000000 1.000000 2.000000
C 6.000000 1.000000 2.000000
C 7.000000 1.000000 2.000000
C 0.000000 2.000000 2.000000
C 1.000000 2.000000 2.000000
C 2.000000 2.000000 2.000000
C 3.000000 2.000000 2.000000
C 4.000000 2.000000 2.000000
C 5.000000 2.000000 2.000000
C 6.000000 2.000000 2.000000
C 7.000000 2.000000 2.000000
C 0.000000 3.000000 2.000000
C 1.000000 3.000000 2.000000
C 2.000000 3.000000 2.000000
C 3.000000 3.000000 2.000000
C 4.000000 3.000000 2.000000
C 5.000000 3.000000 2.000000
C 6.000000 3.000000 2.000000
C 7.000000 3.000000 2.000000
C 0.000000 4.000000 2.000000
C 1.000000 4.000000 2.000000
C 2.000000 4.000000 2.000000
C 3.000000 4.000000 2.000000
C 4.000000 4.000000 2.000000
C 5.000000 4.000000 2.000000
C 6.000000 4.000000 2.000000
C 7.000000 4.000000 2.000000
C 0.000000 5.000000 2.000000
C 1.000000 5.000000 2.000000
C 2.000000 5.000000 2.000000
C 3.000000 5.000000 2.000000
C 4.000000 5.000000 2.000000
C 5.000000 5.000000 2.000000
C 6.000000 5.000000 2.000000
C 7.000000 5.000000 2.000000
C 0.000000 6.000000 2.000000
C 1.000000 6.000000 2.000000
C 2.000000 6.000000 2.000000
C 3.000000 6.000000 2.000000
C 4.000000 6.000000 2.000000
C 5.000000 6.000000 2.000000
C 6.000000 6.000000 2.000000
C 7.000000 6.000000 2.000000
C 0.000000 7.000000 2.000000
C 1.000000 7.000000 2.000000
C 2.000000 7.000000 2.000000
C 3.000000 7.000000 2.000000
C 4.000000 7.000000 2.000000
C 5.000000 7.000000 2.000000
C 6.000000 7.000000 2.000000
C 7.000000 7.000000 2.000000
C 0.000000 0.000000 3.000000
C 1.000000 0.000000 3.000000
C 2.000000 0.000000 3.000000
C 3.000000 0.000000 3.000000
C 4.000000 0.000000 3.000000
C 5.000000 0.000000 3.000000
C 6.000000 0.000000 3.000000
C 7.000000 0.000000 3.000000
C 0.000000 1.000000 3.000000
C 1.000000 1.000000 3.000000
C 2.000000 1.000000 3.000000
C 3.000000 1.000000 3.000000
C 4.000000 1.000000 3.000000
C 5.000000 1.000000 3.000000
C 6.000000 1.000000 3.000000
C 7.000000 1.000000 3.000000
C 0.000000 2.000000 3.000000
C 1.000000 2.000000 3.000000
C 2.000000 2.000000 3.000000
C 3.000000 2.000000 3.000000
C 4.000000 2.000000 3.000000
C 5.000000 2.000000 3.000000
C 6.000000 2.000000 3.000000
C 7.000000 2.000000 3.000000
C 0.000000 3.000000 3.000000
C 1.000000 3.000000 3.000000
C 2.000000 3.000000 3.000000
C 3.000000 3.000000 3.000000
C 4.000000 3.000000 3.000000
C 5.000000 3.000000 3.000000
C 6.000000 3.000000 3.000000
C 7.000000 3.000000 3.000000
C 0.000000 4.000000 3.000000
C 1.000000 4.000000 3.000000
C 2.000000 4.000000 3.000000
C 3.000000 4.000000 3.000000
C 4.000000 4.000000 3.000000
C 5.000000 4.000000 3.000000
C 6.000000 4.000000 3.000000
C 7.000000 4.000000 3.000000
C 0.000000 5.000000 3.000000
C 1.000000 5.000000 3.000000
C 2.000000 5.000000 3.000000
C 3.000000 5.000000 3.000000
C 4.000000 5.000000 3.000000
C 5.000000 5.000000 3.000000
C 6.000000 5.000000 3.000000
C 7.000000 5.000000 3.000000
C 0.000000 6.000000 3.000000
C 1.000000 6.000000 3.000000
C 2.000000 6.000000 3.000000
C 3.000000 6.000000 3.000000
C 4.000000 6.000000 3.000000
C 5.000000 6.000000 3.000000
C 6.000000 6.000000 3.000000
C 7.000000 6.000000 3.000000
C 0.000000 7.000000 3.000000
C 1.000000 7.000000 3.000000
C 2.000000 7.000000 3.000000
C 3.000000 7.000000 3.000000
C 4.000000 7.000000 3.000000
C 5.000000 7.000000 3.000000
C 6.000000 7.000000 3.000000
C 7.000000 7.000000 3.000000
C 0.000000 0.000000 4.000000
C 1.000000 0.000000 4.000000
C 2.000000 0.000000 4.000000
C 3.000000 0.000000 4.000000
C 4.000000 0.000000 4.000000
C 5.000000 0.000000 4.000000
C 6.000000 0.000000 4.000000
C 7.000000 0.000000 4.000000
C 0.000000 1.000000 4.000000
C 1.000000 1.000000 4.000000
C 2.000000 1.000000 4.000000
C 3.000000 1.000000 4.000000
C 4.000000 1.000000 4.000000
C 5.000000 1.000000 4.000000
C 6.000000 1.000000 4.000000
C 7.000000 1.000000 4.000000
C 0.000000 2.000000 4.000000
C 1.000000 2.000000 4.000000
C 2.000000 2.000000 4.000000
C 3.000000 2.000000 4.000000
C 4.000000 2.000000 4.000000
C 5.000000 2.000000 4.000000
C 6.000000 2.000000 4.000000
C 7.000000 2.000000 4.000000
C 0.000000 3.000000 4.000000
C 1.000000 3.000000 4.000000
C 2.000000 3.000000 4.000000
C 3.000000 3.000000 4.000000
C 4.000000 3.000000 4.000000
C 5.000000 3.000000 4.000000
C 6.000000 3.000000 4.000000
C 7.000000 3.000000 4.000000
C 0.000000 4.000000 4.000000
C 1.000000 4.000000 4.000000
C 2.000000 4.000000 4.000000
C 3.000000 4.000000 4.000000
C 4.000000 4.000000 4.000000
C 5.000000 4.000000 4.000000
C 6.000000 4.000000 4.000000
C 7.000000 4.000000 4.000000
C 0.000000 5.000000 4.000000
C 1.000000 5.000000 4.000000
C 2.000000 5.000000 4.000000
C 3.000000 5.000000 4.000000
C 4.000000 5.000000 4.000000
C 5.000000 5.000000 4.000000
C 6.000000 5.000000 4.000000
C 7.000000 5.000000 4.000000
C 0.000000 6.000000 4.000000
C 1.000000 6.000000 4.000000
C 2.000000 6.000000 4.000000
C 3.000000 6.000000 4.000000
C 4.000000 6.000000 4.000000
C 5.000000 6.000000 4.000000
C 6.000000 6.000000 4.000000
C 7.000000 6.000000 4.000000
C 0.000000 7.000000 4.000000
C 1.000000 7.000000 4.000000
C 2.000000 7.000000 4.000000
C 3.000000 7.000000 4.000000
C 4.000000 7.000000 4.000000
C 5.000000 7.000000 4.000000
C 6.000000 7.000000 4.000000
C 7.000000 7.000000 4.000000
C 0.000000 0.000000 5.000000
C 1.000000 0.000000 5.000000
C 2.000000 0.000000 5.000000
C 3.000000 0.000000 5.000000
C 4.000000 0.000000 5.000000
C 5.000000 0.000000 5.000000
C 6.000000 0.000000 5.000000
C 7.000000 0.000000 5.000000
C 0.000000 1.000000 5.000000
C 1.000000 1.000000 5.000000
C 2.000000 1.000000 5.000000
C 3.000000 1.000000 5.000000
C 4.000000 1.000000 5.000000
C 5.000000 1.000000 5.000000
C 6.000000 1.000000 5.000000
C 7.000000 1.000000 5.000000
C 0.000000 2.000000 5.000000
C 1.000000 2.000000 5.000000
C 2.000000 2.000000 5.000000
C 3.000000 2.000000 5.000000
C 4.000000 2.000000 5.000000
C 5.000000 2.000000 5.000000
C 6.000000 2.000000 5.000000
C 7.000000 2.000000 5.000000
C 0.000000 3.000000 5.000000
C 1.000000 3.000000 5.000000
C 2.000000 3.000000 5.000000
C 3.000000 3.000000 5.000000
C 4.000000 3.000000 5.000000
C 5.000000 3.000000 5.000000
C 6.000000 3.000000 5.000000
C 7.000000 3.000000 5.000000
C 0.000000 4.000000 5.000000
C 1.000000 4.000000 5.000000
C 2.000000 4.000000 5.000000
C 3.000000 4.000000 5.000000
C 4.000000 4.000000 5.000000
C 5.000000 4.000000 5.000000
C 6.000000 4.000000 5.000000
C 7.000000 4.000000 5.000000
C 0.000000 5.000000 5.000000
C 1.000000 5.000000 5.000000
C 2.000000 5.000000 5.000000
C 3.000000 5.000000 5.000000
C 4.000000 5.000000 5.000000
C 5.000000 5.000000 5.000000
C 6.000000 5.000000 5.000000
C 7.000000 5.000000 5.000000
C 0.000000 6.000000 5.000000
C 1.000000 6.000000 5.000000
C 2.000000 6.000000 5.000000
C 3.000000 6.000000 5.000000
C 4.000000 6.000000 5.000000
C 5.000000 6.000000 5.000000
C 6.000000 6.000000 5.000000
C 7.000000 6.000000 5.000000
C 0.000000 7.000000 5.000000
C 1.000000 7.000000 5.000000
C 2.000000 7.000000 5.000000
C 3.000000 7.000000 5.000000
C 4.000000 7.000000 5.000000
C 5.000000 7.000000 5.000000
C 6.000000 7.000000 5.000000
C 7.000000 7.000000 5.000000
C 0.000000 0.000000 6.000000
C 1.000000 0.000000 6.000000
C 2.000000 0.000000 6.000000
C 3.000000 0.000000 6.000000
C 4.000000 0.000000 6.000000
C 5.000000 0.000000 6.000000
C 6.000000 0.000000 6.000000
C 7.000000 0.000000 6.000000
C 0.000000 1.000000 6.000000
C 1.000000 1.000000 6.000000
C 2.000000 1.000000 6.000000
C 3.000000 1.000000 6.000000
C 4.000000 1.000000 6.000000
C 5.000000 1.000000 6.000000
C 6.000000 1.000000 6.000000
C 7.000000 1.000000 6.000000
C 0.000000 2.000000 6.000000
C 1.000000 2.000000 6.000000
C 2.000000 2.000000 6.000000
C 3.000000 2.000000 6.000000
C 4.000000 2.000000 6.000000
C 5.000000 2.000000 6.000000
C 6.000000 2.000000 6.000000
C 7.000000 2.000000 6.000000
C 0.000000 3.000000 6.000000
C 1.000000 3.000000 6.000000
C 2.000000 3.000000 6.000000
C 3.000000 3.000000 6.000000
C 4.000000 3.000000 6.000000
C 5.000000 3.000000 6.000000
C 6.000000 3.000000 6.000000
C 7.000000 3.000000 6.000000
C 0.000000 4.000000 6.000000
C 1.000000 4.000000 6.000000
C 2.000000 4.000000 6.000000
C 3.000000 4.000000 6.000000
C 4.000000 4.000000 6.000000
C 5.000000 4.000000 6.000000
C 6.000000 4.000000 6.000000
C 7.000000 4.000000 6.000000
C 0.000000 5.000000 6.000000
C 1.000000 5.000000 6.000000
C 2.000000 5.000000 6.000000
C 3.000000 5.000000 6.000000
C 4.000000 5.000000 6.000000
C 5.000000 5.000000 6.000000
C 6.000000 5.000000 6.000000
C 7.000000 5.000000 6.000000
C 0.000000 6.000000 6.000000
C 1.000000 6.000000 6.000000
C 2.000000 6.000000 6.000000
C 3.000000 6.000000 6.000000
C 4.000000 6.000000 6.000000
C 5.000000 6.000000 6.000000
C 6.000000 6.000000 6.000000
C 7.000000 6.000000 6.000000
C 0.000000 7.000000 6.000000
C 1.000000 7.000000 6.000000
C 2.000000 7.000000 6.000000
C 3.000000 7.000000 6.000000
C 4.000000 7.000000 6.000000
C 5.000000 7.000000 6.000000
C 6.000000 7.000000 6.000000
C 7.000000 7.000000 6.000000
C 0.000000 0.000000 7.000000
C 1.000000 0.000000 7.000000
C 2.000000 0.000000 7.000000
C 3.000000 0.000000 7.000000
C 4.000000 0.000000 7.000000
C 5.000000 0.000000 7.000000
C 6.000000 0.000000 7.000000
C 7.000000 0.000000 7.000000
C 0.000000 1.000000 7.000000
C 1.000000 1.000000 7.000000
C 2.000000 1.000000 7.000000
C 3.000000 1.000000 7.000000
C 4.000000 1.000000 7.000000
C 5.000000 1.000000 7.000000
C 6.000000 1.000000 7.000000
C 7.000000 1.000000 7.000000
C 0.000000 2.000000 7.000000
C 1.000000 2.000000 7.000000
C 2.000000 2.000000 7.000000
C 3.000000 2.000000 7.000000
C 4.000000 2.000000 7.000000
C 5.000000 2.000000 7.000000
C 6.000000 2.000000 7.000000
C 7.000000 2.000000 7.000000
C 0.000000 3.000000 7.000000
C 1.000000 3.000000 7.000000
C 2.000000 3.000000 7.000000
C 3.000000 3.000000 7.000000
C 4.000000 3.000000 7.000000
C 5.000000 3.000000 7.000000
C 6.000000 3.000000 7.000000
C 7.000000 3.000000 7.000000
C 0.000000 4.000000 7.000000
C 1.000000 4.000000 7.000000
C 2.000000 4.000000 7.000000
C 3.000000 4.000000 7.000000
C 4.000000 4.000000 7.000000
C 5.000000 4.000000 7.000000
C 6.000000 4.000000 7.000000
C 7.000000 4.000000 7.000000
C 0.000000 5.000000 7.000000
C 1.000000 5.000000 7.000000
C 2.000000 5.000000 7.000000
C 3.000000 5.000000 7.000000
C 4.000000 5.000000 7.000000
C 5.000000 5.000000 7.000000
C 6.000000 5.000000 7.000000
C 7.000000 5.000000 7.000000
C 0.000000 6.000000 7.000000
C 1.000000 6.000000 7.000000
C 2.000000 6.000000 7.000000
C 3.000000 6.000000 7.000000
C 4.000000 6.000000 7.000000
C 5.000000 6.000000 7.000000
C 6.000000 6.000000 7.000000
C 7.000000 6.000000 7.000000
C 0.000000 7.000000 7.000000
C 1.000000 7.000000 7.000000
C 2.000000 7.000000 7.000000
C 3.000000 7.000000 7.000000
C 4.000000 7.000000 7.000000
C 5.000000 7.000000 7.000000
C 6.000000 7.000000 7.000000
C 7.000000 7.000000 7.000000
512
Frame 2/10
C 0.027703 0.063715 0.000977
C 1.047896 0.029858 0.008462
C 2.029684 0.061134 0.008762
C 2.973590 0.007825 0.041461
C 4.000209 0.006908 0.044856
C 4.982552 0.029149 0.056284
C 5.930715 0.058697 0.026889
C 6.915790 0.056481 0.017770
C 0.025848 1.037196 0.017004
C 0.981583 0.977567 0.016024
C 1.946639 0.992121 0.014493
C 2.987876 1.057429 0.021811
C 3.953418 1.023407 0.006621
C 4.974819 0.983951 0.018818
C 5.969859 1.007346 0.033790
C 6.993824 0.949852 0.023184
C 0.015257 2.038722 0.028066
C 0.982878 2.018093 0.016146
C 2.035087 1.976759 0.031587
C 3.044853 1.984404 0.018434
C 4.000901 1.966816 0.038427
C 5.025912 2.012443 0.026883
C 6.039273 1.973253 0.005901
C 6.994409 1.989115 0.069067
C 0.054513 3.027050 0.006940
C 1.043683 3.029993 0.036089
C 2.006176 3.047266 0.017396
C 2.991031 3.020484 0.022065
C 4.003421 3.023828 0.041187
C 4.969142 3.059556 0.002276
C 6.013590 2.988450 0.035461
C 6.955173 3.021324 0.008205
C 0.039439 3.989126 0.029418
C 1.039115 4.029310 0.033562
C 2.057345 4.029251 0.009849
C 3.019302 3.968748 0.010726
C 3.972361 4.028727 0.024268
C 5.045487 3.986348 0.003481
C 6.034314 4.015219 0.000651
C 6.985234 3.972721 0.023316
C 0.026516 5.013190 0.031147
C 0.984267 4.972395 0.052022
C 1.993598 5.043219 0.011152
C 3.033188 4.980270 0.015341
C 4.012223 4.986898 0.002982
C 5.013352 5.014044 0.023746
C 6.007636 4.986745 0.022718
C 6.968328 5.001663 0.072696
C 0.014771 6.012150 0.050346
C 0.976339 6.027232 0.021118
C 1.998601 6.000630 0.001919
C 3.004728 5.980118 0.007098
C 4.024619 6.024901 0.011592
C 4.987040 6.032954 0.013758
C 5.983041 5.983807 0.003437
C 6.939656 5.987488 0.000504
C 0.063817 6.980924 0.071279
C 1.031766 6.983250 0.041824
C 2.041152 6.930831 0.050157
C 3.009635 6.980908 0.003538
C 3.977878 6.979699 0.021190
C 4.995951 6.989929 0.030625
C 6.023416 6.999634 0.017242
C 6.942442 6.946964 0.078626
C 0.045359 0.005170 1.051592
C 0.957639 0.005179 0.977875
C 2.008700 0.042653 1.046934
C 2.953033 0.016559 1.020483
C 3.980987 0.051970 1.017208
C 5.018092 0.017429 1.045960
C 5.974921 0.003099 0.958091
C 6.968457 0.051000 1.029987
C 0.031658 0.999801 1.040644
C 0.960853 0.966072 0.977833
C 1.988457 0.979341 1.002283
C 2.992473 0.995542 0.956779
C 4.008135 0.992560 0.950126
C 4.980196 1.001696 1.053601
C 6.030353 0.969639 0.974974
C 6.963519 1.040026 0.977018
C 0.012225 1.976936 0.981110
C 1.040258 2.000340 1.023659
C 1.981598 1.997039 0.964572
C 3.005735 1.981260 0.971874
C 4.005273 2.050035 1.008767
C 4.999481 2.033589 1.003175
C 6.017821 2.013505 1.014369
C 6.998461 2.053087 0.990603
C 0.006524 3.022836 1.069085
C 0.968321 2.987701 0.971325
C 1.986798 2.982567 1.037122
C 3.021762 3.005331 0.981083
C 3.969833 3.021775 1.019716
C 4.998879 3.006719 0.957202
C 6.027331 2.993534 1.027364
C 6.967613 3.037680 0.969430
C 0.047657 3.949645 0.986933
C 0.970357 4.007251 0.976624
C 2.030558 4.001466 0.964050
C 2.985723 3.989003 0.994108
C 3.980826 4.009417 1.013760
C 4.998316 4.005270 1.024607
C 5.973675 4.036528 0.999563
C 6.946936 3.994897 0.966581
C 0.001590 4.961637 0.965914
C 1.028912 5.001911 1.000978
C 2.016038 4.997093 0.963444
C 2.971948 4.972627 0.984745
C 4.022066 4.973191 0.978083
C 4.987649 4.966775 0.994392
C 5.990054 5.013556 1.024691
C 6.950925 4.970573 1.027479
C 0.002122 5.977924 1.048763
C 1.008023 5.961049 1.010836
C 1.964885 6.026861 1.028735
C 3.004385 6.033259 1.015841
C 3.998686 5.976718 1.018754
C 4.995824 5.997651 0.994406
C 5.993029 6.026957 0.963345
C 6.971826 5.974167 1.046069
C 0.014656 6.969498 1.076136
C 1.003502 6.985584 1.051136
C 1.985514 6.993805 0.965504
C 2.989229 6.985708 0.957042
C 4.002045 6.992911 1.047692
C 5.037456 6.986567 0.988234
C 6.003576 6.991708 0.990629
C 6.949829 6.974882 1.032904
C 0.048180 0.031676 2.003460
C 1.052844 0.017202 1.996984
C 2.025708 0.002310 2.004056
C 2.999646 0.007089 1.973811
C 4.014575 0.014948 2.043420
C 4.980533 0.006366 2.029318
C 6.035137 0.008277 1.955741
C 6.987107 0.020759 1.976614
C 0.002912 1.013946 1.991623
C 0.990436 1.020272 1.975774
C 2.015526 1.010472 1.975902
C 3.000497 1.010516 1.990995
C 4.048096 1.015666 1.992490
C 5.014609 0.954435 1.985786
C 5.978821 0.961327 2.042760
C 6.971478 1.043561 1.991411
C 0.005571 1.988779 2.013231
C 0.963000 1.989711 1.990712
C 1.990401 1.991147 2.030617
C 2.952756 2.004528 2.011602
C 3.981923 2.002259 2.014879
C 5.007494 2.032924 2.029000
C 5.970698 2.002433 2.013035
C 6.969528 2.017520 1.933281
C 0.024136 2.956919 1.986479
C 1.031922 2.993599 1.978257
C 2.003166 3.015714 2.006809
C 2.966269 2.994036 2.015129
C 4.045610 3.023126 1.982037
C 5.032353 3.016770 2.017609
C 5.998611 3.011157 2.033980
C 6.972771 3.035428 2.009455
C 0.007623 4.002109 1.984068
C 0.989401 4.032862 2.031992
C 1.981108 4.031678 2.013095
C 3.053583 3.979181 2.007379
C 4.028289 3.988575 1.969440
C 5.009886 4.000110 1.990596
C 6.032747 3.969170 1.995687
C 6.991509 4.039927 1.976209
C 0.023429 5.026771 2.016683
C 1.017293 5.014261 2.032018
C 2.014449 5.003193 1.968208
C 2.970419 5.016367 1.993044
C 4.047441 5.014050 2.015054
C 5.028168 4.969595 2.017082
C 5.994136 4.957425 1.984511
C 6.986051 5.015805 1.970904
C 0.014983 6.004224 2.055379
C 0.969176 6.012588 1.973107
C 2.028693 5.997154 2.007645
C 2.997520 5.973334 1.999220
C 4.015309 6.038674 1.987376
C 5.016098 5.993451 2.043183
C 6.025850 6.002430 2.027211
C 6.992347 6.000471 2.010964
C 0.029436 6.959428 2.035930
C 1.055810 6.970575 1.983931
C 2.029981 6.986498 2.000959
C 3.041604 6.986160 2.002497
C 4.035670 6.970379 2.064083
C 5.028671 6.995971 1.997400
C 6.023223 6.983397 1.997847
C 6.985437 6.993243 1.988707
C 0.002654 0.066054 2.936861
C 0.996359 0.005071 3.039817
C 2.017025 0.026024 2.960712
C 2.972425 0.005590 3.020155
C 3.949526 0.040344 3.015096
C 4.953849 0.022639 3.030128
C 6.013380 0.005644 3.035771
C 6.971368 0.002023 2.944532
C 0.028927 1.032276 3.014241
C 1.017509 1.038644 2.981652
C 2.008897 1.027499 3.034946
C 3.014623 1.017313 3.025458
C 4.044403 0.988060 3.010075
C 5.005171 0.960243 3.025394
C 6.027740 0.965213 3.007870
C 6.977630 0.977406 3.032354
C 0.049020 2.016042 2.998912
C 1.030942 2.027956 3.000002
C 1.990833 2.013262 3.020300
C 3.033309 2.033274 2.971926
C 3.958505 2.005914 3.025059
C 5.039437 2.019537 3.010619
C 5.994172 2.044185 2.997940
C 6.994337 2.007828 3.000185
C 0.010649 2.959914 2.963485
C 0.972875 3.008279 3.028950
C 2.035418 2.992031 2.997871
C 2.990374 2.974452 2.982938
C 4.024805 3.017328 3.001427
C 4.990301 2.977002 2.975582
C 6.014544 3.015829 2.990624
C 6.998321 2.989007 3.000638
C 0.044905 4.025234 3.015997
C 1.044750 3.962017 3.001055
C 1.994243 4.002313 2.970095
C 2.987511 3.987767 2.982954
C 3.971766 3.986980 3.017531
C 5.016416 4.029674 2.988394
C 5.967607 4.042738 3.015898
C 6.997859 3.993931 2.984978
C 0.005041 5.051861 2.997880
C 0.979502 5.039264 2.993889
C 1.979200 5.001176 3.039869
C 2.989438 5.003770 3.028465
C 3.958443 4.983823 3.006929
C 5.046798 5.013318 2.998572
C 6.030506 5.009504 2.989424
C 6.988080 4.989867 3.031532
C 0.008676 6.031928 3.016944
C 0.997285 5.998509 3.000398
C 1.986582 6.017957 2.959028
C 3.024241 5.960985 3.015960
C 3.989641 5.992737 2.956306
C 5.020735 6.008732 3.013207
C 5.971797 5.990588 2.973116
C 6.999142 6.036717 2.994354
C 0.048343 6.995787 3.006246
C 1.054783 6.982972 2.984917
C 2.033215 6.996692 2.986459
C 2.993854 6.976889 3.013558
C 3.985791 6.996421 3.033467
C 5.020786 6.983311 3.006431
C 5.996342 6.954335 2.979286
C 6.964929 6.956904 2.944279
C 0.007542 0.023036 3.983286
C 0.987388 0.038773 4.042057
C 1.994675 0.000875 4.024183
C 2.943503 0.019314 3.992001
C 3.974868 0.002022 4.044723
C 4.967822 0.006150 3.988729
C 6.066311 0.008977 3.980011
C 6.967266 0.049608 4.040638
C 0.003189 1.005466 3.971566
C 1.036018 0.997251 3.987787
C 2.022629 0.991723 3.980921
C 3.009657 0.969242 3.990686
C 4.006893 1.013093 4.019526
C 5.026978 1.031974 4.015567
C 5.968645 0.974439 4.017512
C 6.996549 0.994116 3.983533
C 0.010891 2.043608 3.987959
C 0.965385 2.013477 3.993467
C 1.977586 2.012334 4.008365
C 2.954849 2.030397 3.991992
C 3.967511 2.016999 3.994637
C 5.037116 2.042095 4.000825
C 5.986430 2.032969 4.030608
C 6.995172 1.968104 3.993729
C 0.011106 3.024469 4.002968
C 0.958799 2.971328 3.997641
C 2.031334 2.982402 3.998606
C 3.004170 2.987520 3.952944
C 3.983902 2.999256 3.995636
C 5.030044 3.026147 4.008849
C 6.013166 3.018829 3.954504
C 6.981118 3.042329 3.991578
C 0.068297 4.027381 3.980857
C 0.994302 3.949323 3.967610
C 2.013325 4.015850 4.029308
C 3.002583 4.020837 4.019344
C 3.964126 3.995976 3.991208
C 5.029116 3.985692 4.012826
C 6.041441 4.007970 3.990671
C 6.995038 4.063437 3.994625
C 0.000312 4.971654 4.035537
C 0.973923 4.998838 3.989729
C 2.014602 5.016129 3.994653
C 3.027761 4.977943 4.013513
C 4.004452 4.980593 3.989801
C 5.048677 5.012259 4.007519
C 6.013666 5.033198 4.051896
C 6.979665 4.995009 4.052091
C 0.014593 5.957602 3.975551
C 1.040382 5.979568 4.015815
C 2.040033 5.988922 4.034610
C 2.996701 5.962144 3.987822
C 3.996730 5.988064 4.053778
C 5.004380 5.967012 4.045243
C 5.976391 5.987225 4.007832
C 6.966900 6.031034 3.970914
C 0.039886 6.980394 3.988289
C 1.020849 6.948262 4.004838
C 2.000529 6.995042 4.032316
C 2.991559 6.990273 4.036843
C 4.022732 6.998220 4.018700
C 5.060478 6.958328 4.015618
C 6.024150 6.947476 4.003951
C 6.958950 6.996867 3.988986
C 0.027740 0.002057 4.974421
C 1.008707 0.012249 4.993259
C 2.025219 0.008571 4.982581
C 3.036525 0.011740 5.013618
C 4.040923 0.025688 5.028906
C 5.029763 0.002755 4.964186
C 6.005017 0.008687 4.964040
C 6.958423 0.016996 4.993754
C 0.015795 0.993830 5.017622
C 1.009071 1.013689 5.017629
C 2.004127 1.028024 5.023043
C 3.023540 1.053753 5.020010
C 4.007602 1.033276 5.003376
C 4.971629 0.990142 4.980174
C 6.015566 1.023660 5.016995
C 6.974783 1.011450 5.015428
C 0.032880 1.981604 5.034800
C 0.965035 1.992831 4.955339
C 2.011582 2.024063 4.961011
C 2.960637 2.014774 5.014556
C 4.014724 2.012746 5.013199
C 5.011848 1.981442 4.986913
C 6.032035 1.980793 5.017632
C 6.998205 1.979691 5.024768
C 0.019976 3.031419 4.978325
C 1.006806 2.990186 4.967119
C 1.975306 2.983220 4.974190
C 3.020396 3.012872 5.004398
C 3.995677 2.979763 5.011441
C 4.997879 3.018738 4.965179
C 6.042993 3.012490 4.958204
C 6.982737 2.987286 5.045078
C 0.012383 3.985908 4.963339
C 0.962044 3.999193 4.987508
C 1.977863 3.985088 4.984420
C 2.979985 3.971484 4.993331
C 3.992805 3.973201 4.953541
C 5.014253 4.016810 5.059045
C 5.962765 3.992175 5.024540
C 6.970076 4.016832 4.983837
C 0.039788 5.043990 4.995049
C 1.004034 5.011745 5.014105
C 2.015671 5.021832 5.025940
C 2.976947 4.998942 4.990086
C 4.024202 5.015444 5.028043
C 4.994629 4.994895 5.024886
C 5.980838 4.981890 4.982067
C 6.984238 5.018066 5.023631
C 0.010214 6.019360 4.959006
C 0.995289 6.003205 5.004377
C 2.016349 6.026850 4.974657
C 2.972642 6.038725 4.986118
C 4.050573 6.018461 4.997032
C 5.010374 6.048927 5.014781
C 5.963975 6.001850 5.005407
C 6.974404 5.983889 4.976535
C 0.028048 6.947818 5.025940
C 1.013940 6.976803 5.030905
C 1.969964 6.968068 5.008338
C 2.972951 6.991426 5.021606
C 4.028066 6.974704 4.999571
C 4.984054 6.979337 4.967801
C 5.975615 6.994087 4.970844
C 6.997876 6.986112 4.951175
C 0.018537 0.035926 6.024723
C 1.046187 0.013210 5.975768
C 2.028532 0.026054 6.021368
C 3.040236 0.018149 6.007810
C 3.983435 0.015579 5.963708
C 5.002069 0.007787 5.979868
C 6.026208 0.022846 5.966401
C 6.996307 0.048917 5.940105
C 0.011684 1.034058 6.029632
C 0.986518 1.042861 6.033521
C 1.991913 1.032863 6.039879
C 3.000812 0.991920 6.047040
C 4.016331 0.959540 5.993076
C 4.974945 1.000455 6.012206
C 5.995277 0.980078 5.979184
C 6.951399 0.973666 5.982476
C 0.017066 2.006024 6.046925
C 0.975885 2.019716 6.005994
C 1.979127 2.038318 6.013930
C 2.979833 2.003912 6.021941
C 3.972715 2.011727 6.000442
C 5.023349 1.995685 6.023094
C 6.002798 2.049022 6.001016
C 6.996158 1.969886 6.002180
C 0.017246 2.960121 6.005174
C 0.994741 2.971228 5.974734
C 1.980288 3.003736 6.046372
C 3.041916 3.030733 6.006900
C 4.015835 2.962119 6.019027
C 4.999147 3.013886 6.009585
C 6.026217 3.017449 6.023270
C 6.996202 3.048393 5.997322
C 0.007233 3.942347 6.010454
C 1.031348 4.014298 5.998882
C 2.018424 4.011781 6.053985
C 2.984677 4.006440 6.040722
C 4.036422 3.999593 6.019884
C 4.996970 3.975923 6.008991
C 6.008539 3.989336 6.031536
C 6.999152 4.004218 6.001396
C 0.000822 5.030028 5.978748
C 1.001001 5.044495 6.028105
C 2.001013 5.022851 5.995097
C 2.991400 5.010263 5.991290
C 4.049295 5.015061 6.012487
C 5.012607 5.054556 5.995799
C 6.009201 4.962076 5.992945
C 6.996188 5.004257 5.984526
C 0.008430 5.996219 5.940177
C 1.018494 5.982255 5.984615
C 2.036749 5.971685 5.986675
C 3.004346 6.002833 6.031252
C 4.031958 5.986166 5.992502
C 4.984469 6.045660 6.033276
C 5.999692 6.002511 6.028447
C 6.981044 6.046679 6.011989
C 0.024070 6.979634 6.009253
C 1.038938 6.955651 5.993899
C 2.021247 6.970449 6.019054
C 2.988213 6.961487 6.051069
C 3.950008 6.998009 5.990880
C 4.960477 6.976275 5.981091
C 6.021316 6.999910 6.001561
C 6.984548 6.998918 5.932062
C 0.021279 0.064168 6.994312
C 0.989476 0.003203 6.960155
C 2.020828 0.034598 6.986700
C 2.977356 0.014126 6.972669
C 4.004899 0.016231 6.980712
C 4.993404 0.038599 6.936621
C 5.984955 0.062443 6.982106
C 6.991218 0.008812 6.950136
C 0.074387 1.009516 6.977781
C 1.035390 1.001876 6.966241
C 1.982705 1.057431 6.995354
C 3.011733 0.955989 6.996970
C 4.036673 0.994588 6.993617
C 5.009417 1.044772 6.962964
C 6.021155 1.026612 6.995311
C 6.986536 1.049545 6.971525
C 0.056287 1.982769 6.994663
C 1.026832 1.990638 6.992404
C 1.992682 2.041168 6.976864
C 3.029781 1.972323 6.970253
C 4.000937 1.958868 6.993119
C 4.967399 2.031989 6.977169
C 5.971371 1.967005 6.994447
C 6.980486 2.015543 6.941266
C 0.054624 2.951768 6.963310
C 1.042010 3.011199 6.980865
C 2.015993 3.012935 6.996304
C 2.979487 2.963157 6.959654
C 4.008058 2.959033 6.992930
C 4.989742 2.993713 6.966124
C 5.957338 3.001842 6.993852
C 6.982533 3.010364 6.965588
C 0.018525 4.005591 6.980006
C 1.019065 4.057642 6.964484
C 1.959504 3.983169 6.990290
C 2.999474 4.003348 6.998983
C 4.008467 3.939831 6.980518
C 4.955798 3.991740 6.989515
C 5.950203 4.029613 6.973460
C 6.940963 4.022793 6.969890
C 0.034358 5.030694 6.944256
C 0.980837 5.046331 6.981684
C 2.009991 4.965546 6.985756
C 3.001058 4.979258 6.939642
C 3.997209 4.967194 6.996922
C 5.004325 5.013089 6.994591
C 5.998679 4.995438 6.996928
C 6.967800 4.987751 6.936460
C 0.035062 6.007384 6.987573
C 1.044246 6.004829 6.996841
C 1.990816 5.971036 6.938083
C 3.040568 5.987284 6.979236
C 4.030027 6.038238 6.992217
C 5.009792 5.983367 6.999851
C 5.951469 6.021431 6.960340
C 6.982444 5.968030 6.972961
C 0.059405 6.961825 6.984096
C 0.973156 6.998352 6.928033
C 1.965488 6.997778 6.965663
C 3.043034 6.999479 6.986952
C 4.069659 6.981146 6.967600
C 5.027025 6.981385 6.943415
C 5.994861 6.975665 6.976280
C 6.942148 6.930895 6.993897
512
Frame 3/10
C 0.055405 0.127430 0.001954
C 1.095792 0.059716 0.016923
C 2.059368 0.122269 0.017524
C 2.947180 0.015650 0.082923
C 4.000419 0.013815 0.089711
C 4.965104 0.058297 0.112568
C 5.861431 0.117394 0.053779
C 6.831580 0.112961 0.035541
C 0.051696 1.074391 0.034008
C 0.963167 0.955133 0.032048
C 1.893279 0.984242 0.028985
C 2.975751 1.114859 0.043623
C 3.906836 1.046814 0.013242
C 4.949638 0.967902 0.037636
C 5.939718 1.014692 0.067581
C 6.987648 0.899704 0.046367
C 0.030515 2.077444 0.056132
C 0.965756 2.036186 0.032292
C 2.070174 1.953519 0.063175
C 3.089705 1.968808 0.036868
C 4.001801 1.933632 0.076854
C 5.051824 2.024886 0.053767
C 6.078547 1.946507 0.011801
C 6.988817 1.978229 0.138133
C 0.109025 3.054099 0.013880
C 1.087366 3.059986 0.072178
C 2.012352 3.094531 0.034791
C 2.982062 3.040967 0.044130
C 4.006842 3.047656 0.082374
C 4.938284 3.119112 0.004552
C 6.027179 2.976900 0.070921
C 6.910346 3.042648 0.016410
C 0.078879 3.978253 0.058835
C 1.078231 4.058620 0.067123
C 2.114690 4.058502 0.019698
C 3.038605 3.937495 0.021453
C 3.944722 4.057454 0.048536
C 5.090974 3.972697 0.006963
C 6.068627 4.030438 0.001301
C 6.970468 3.945442 0.046632
C 0.053032 5.026379 0.062294
C 0.968533 4.944789 0.104044
C 1.987196 5.086439 0.022304
C 3.066377 4.960541 0.030682
C 4.024446 4.973797 0.005965
C 5.026705 5.028088 0.047492
C 6.015271 4.973489 0.045437
C 6.936656 5.003327 0.145391
C 0.029543 6.024300 0.100691
C 0.952678 6.054464 0.042237
C 1.997202 6.001261 0.003839
C 3.009456 5.960235 0.014197
C 4.049238 6.049803 0.023184
C 4.974080 6.065908 0.027517
C 5.966081 5.967613 0.006874
C 6.879312 5.974975 0.001009
C 0.127635 6.961848 0.142559
C 1.063533 6.966501 0.083647
C 2.082305 6.861663 0.100314
C 3.019271 6.961816 0.007076
C 3.955756 6.959399 0.042381
C 4.991902 6.979858 0.061250
C 6.046833 6.999268 0.034484
C 6.884884 6.893928 0.157253
C 0.090717 0.010340 1.103184
C 0.915278 0.010358 0.955751
C 2.017401 0.085307 1.093869
C 2.906067 0.033118 1.040967
C 3.961975 0.103940 1.034415
C 5.036184 0.034858 1.091919
C 5.949842 0.006199 0.916182
C 6.936915 0.102001 1.059974
C 0.063317 0.999601 1.081288
C 0.921705 0.932144 0.955665
C 1.976915 0.958682 1.004566
C 2.984947 0.991084 0.913558
C 4.016271 0.985119 0.900252
C 4.960392 1.003393 1.107203
C 6.060706 0.939277 0.949947
C 6.927038 1.080052 0.954036
C 0.024450 1.953873 0.962220
C 1.080516 2.000680 1.047319
C 1.963195 1.994079 0.929143
C 3.011469 1.962519 0.943749
C 4.010547 2.100071 1.017534
C 4.998962 2.067178 1.006350
C 6.035642 2.027011 1.028737
C 6.996922 2.106173 0.981207
C 0.013049 3.045671 1.138169
C 0.936642 2.975401 0.942650
C 1.973596 2.965134 1.074245
C 3.043523 3.010663 0.962165
C 3.939667 3.043551 1.039432
C 4.997758 3.013437 0.914404
C 6.054661 2.987068 1.054728
C 6.935225 3.075361 0.938861
C 0.095314 3.899290 0.973866
C 0.940714 4.014502 0.953249
C 2.061116 4.002932 0.928100
C 2.971446 3.978006 0.988215
C 3.961652 4.018833 1.027520
C 4.996631 4.010541 1.049214
C 5.947350 4.073057 0.999126
C 6.893872 3.989794 0.933162
C 0.003181 4.923274 0.931828
C 1.057824 5.003823 1.001956
C 2.032076 4.994185 0.926888
C 2.943896 4.945253 0.969491
C 4.044131 4.946382 0.956165
C 4.975297 4.933550 0.988784
C 5.980109 5.027113 1.049382
C 6.901850 4.941146 1.054959
C 0.004244 5.955849 1.097526
C 1.016046 5.922099 1.021672
C 1.929770 6.053723 1.057470
C 3.008771 6.066518 1.031681
C 3.997373 5.953437 1.037508
C 4.991647 5.995302 0.988812
C 5.986057 6.053915 0.926690
C 6.943652 5.948333 1.092139
C 0.029312 6.938995 1.152271
C 1.007003 6.971168 1.102271
C 1.971028 6.987611 0.931008
C 2.978458 6.971417 0.914084
C 4.004089 6.985821 1.095384
C 5.074912 6.973133 0.976469
C 6.007153 6.983416 0.981259
C 6.899658 6.949765 1.065808
C 0.096359 0.063351 2.006920
C 1.105687 0.034403 1.993967
C 2.051416 0.004620 2.008111
C 2.999292 0.014178 1.947622
C 4.029150 0.029897 2.086839
C 4.961067 0.012731 2.058636
C 6.070273 0.016555 1.911481
C 6.974214 0.041519 1.953228
C 0.005824 1.027892 1.983247
C 0.980873 1.040544 1.951548
C 2.031051 1.020944 1.951805
C 3.000994 1.021032 1.981990
C 4.096192 1.031331 1.984979
C 5.029219 0.908870 1.971573
C 5.957642 0.922655 2.085520
C 6.942956 1.087121 1.982823
C 0.011142 1.977558 2.026462
C 0.926001 1.979422 1.981423
C 1.980801 1.982295 2.061233
C 2.905512 2.009056 2.023203
C 3.963845 2.004519 2.029757
C 5.014987 2.065848 2.058000
C 5.941396 2.004866 2.026069
C 6.939057 2.035040 1.866562
C 0.048272 2.913838 1.972958
C 1.063845 2.987199 1.956515
C 2.006331 3.031429 2.013618
C 2.932538 2.988073 2.030258
C 4.091220 3.046253 1.964074
C 5.064705 3.033541 2.035218
C 5.997223 3.022314 2.067960
C 6.945542 3.070856 2.018909
C 0.015245 4.004219 1.968137
C 0.978803 4.065724 2.063983
C 1.962215 4.063356 2.026190
C 3.107166 3.958362 2.014758
C 4.056577 3.977150 1.938881
C 5.019773 4.000221 1.981192
C 6.065495 3.938341 1.991374
C 6.983018 4.079854 1.952419
C 0.046858 5.053542 2.033367
C 1.034586 5.028523 2.064035
C 2.028899 5.006386 1.936417
C 2.940839 5.032734 1.986088
C 4.094882 5.028100 2.030108
C 5.056335 4.939190 2.034165
C 5.988273 4.914850 1.969022
C 6.972101 5.031611 1.941808
C 0.029965 6.008448 2.110757
C 0.938352 6.025177 1.946213
C 2.057387 5.994307 2.015291
C 2.995040 5.946669 1.998440
C 4.030618 6.077348 1.974751
C 5.032195 5.986902 2.086366
C 6.051700 6.004860 2.054423
C 6.984694 6.000943 2.021928
C 0.058873 6.918857 2.071860
C 1.111621 6.941150 1.967862
C 2.059963 6.972996 2.001918
C 3.083207 6.972320 2.004994
C 4.071341 6.940758 2.128166
C 5.057342 6.991942 1.994800
C 6.046447 6.966794 1.995694
C 6.970874 6.986486 1.977414
C 0.005309 0.132109 2.873723
C 0.992718 0.010143 3.079633
C 2.034050 0.052048 2.921424
C 2.944850 0.011181 3.040310
C 3.899052 0.080688 3.030191
C 4.907698 0.045278 3.060255
C 6.026760 0.011288 3.071541
C 6.942736 0.004046 2.889064
C 0.057854 1.064552 3.028482
C 1.035018 1.077288 2.963303
C 2.017794 1.054997 3.069892
C 3.029247 1.034626 3.050916
C 4.088805 0.976119 3.020150
C 5.010342 0.920487 3.050788
C 6.055481 0.930426 3.015740
C 6.955259 0.954812 3.064709
C 0.098039 2.032084 2.997823
C 1.061883 2.055912 3.000005
C 1.981666 2.026524 3.040600
C 3.066619 2.066548 2.943852
C 3.917010 2.011828 3.050118
C 5.078875 2.039074 3.021238
C 5.988344 2.088370 2.995881
C 6.988675 2.015656 3.000369
C 0.021297 2.919827 2.926969
C 0.945750 3.016559 3.057899
C 2.070836 2.984062 2.995742
C 2.980747 2.948904 2.965876
C 4.049610 3.034656 3.002853
C 4.980602 2.954004 2.951164
C 6.029088 3.031657 2.981248
C 6.996642 2.978014 3.001276
C 0.089811 4.050468 3.031993
C 1.089501 3.924034 3.002111
C 1.988485 4.004627 2.940191
C 2.975022 3.975535 2.965908
C 3.943531 3.973961 3.035061
C 5.032833 4.059348 2.976787
C 5.935213 4.085475 3.031795
C 6.995717 3.987861 2.969956
C 0.010081 5.103723 2.995760
C 0.959004 5.078529 2.987778
C 1.958399 5.002352 3.079738
C 2.978875 5.007540 3.056929
C 3.916887 4.967645 3.013857
C 5.093597 5.026637 2.997143
C 6.061013 5.019007 2.978848
C 6.976159 4.979735 3.063064
C 0.017352 6.063856 3.033889
C 0.994570 5.997018 3.000796
C 1.973163 6.035914 2.918056
C 3.048481 5.921969 3.031920
C 3.979281 5.985473 2.912612
C 5.041469 6.017465 3.026414
C 5.943593 5.981176 2.946233
C 6.998283 6.073435 2.988708
C 0.096686 6.991573 3.012493
C 1.109566 6.965945 2.969834
C 2.066429 6.993385 2.972918
C 2.987708 6.953779 3.027116
C 3.971583 6.992842 3.066933
C 5.041573 6.966621 3.012862
C 5.992685 6.908670 2.958572
C 6.929858 6.913808 2.888558
C 0.015084 0.046071 3.966572
C 0.974776 0.077546 4.084115
C 1.989350 0.001750 4.048365
C 2.887007 0.038627 3.984002
C 3.949737 0.004044 4.089446
C 4.935644 0.012299 3.977457
C 6.132622 0.017953 3.960023
C 6.934532 0.099216 4.081276
C 0.006378 1.010933 3.943132
C 1.072035 0.994502 3.975573
C 2.045258 0.983446 3.961842
C 3.019315 0.938483 3.981372
C 4.013786 1.026187 4.039052
C 5.053955 1.063948 4.031135
C 5.937289 0.948878 4.035024
C 6.993098 0.988232 3.967066
C 0.021781 2.087215 3.975919
C 0.930769 2.026954 3.986935
C 1.955173 2.024669 4.016729
C 2.909698 2.060795 3.983985
C 3.935022 2.033998 3.989274
C 5.074232 2.084190 4.001649
C 5.972860 2.065938 4.061217
C 6.990345 1.936209 3.987458
C 0.022211 3.048938 4.005936
C 0.917598 2.942657 3.995283
C 2.062668 2.964805 3.997211
C 3.008340 2.975040 3.905888
C 3.967804 2.998511 3.991271
C 5.060089 3.052293 4.017699
C 6.026331 3.037658 3.909007
C 6.962236 3.084657 3.983155
C 0.136594 4.054761 3.961714
C 0.988605 3.898646 3.935220
C 2.026651 4.031700 4.058616
C 3.005167 4.041675 4.038688
C 3.928253 3.991951 3.982415
C 5.058231 3.971384 4.025651
C 6.082883 4.015940 3.981342
C 6.990076 4.126874 3.989250
C 0.000624 4.943307 4.071073
C 0.947847 4.997677 3.979458
C 2.029204 5.032258 3.989305
C 3.055521 4.955886 4.027027
C 4.008905 4.961185 3.979603
C 5.097354 5.024518 4.015039
C 6.027333 5.066396 4.103792
C 6.959331 4.990018 4.104183
C 0.029186 5.915205 3.951102
C 1.080764 5.959136 4.031629
C 2.080065 5.977845 4.069221
C 2.993402 5.924287 3.975645
C 3.993460 5.976128 4.107556
C 5.008760 5.934023 4.090486
C 5.952783 5.974449 4.015663
C 6.933800 6.062067 3.941828
C 0.079772 6.960787 3.976577
C 1.041698 6.896525 4.009677
C 2.001057 6.990084 4.064632
C 2.983119 6.980546 4.073687
C 4.045465 6.996440 4.037400
C 5.120955 6.916657 4.031236
C 6.048300 6.894952 4.007902
C 6.917900 6.993734 3.977971
C 0.055479 0.004114 4.948842
C 1.017415 0.024499 4.986517
C 2.050438 0.017142 4.965161
C 3.073050 0.023481 5.027236
C 4.081846 0.051376 5.057812
C 5.059527 0.005511 4.928372
C 6.010033 0.017374 4.928080
C 6.916846 0.033992 4.987509
C 0.031591 0.987661 5.035243
C 1.018141 1.027378 5.035257
C 2.008254 1.056047 5.046085
C 3.047080 1.107507 5.040019
C 4.015204 1.066551 5.006751
C 4.943259 0.980284 4.960349
C 6.031132 1.047321 5.033991
C 6.949566 1.022901 5.030856
C 0.065760 1.963208 5.069599
C 0.930070 1.985662 4.910678
C 2.023164 2.048125 4.922022
C 2.921275 2.029549 5.029113
C 4.029448 2.025493 5.026399
C 5.023696 1.962885 4.973826
C 6.064070 1.961586 5.035265
C 6.996411 1.959382 5.049536
C 0.039952 3.062838 4.956650
C 1.013612 2.980372 4.934238
C 1.950611 2.966441 4.948380
C 3.040793 3.025745 5.008797
C 3.991354 2.959526 5.022883
C 4.995758 3.037475 4.930358
C 6.085985 3.024979 4.916408
C 6.965474 2.974572 5.090156
C 0.024766 3.971816 4.926678
C 0.924088 3.998385 4.975016
C 1.955727 3.970176 4.968839
C 2.959971 3.942967 4.986662
C 3.985609 3.946401 4.907083
C 5.028507 4.033620 5.118091
C 5.925531 3.984351 5.049080
C 6.940151 4.033664 4.967673
C 0.079576 5.087981 4.990097
C 1.008069 5.023490 5.028211
C 2.031343 5.043663 5.051880
C 2.953895 4.997883 4.980172
C 4.048403 5.030887 5.056085
C 4.989257 4.989790 5.049772
C 5.961676 4.963779 4.964133
C 6.968476 5.036131 5.047262
C 0.020427 6.038719 4.918011
C 0.990578 6.006409 5.008753
C 2.032698 6.053701 4.949314
C 2.945283 6.077450 4.972237
C 4.101147 6.036922 4.994065
C 5.020749 6.097855 5.029562
C 5.927950 6.003699 5.010815
C 6.948807 5.967779 4.953071
C 0.056096 6.895635 5.051880
C 1.027880 6.953606 5.061810
C 1.939928 6.936135 5.016676
C 2.945901 6.982853 5.043211
C 4.056131 6.949409 4.999142
C 4.968109 6.958674 4.935602
C 5.951229 6.988173 4.941688
C 6.995751 6.972223 4.902350
C 0.037074 0.071852 6.049446
C 1.092373 0.026421 5.951535
C 2.057063 0.052108 6.042735
C 3.080473 0.036297 6.015621
C 3.966871 0.031158 5.927415
C 5.004138 0.015574 5.959737
C 6.052415 0.045692 5.932801
C 6.992613 0.097833 5.880210
C 0.023369 1.068116 6.059265
C 0.973036 1.085722 6.067043
C 1.983826 1.065727 6.079757
C 3.001624 0.983841 6.094080
C 4.032661 0.919079 5.986153
C 4.949889 1.000910 6.024413
C 5.990555 0.960155 5.958369
C 6.902799 0.947331 5.964951
C 0.034132 2.012048 6.093850
C 0.951770 2.039433 6.011989
C 1.958254 2.076636 6.027859
C 2.959667 2.007825 6.043881
C 3.945431 2.023455 6.000883
C 5.046698 1.991370 6.046187
C 6.005597 2.098045 6.002032
C 6.992317 1.939772 6.004360
C 0.034492 2.920242 6.010348
C 0.989481 2.942457 5.949469
C 1.960577 3.007472 6.092745
C 3.083831 3.061467 6.013799
C 4.031670 2.924237 6.038053
C 4.998293 3.027773 6.019170
C 6.052434 3.034898 6.046540
C 6.992404 3.096785 5.994643
C 0.014465 3.884695 6.020908
C 1.062696 4.028595 5.997763
C 2.036847 4.023562 6.107969
C 2.969355 4.012879 6.081444
C 4.072844 3.999186 6.039769
C 4.993940 3.951846 6.017983
C 6.017077 3.978672 6.063071
C 6.998304 4.008437 6.002793
C 0.001644 5.060055 5.957495
C 1.002002 5.088990 6.056211
C 2.002026 5.045702 5.990194
C 2.982800 5.020526 5.982580
C 4.098591 5.030121 6.024975
C 5.025213 5.109113 5.991599
C 6.018403 4.924152 5.985889
C 6.992376 5.008514 5.969052
C 0.016860 5.992439 5.880353
C 1.036989 5.964510 5.969229
C 2.073499 5.943371 5.973351
C 3.008692 6.005666 6.062504
C 4.063915 5.972332 5.985004
C 4.968939 6.091320 6.066551
C 5.999385 6.005022 6.056894
C 6.962088 6.093357 6.023978
C 0.048140 6.959267 6.018506
C 1.077876 6.911302 5.987797
C 2.042495 6.940898 6.038108
C 2.976426 6.922974 6.102137
C 3.900016 6.996019 5.981761
C 4.920955 6.952550 5.962183
C 6.042632 6.999819 6.003123
C 6.969096 6.997836 5.864124
C 0.042559 0.128336 6.988624
C 0.978952 0.006406 6.920310
C 2.041656 0.069196 6.973400
C 2.954713 0.028252 6.945339
C 4.009797 0.032462 6.961424
C 4.986807 0.077199 6.873242
C 5.969910 0.124886 6.964212
C 6.982436 0.017624 6.900272
C 0.148774 1.019031 6.955561
C 1.070781 1.003752 6.932481
C 1.965410 1.114862 6.990708
C 3.023466 0.911978 6.993939
C 4.073345 0.989176 6.987233
C 5.018834 1.089544 6.925927
C 6.042311 1.053224 6.990623
C 6.973071 1.099090 6.943049
C 0.112574 1.965538 6.989326
C 1.053665 1.981277 6.984809
C 1.985363 2.082336 6.953728
C 3.059563 1.944646 6.940506
C 4.001874 1.917736 6.986238
C 4.934798 2.063977 6.954339
C 5.942742 1.934010 6.988894
C 6.960972 2.031086 6.882532
C 0.109249 2.903537 6.926621
C 1.084020 3.022397 6.961730
C 2.031987 3.025871 6.992608
C 2.958974 2.926314 6.919309
C 4.016116 2.918066 6.985861
C 4.979483 2.987426 6.932248
C 5.914676 3.003684 6.987703
C 6.965066 3.020729 6.931175
C 0.037050 4.011183 6.960013
C 1.038130 4.115284 6.928967
C 1.919008 3.966337 6.980580
C 2.998948 4.006696 6.997965
C 4.016935 3.879663 6.961037
C 4.911596 3.983480 6.979031
C 5.900407 4.059225 6.946919
C 6.881927 4.045586 6.939779
C 0.068716 5.061389 6.888511
C 0.961675 5.092663 6.963368
C 2.019983 4.931091 6.971513
C 3.002115 4.958515 6.879283
C 3.994418 4.934388 6.993844
C 5.008649 5.026178 6.989183
C 5.997357 4.990877 6.993857
C 6.935599 4.975501 6.872919
C 0.070125 6.014769 6.975145
C 1.088493 6.009658 6.993682
C 1.981632 5.942073 6.876165
C 3.081136 5.974568 6.958472
C 4.060055 6.076476 6.984435
C 5.019584 5.966734 6.999701
C 5.902938 6.042862 6.920680
C 6.964888 5.936060 6.945922
C 0.118810 6.923650 6.968193
C 0.946311 6.996704 6.856066
C 1.930976 6.995555 6.931326
C 3.086068 6.998959 6.973903
C 4.139319 6.962292 6.935201
C 5.054050 6.962770 6.886831
C 5.989722 6.951330 6.952560
C 6.884296 6.861791 6.987794
512
Frame 4/10
C 0.083108 0.191145 0.002930
C 1.143687 0.089573 0.025385
C 2.089051 0.183403 0.026286
C 2.920770 0.023475 0.124384
C 4.000628 0.020723 0.134567
C 4.947656 0.087446 0.168851
C 5.792146 0.176090 0.080668
C 6.747371 0.169442 0.053311
C 0.077543 1.111587 0.051012
C 0.944750 0.932700 0.048072
C 1.839918 0.976362 0.043478
C 2.963627 1.172288 0.065434
C 3.860255 1.070221 0.019863
C 4.924457 0.951853 0.056454
C 5.909577 1.022038 0.101371
C 6.981472 0.849557 0.069551
C 0.045772 2.116166 0.084199
C 0.948634 2.054279 0.048438
C 2.105261 1.930278 0.094762
C 3.134558 1.953211 0.055302
C 4.002702 1.900448 0.115281
C 5.077736 2.037329 0.080650
C 6.117820 1.919760 0.017702
C 6.983226 1.967344 0.207200
C 0.163538 3.081149 0.020820
C 1.131049 3.089978 0.108267
C 2.018529 3.141797 0.052187
C 2.973093 3.061451 0.066195
C 4.010264 3.071484 0.123560
C 4.907426 3.178668 0.006828
C 6.040769 2.965351 0.106382
C 6.865519 3.063972 0.024616
C 0.118318 3.967379 0.088253
C 1.117346 4.087930 0.100685
C 2.172035 4.087753 0.029547
C 3.057907 3.906243 0.032179
C 3.917082 4.086180 0.072804
C 5.136461 3.959045 0.010444
C 6.102941 4.045657 0.001952
C 6.955702 3.918163 0.069947
C 0.079548 5.039569 0.093441
C 0.952800 4.917184 0.156066
C 1.980794 5.129658 0.033456
C 3.099565 4.940811 0.046023
C 4.036669 4.960695 0.008947
C 5.040057 5.042133 0.071238
C 6.022907 4.960234 0.068155
C 6.904983 5.004990 0.218087
C 0.044314 6.036450 0.151037
C 0.929017 6.081695 0.063355
C 1.995804 6.001891 0.005758
C 3.014184 5.940353 0.021295
C 4.073857 6.074704 0.034776
C 4.961121 6.098862 0.041275
C 5.949122 5.951420 0.010311
C 6.818967 5.962463 0.001513
C 0.191452 6.942771 0.213838
C 1.095299 6.949751 0.125471
C 2.123457 6.792494 0.150471
C 3.028906 6.942724 0.010614
C 3.933634 6.939098 0.063571
C 4.987854 6.969788 0.091874
C 6.070249 6.998902 0.051726
C 6.827327 6.840892 0.235879
C 0.136076 0.015510 1.154776
C 0.872916 0.015537 0.933626
C 2.026101 0.127960 1.140803
C 2.859100 0.049677 1.061450
C 3.942962 0.155910 1.051623
C 5.054276 0.052287 1.137879
C 5.924763 0.009298 0.874273
C 6.905372 0.153001 1.089961
C 0.094975 0.999402 1.121932
C 0.882558 0.898216 0.933498
C 1.965372 0.938023 1.006848
C 2.977420 0.986627 0.870336
C 4.024406 0.977679 0.850378
C 4.940588 1.005089 1.160804
C 6.091058 0.908916 0.924921
C 6.890557 1.120078 0.931053
C 0.036676 1.930809 0.943331
C 1.120774 2.001019 1.070978
C 1.944793 1.991118 0.893715
C 3.017204 1.943779 0.915623
C 4.015820 2.150106 1.026302
C 4.998444 2.100766 1.009525
C 6.053463 2.040516 1.043106
C 6.995383 2.159260 0.971810
C 0.019573 3.068507 1.207254
C 0.904962 2.963102 0.913976
C 1.960394 2.947702 1.111367
C 3.065285 3.015994 0.943248
C 3.909500 3.065326 1.059149
C 4.996638 3.020156 0.871607
C 6.081992 2.980603 1.082092
C 6.902838 3.113041 0.908291
C 0.142971 3.848935 0.960799
C 0.911071 4.021752 0.929873
C 2.091673 4.004398 0.892149
C 2.957169 3.967009 0.982323
C 3.942478 4.028250 1.041280
C 4.994947 4.015811 1.073821
C 5.921025 4.109585 0.998690
C 6.840808 3.984692 0.899743
C 0.004771 4.884911 0.897741
C 1.086735 5.005734 1.002935
C 2.048115 4.991278 0.890332
C 2.915844 4.917880 0.954236
C 4.066197 4.919573 0.934248
C 4.962946 4.900325 0.983176
C 5.970163 5.040669 1.074073
C 6.852776 4.911720 1.082438
C 0.006366 5.933773 1.146289
C 1.024069 5.883148 1.032507
C 1.894655 6.080584 1.086206
C 3.013156 6.099777 1.047522
C 3.996059 5.930155 1.056263
C 4.987471 5.992953 0.983218
C 5.979086 6.080872 0.890035
C 6.915478 5.922500 1.138208
C 0.043967 6.908493 1.228407
C 1.010505 6.956752 1.153407
C 1.956541 6.981416 0.896512
C 2.967686 6.957125 0.871125
C 4.006134 6.978732 1.143076
C 5.112368 6.959700 0.964703
C 6.010729 6.975124 0.971888
C 6.849488 6.924647 1.098712
C 0.144539 0.095027 2.010380
C 1.158531 0.051605 1.990951
C 2.077123 0.006930 2.012167
C 2.998938 0.021267 1.921432
C 4.043725 0.044845 2.130259
C 4.941600 0.019097 2.087954
C 6.105410 0.024832 1.867222
C 6.961320 0.062278 1.929842
C 0.008736 1.041838 1.974870
C 0.971309 1.060817 1.927323
C 2.046577 1.031415 1.927707
C 3.001491 1.031549 1.972985
C 4.144289 1.046997 1.977469
C 5.043828 0.863305 1.957359
C 5.936463 0.883982 2.128280
C 6.914434 1.130682 1.974234
C 0.016713 1.966336 2.039692
C 0.889001 1.969133 1.972135
C 1.971202 1.973442 2.091850
C 2.858268 2.013584 2.034805
C 3.945768 2.006778 2.044636
C 5.022481 2.098772 2.087000
C 5.912094 2.007299 2.039104
C 6.908585 2.052559 1.799842
C 0.072408 2.870757 1.959438
C 1.095767 2.980798 1.934772
C 2.009497 3.047143 2.020427
C 2.898807 2.982109 2.045387
C 4.136830 3.069379 1.946111
C 5.097058 3.050311 2.052827
C 5.995834 3.033471 2.101940
C 6.918314 3.106284 2.028364
C 0.022868 4.006328 1.952205
C 0.968204 4.098586 2.095975
C 1.943323 4.095035 2.039285
C 3.160749 3.937543 2.022136
C 4.084866 3.965725 1.908321
C 5.029659 4.000331 1.971789
C 6.098242 3.907511 1.987061
C 6.974526 4.119780 1.928628
C 0.070287 5.080313 2.050050
C 1.051879 5.042784 2.096053
C 2.043348 5.009579 1.904625
C 2.911258 5.049101 1.979133
C 4.142323 5.042149 2.045162
C 5.084503 4.908786 2.051247
C 5.982409 4.872275 1.953533
C 6.958152 5.047416 1.912712
C 0.044948 6.012672 2.166136
C 0.907529 6.037765 1.919320
C 2.086080 5.991461 2.022936
C 2.992560 5.920003 1.997660
C 4.045927 6.116021 1.962127
C 5.048293 5.980354 2.129549
C 6.077550 6.007290 2.081634
C 6.977041 6.001414 2.032893
C 0.088309 6.878285 2.107791
C 1.167431 6.911725 1.951793
C 2.089944 6.959494 2.002878
C 3.124811 6.958480 2.007491
C 4.107011 6.911138 2.192249
C 5.086013 6.987914 1.992200
C 6.069670 6.950191 1.993541
C 6.956310 6.979729 1.966121
C 0.007963 0.198163 2.810584
C 0.989077 0.015214 3.119450
C 2.051075 0.078072 2.882136
C 2.917274 0.016771 3.060465
C 3.848578 0.121033 3.045287
C 4.861547 0.067917 3.090383
C 6.040139 0.016933 3.107312
C 6.914104 0.006068 2.833596
C 0.086782 1.096828 3.042723
C 1.052527 1.115932 2.944955
C 2.026692 1.082496 3.104838
C 3.043870 1.051939 3.076374
C 4.133208 0.964179 3.030226
C 5.015512 0.880730 3.076182
C 6.083221 0.895639 3.023611
C 6.932889 0.932218 3.097063
C 0.147059 2.048127 2.996735
C 1.092825 2.083867 3.000007
C 1.972498 2.039786 3.060901
C 3.099928 2.099821 2.915779
C 3.875515 2.017742 3.075177
C 5.118312 2.058610 3.031856
C 5.982516 2.132555 2.993821
C 6.983012 2.023485 3.000554
C 0.031946 2.879741 2.890454
C 0.918626 3.024838 3.086849
C 2.106254 2.976093 2.993613
C 2.971121 2.923356 2.948814
C 4.074414 3.051983 3.004280
C 4.970903 2.931006 2.926746
C 6.043632 3.047486 2.971872
C 6.994963 2.967021 3.001914
C 0.134716 4.075702 3.047990
C 1.134251 3.886050 3.003166
C 1.982728 4.006940 2.910286
C 2.962534 3.963302 2.948862
C 3.915297 3.960941 3.052592
C 5.049249 4.089022 2.965181
C 5.902820 4.128213 3.047693
C 6.993576 3.981792 2.954934
C 0.015122 5.155584 2.993641
C 0.938506 5.117793 2.981667
C 1.937599 5.003528 3.119607
C 2.968313 5.011309 3.085394
C 3.875330 4.951468 3.020786
C 5.140395 5.039955 2.995715
C 6.091519 5.028511 2.968271
C 6.964239 4.969602 3.094596
C 0.026028 6.095783 3.050833
C 0.991855 5.995527 3.001193
C 1.959745 6.053871 2.877084
C 3.072722 5.882954 3.047880
C 3.968922 5.978210 2.868918
C 5.062204 6.026197 3.039621
C 5.915390 5.971763 2.919349
C 6.997425 6.110152 2.983062
C 0.145030 6.987360 3.018739
C 1.164349 6.948917 2.954750
C 2.099644 6.990077 2.959377
C 2.981563 6.930668 3.040674
C 3.957374 6.989263 3.100400
C 5.062359 6.949932 3.019293
C 5.989027 6.863005 2.937859
C 6.894787 6.870712 2.832837
C 0.022626 0.069107 3.949857
C 0.962164 0.116319 4.126172
C 1.984025 0.002626 4.072548
C 2.830510 0.057941 3.976004
C 3.924605 0.006066 4.134168
C 4.903466 0.018449 3.966186
C 6.198933 0.026930 3.940034
C 6.901797 0.148824 4.121914
C 0.009567 1.016399 3.914698
C 1.108053 0.991754 3.963360
C 2.067887 0.975168 3.942764
C 3.028972 0.907725 3.972058
C 4.020679 1.039280 4.058578
C 5.080933 1.095922 4.046702
C 5.905934 0.923317 4.052536
C 6.989647 0.982348 3.950599
C 0.032672 2.130823 3.963878
C 0.896154 2.040431 3.980402
C 1.932759 2.037003 4.025094
C 2.864547 2.091192 3.975977
C 3.902532 2.050997 3.983911
C 5.111347 2.126285 4.002474
C 5.959290 2.098906 4.091825
C 6.985517 1.904313 3.981188
C 0.033317 3.073407 4.008904
C 0.876397 2.913985 3.992924
C 2.094002 2.947207 3.995817
C 3.012510 2.962560 3.858832
C 3.951707 2.997767 3.986907
C 5.090133 3.078440 4.026548
C 6.039497 3.056487 3.863511
C 6.943355 3.126986 3.974733
C 0.204891 4.082142 3.942572
C 0.982907 3.847969 3.902830
C 2.039976 4.047550 4.087924
C 3.007750 4.062512 4.058032
C 3.892379 3.987927 3.973623
C 5.087347 3.957076 4.038477
C 6.124324 4.023911 3.972012
C 6.985115 4.190311 3.983875
C 0.000937 4.914961 4.106610
C 0.921770 4.996515 3.969187
C 2.043806 5.048387 3.983958
C 3.083282 4.933830 4.040540
C 4.013357 4.941778 3.969404
C 5.146032 5.036777 4.022558
C 6.040999 5.099594 4.155687
C 6.938996 4.985028 4.156274
C 0.043779 5.872807 3.926654
C 1.121145 5.938704 4.047444
C 2.120098 5.966767 4.103831
C 2.990104 5.886431 3.963467
C 3.990190 5.964192 4.161334
C 5.013140 5.901035 4.135729
C 5.929174 5.961674 4.023495
C 6.900699 6.093101 3.912742
C 0.119658 6.941181 3.964866
C 1.062547 6.844787 4.014515
C 2.001586 6.985126 4.096948
C 2.974678 6.970819 4.110530
C 4.068197 6.994660 4.056100
C 5.181433 6.874985 4.046853
C 6.072450 6.842428 4.011852
C 6.876850 6.990601 3.966957
C 0.083219 0.006171 4.923264
C 1.026122 0.036748 4.979776
C 2.075657 0.025713 4.947742
C 3.109576 0.035221 5.040854
C 4.122768 0.077063 5.086719
C 5.089290 0.008266 4.892558
C 6.015050 0.026060 4.892120
C 6.875269 0.050989 4.981263
C 0.047386 0.981491 5.052865
C 1.027212 1.041066 5.052886
C 2.012381 1.084071 5.069128
C 3.070620 1.161260 5.060029
C 4.022807 1.099827 5.010127
C 4.914888 0.970426 4.940523
C 6.046699 1.070981 5.050986
C 6.924349 1.034351 5.046284
C 0.098640 1.944812 5.104399
C 0.895106 1.978493 4.866016
C 2.034746 2.072188 4.883033
C 2.881912 2.044323 5.043669
C 4.044171 2.038239 5.039598
C 5.035544 1.944327 4.960739
C 6.096106 1.942379 5.052897
C 6.994616 1.939073 5.074303
C 0.059928 3.094257 4.934975
C 1.020419 2.970558 4.901358
C 1.925917 2.949661 4.922570
C 3.061189 3.038617 5.013195
C 3.987031 2.939289 5.034324
C 4.993636 3.056213 4.895538
C 6.128978 3.037469 4.874613
C 6.948212 2.961857 5.135234
C 0.037149 3.957724 4.890017
C 0.886131 3.997578 4.962524
C 1.933590 3.955264 4.953259
C 2.939956 3.914451 4.979992
C 3.978414 3.919602 4.860624
C 5.042760 4.050430 5.177136
C 5.888296 3.976526 5.073620
C 6.910227 4.050496 4.951510
C 0.119363 5.131971 4.985146
C 1.012103 5.035236 5.042316
C 2.047014 5.065495 5.077820
C 2.930842 4.996825 4.970258
C 4.072605 5.046331 5.084128
C 4.983886 4.984685 5.074657
C 5.942514 4.945669 4.946200
C 6.952715 5.054197 5.070894
C 0.030641 6.058079 4.877017
C 0.985867 6.009614 5.013130
C 2.049046 6.080551 4.923970
C 2.917925 6.116175 4.958355
C 4.151720 6.055382 4.991097
C 5.031123 6.146782 5.044343
C 5.891925 6.005549 5.016222
C 6.923211 5.951668 4.929606
C 0.084144 6.843453 5.077820
C 1.041820 6.930409 5.092715
C 1.909891 6.904203 5.025014
C 2.918852 6.974279 5.064817
C 4.084197 6.924113 4.998714
C 4.952163 6.938011 4.903403
C 5.926844 6.982260 4.912532
C 6.993627 6.958335 4.853525
C 0.055611 0.107777 6.074169
C 1.138560 0.039631 5.927303
C 2.085595 0.078163 6.064103
C 3.120709 0.054446 6.023431
C 3.950306 0.046736 5.891123
C 5.006206 0.023361 5.939605
C 6.078623 0.068538 5.899202
C 6.988920 0.146750 5.820316
C 0.035053 1.102175 6.088897
C 0.959555 1.128583 6.100564
C 1.975739 1.098590 6.119636
C 3.002436 0.975761 6.141121
C 4.048992 0.878619 5.979229
C 4.924834 1.001365 6.036619
C 5.985832 0.940233 5.937553
C 6.854198 0.920997 5.947427
C 0.051198 2.018072 6.140774
C 0.927656 2.059149 6.017983
C 1.937382 2.114955 6.041789
C 2.939500 2.011737 6.065822
C 3.918146 2.035182 6.001325
C 5.070047 1.987055 6.069281
C 6.008395 2.147067 6.003048
C 6.988475 1.909658 6.006540
C 0.051738 2.880363 6.015522
C 0.984222 2.913685 5.924203
C 1.940865 3.011207 6.139117
C 3.125747 3.092200 6.020699
C 4.047505 2.886356 6.057080
C 4.997440 3.041659 6.028754
C 6.078650 3.052348 6.069810
C 6.988607 3.145178 5.991965
C 0.021698 3.827042 6.031362
C 1.094044 4.042893 5.996645
C 2.055271 4.035342 6.161954
C 2.954032 4.019319 6.122166
C 4.109265 3.998780 6.059653
C 4.990909 3.927769 6.026974
C 6.025616 3.968008 6.094607
C 6.997455 4.012655 6.004189
C 0.002466 5.090083 5.936243
C 1.003003 5.133486 6.084316
C 2.003040 5.068553 5.985291
C 2.974200 5.030790 5.973870
C 4.147886 5.045182 6.037462
C 5.037820 5.163669 5.987398
C 6.027604 4.886227 5.978834
C 6.988564 5.012771 5.953578
C 0.025290 5.988658 5.820530
C 1.055483 5.946765 5.953844
C 2.110248 5.915056 5.960026
C 3.013038 6.008500 6.093756
C 4.095873 5.958498 5.977506
C 4.953408 6.136980 6.099827
C 5.999077 6.007533 6.085342
C 6.943132 6.140036 6.035967
C 0.072210 6.938901 6.027759
C 1.116814 6.866953 5.981696
C 2.063742 6.911347 6.057162
C 2.964639 6.884461 6.153206
C 3.850023 6.994028 5.972641
C 4.881432 6.928825 5.943274
C 6.063948 6.999729 6.004684
C 6.953644 6.996755 5.796185
C 0.063838 0.192503 6.982936
C 0.968428 0.009608 6.880465
C 2.062484 0.103794 6.960100
C 2.932069 0.042378 6.918008
C 4.014696 0.048693 6.942136
C 4.980211 0.115798 6.809863
C 5.954866 0.187329 6.946317
C 6.973655 0.026436 6.850408
C 0.223161 1.028547 6.933342
C 1.106171 1.005627 6.898722
C 1.948115 1.172292 6.986062
C 3.035199 0.867966 6.990909
C 4.110018 0.983763 6.980850
C 5.028250 1.134315 6.888891
C 6.063466 1.079837 6.985934
C 6.959607 1.148635 6.914574
C 0.168860 1.948307 6.983988
C 1.080497 1.971915 6.977213
C 1.978045 2.123504 6.930591
C 3.089344 1.916969 6.910758
C 4.002811 1.876604 6.979357
C 4.902197 2.095966 6.931508
C 5.914114 1.901014 6.983341
C 6.941458 2.046629 6.823798
C 0.163873 2.855305 6.889931
C 1.126030 3.033596 6.942595
C 2.047980 3.038806 6.988912
C 2.938461 2.889470 6.878963
C 4.024174 2.877100 6.978791
C 4.969225 2.981139 6.898372
C 5.872013 3.005526 6.981555
C 6.947598 3.031093 6.896763
C 0.055575 4.016774 6.940019
C 1.057195 4.172926 6.893451
C 1.878512 3.949506 6.970870
C 2.998422 4.010044 6.996948
C 4.025402 3.819494 6.941555
C 4.867393 3.975220 6.968546
C 5.850610 4.088838 6.920379
C 6.822890 4.068380 6.909669
C 0.103074 5.092083 6.832767
C 0.942512 5.138994 6.945053
C 2.029974 4.896637 6.957269
C 3.003173 4.937773 6.818925
C 3.991626 4.901583 6.990766
C 5.012974 5.039267 6.983774
C 5.996036 4.986315 6.990785
C 6.903399 4.963252 6.809379
C 0.105187 6.022153 6.962718
C 1.132739 6.014486 6.990523
C 1.972448 5.913109 6.814248
C 3.121704 5.961853 6.937708
C 4.090082 6.114714 6.976652
C 5.029376 5.950101 6.999552
C 5.854407 6.064293 6.881021
C 6.947333 5.904090 6.918884
C 0.178216 6.885475 6.952289
C 0.919467 6.995055 6.784099
C 1.896464 6.993333 6.896989
C 3.129102 6.998438 6.960855
C 4.208978 6.943439 6.902801
C 5.081075 6.944155 6.830246
C 5.984584 6.926994 6.928839
C 6.826444 6.792686 6.981691
512
Frame 5/10
C 0.110810 0.254860 0.003907
C 1.191583 0.119431 0.033847
C 2.118735 0.244538 0.035048
C 2.894361 0.031300 0.165846
C 4.000838 0.027631 0.179422
C 4.930208 0.116595 0.225135
C 5.722862 0.234787 0.107558
C 6.663161 0.225922 0.071081
C 0.103391 1.148782 0.068016
C 0.926334 0.910267 0.064096
C 1.786557 0.968483 0.057970
C 2.951503 1.229717 0.087245
C 3.813673 1.093628 0.026484
C 4.899276 0.935805 0.075272
C 5.879436 1.029384 0.135162
C 6.975296 0.799409 0.092735
C 0.061030 2.154889 0.112265
C 0.931512 2.072373 0.064583
C 2.140348 1.907038 0.126349
C 3.179411 1.937615 0.073736
C 4.003602 1.867264 0.153708
C 5.103648 2.049772 0.107534
C 6.157093 1.893013 0.023602
C 6.977635 1.956459 0.276266
C 0.218050 3.108199 0.027760
C 1.174732 3.119971 0.144356
C 2.024705 3.189063 0.069582
C 2.964125 3.081935 0.088260
C 4.013685 3.095313 0.164747
C 4.876567 3.238224 0.009104
C 6.054358 2.953801 0.141843
C 6.820692 3.085297 0.032821
C 0.157757 3.956505 0.117670
C 1.156461 4.117239 0.134247
C 2.229380 4.117005 0.039396
C 3.077209 3.874991 0.042906
C 3.889443 4.114907 0.097072
C 5.181948 3.945394 0.013926
C 6.137254 4.060875 0.002603
C 6.940936 3.890884 0.093263
C 0.106065 5.052758 0.124588
C 0.937066 4.889578 0.208088
C 1.974391 5.172878 0.044608
C 3.132753 4.921081 0.061364
C 4.048892 4.947594 0.011930
C 5.053409 5.056177 0.094984
C 6.030542 4.946978 0.090873
C 6.873311 5.006653 0.290783
C 0.059085 6.048600 0.201383
C 0.905356 6.108927 0.084473
C 1.994405 6.002522 0.007678
C 3.018911 5.920471 0.028394
C 4.098476 6.099605 0.046368
C 4.948161 6.131816 0.055033
C 5.932162 5.935226 0.013749
C 6.758623 5.949951 0.002017
C 0.255269 6.923695 0.285117
C 1.127065 6.933002 0.167294
C 2.164610 6.723325 0.200628
C 3.038542 6.923632 0.014152
C 3.911513 6.918797 0.084761
C 4.983805 6.959717 0.122499
C 6.093665 6.998536 0.068968
C 6.769769 6.787856 0.314506
C 0.181435 0.020680 1.206368
C 0.830555 0.020715 0.911501
C 2.034802 0.170613 1.187737
C 2.812134 0.066236 1.081934
C 3.923949 0.207880 1.068830
C 5.072369 0.069716 1.183839
C 5.899684 0.012397 0.832364
C 6.873830 0.204002 1.119948
C 0.126633 0.999203 1.162577
C 0.843411 0.864288 0.911331
C 1.953830 0.917364 1.009131
C 2.969893 0.982169 0.827115
C 4.032541 0.970238 0.800503
C 4.920784 1.006786 1.214405
C 6.121411 0.878554 0.899895
C 6.854076 1.160104 0.908071
C 0.048901 1.907745 0.924441
C 1.161032 2.001359 1.094637
C 1.926390 1.988157 0.858287
C 3.022939 1.925039 0.887497
C 4.021094 2.200141 1.035069
C 4.997925 2.134355 1.012700
C 6.071284 2.054022 1.057474
C 6.993844 2.212347 0.962413
C 0.026098 3.091343 1.276338
C 0.873283 2.950803 0.885301
C 1.947191 2.930269 1.148489
C 3.087046 3.021326 0.924330
C 3.879333 3.087101 1.078865
C 4.995517 3.026875 0.828809
C 6.109323 2.974137 1.109457
C 6.870450 3.150722 0.877722
C 0.190627 3.798580 0.947732
C 0.881428 4.029003 0.906497
C 2.122231 4.005864 0.856199
C 2.942892 3.956012 0.976430
C 3.923304 4.037666 1.055040
C 4.993263 4.021082 1.098428
C 5.894700 4.146114 0.998253
C 6.787744 3.979589 0.866324
C 0.006361 4.846549 0.863655
C 1.115647 5.007645 1.003913
C 2.064153 4.988371 0.853776
C 2.887792 4.890507 0.938982
C 4.088262 4.892764 0.912331
C 4.950595 4.867100 0.977568
C 5.960217 5.054226 1.098764
C 6.803701 4.882293 1.109918
C 0.008488 5.911697 1.195052
C 1.032092 5.844197 1.043343
C 1.859539 6.107445 1.114941
C 3.017541 6.133036 1.063363
C 3.994745 5.906874 1.075017
C 4.983294 5.990604 0.977624
C 5.972114 6.107830 0.853379
C 6.887304 5.896667 1.184277
C 0.058623 6.877990 1.304543
C 1.014006 6.942336 1.204542
C 1.942055 6.975221 0.862016
C 2.956915 6.942833 0.828167
C 4.008178 6.971643 1.190768
C 5.149824 6.946267 0.952937
C 6.014306 6.966833 0.962517
C 6.799317 6.899529 1.131616
C 0.192718 0.126703 2.013840
C 1.211375 0.068807 1.987935
C 2.102831 0.009240 2.016222
C 2.998584 0.028356 1.895243
C 4.058299 0.059794 2.173678
C 4.922133 0.025463 2.117271
C 6.140547 0.033110 1.822963
C 6.948427 0.083038 1.906455
C 0.011648 1.055784 1.966494
C 0.961746 1.081089 1.903097
C 2.062103 1.041887 1.903609
C 3.001988 1.042065 1.963980
C 4.192385 1.062662 1.969958
C 5.058437 0.817740 1.943146
C 5.915284 0.845310 2.171041
C 6.885912 1.174242 1.965645
C 0.022284 1.955115 2.052923
C 0.852001 1.958844 1.962847
C 1.961603 1.964590 2.122466
C 2.811024 2.018111 2.046407
C 3.927691 2.009037 2.059514
C 5.029975 2.131696 2.116000
C 5.882792 2.009731 2.052138
C 6.878114 2.070079 1.733123
C 0.096544 2.827676 1.945917
C 1.127689 2.974397 1.913029
C 2.012663 3.062858 2.027236
C 2.865076 2.976145 2.060516
C 4.182440 3.092506 1.928148
C 5.129410 3.067082 2.070436
C 5.994446 3.044628 2.135920
C 6.891085 3.141711 2.037819
C 0.030490 4.008437 1.936274
C 0.957605 4.131448 2.127967
C 1.924431 4.126713 2.052380
C 3.214332 3.916724 2.029515
C 4.113155 3.954300 1.877761
C 5.039546 4.000441 1.962385
C 6.130989 3.876682 1.982748
C 6.966035 4.159707 1.904837
C 0.093716 5.107084 2.066734
C 1.069172 5.057045 2.128070
C 2.057797 5.012772 1.872834
C 2.881677 5.065468 1.972177
C 4.189764 5.056199 2.060216
C 5.112670 4.878381 2.068329
C 5.976546 4.829700 1.938044
C 6.944202 5.063222 1.883616
C 0.059931 6.016897 2.221514
C 0.876705 6.050354 1.892426
C 2.114773 5.988615 2.030582
C 2.990080 5.893337 1.996880
C 4.061236 6.154695 1.949502
C 5.064391 5.973805 2.172732
C 6.103400 6.009720 2.108846
C 6.969387 6.001886 2.043857
C 0.117746 6.837714 2.143721
C 1.223241 6.882300 1.935724
C 2.119925 6.945992 2.003837
C 3.166415 6.944640 2.009988
C 4.142681 6.881517 2.256332
C 5.114684 6.983885 1.989600
C 6.092893 6.933588 1.991388
C 6.941747 6.972972 1.954828
C 0.010617 0.264217 2.747445
C 0.985437 0.020285 3.159267
C 2.068100 0.104096 2.842848
C 2.889699 0.022362 3.080620
C 3.798104 0.161377 3.060382
C 4.815396 0.090557 3.120510
C 6.053519 0.022577 3.143083
C 6.885472 0.008091 2.778129
C 0.115709 1.129104 3.056965
C 1.070036 1.154576 2.926606
C 2.035589 1.109994 3.139784
C 3.058493 1.069252 3.101831
C 4.177611 0.952238 3.040301
C 5.020683 0.840974 3.101577
C 6.110962 0.860852 3.031481
C 6.910519 0.909624 3.129417
C 0.196079 2.064169 2.995646
C 1.123766 2.111823 3.000010
C 1.963331 2.053048 3.081201
C 3.133237 2.133095 2.887705
C 3.834019 2.023656 3.100236
C 5.157749 2.078147 3.042475
C 5.976688 2.176739 2.991761
C 6.977350 2.031313 3.000739
C 0.042594 2.839655 2.853939
C 0.891501 3.033118 3.115798
C 2.141672 2.968124 2.991484
C 2.961494 2.897808 2.931752
C 4.099219 3.069311 3.005706
C 4.961204 2.908008 2.902328
C 6.058177 3.063314 2.962496
C 6.993284 2.956029 3.002552
C 0.179622 4.100936 3.063986
C 1.179001 3.848067 3.004221
C 1.976970 4.009254 2.880381
C 2.950045 3.951069 2.931816
C 3.887062 3.947922 3.070123
C 5.065665 4.118696 2.953574
C 5.870427 4.170951 3.063591
C 6.991434 3.975723 2.939912
C 0.020163 5.207446 2.991521
C 0.918008 5.157057 2.975556
C 1.916798 5.004704 3.159476
C 2.957750 5.015079 3.113859
C 3.833773 4.935291 3.027714
C 5.187194 5.053273 2.994286
C 6.122025 5.038014 2.957695
C 6.952318 4.959470 3.126128
C 0.034704 6.127711 3.067778
C 0.989140 5.994036 3.001591
C 1.946327 6.071828 2.836112
C 3.096963 5.843938 3.063839
C 3.958562 5.970946 2.825224
C 5.082938 6.034930 3.052828
C 5.887187 5.962351 2.892465
C 6.996567 6.146870 2.977416
C 0.193373 6.983146 3.024985
C 1.219132 6.931890 2.939667
C 2.132858 6.986769 2.945836
C 2.975417 6.907558 3.054233
C 3.943166 6.985684 3.133867
C 5.083145 6.933243 3.025724
C 5.985370 6.817340 2.917145
C 6.859717 6.827616 2.777116
C 0.030169 0.092143 3.933143
C 0.949552 0.155092 4.168230
C 1.978700 0.003501 4.096730
C 2.774013 0.077255 3.968005
C 3.899474 0.008088 4.178891
C 4.871288 0.024598 3.954914
C 6.265244 0.035907 3.920046
C 6.869063 0.198432 4.162552
C 0.012757 1.021865 3.886264
C 1.144070 0.989005 3.951147
C 2.090516 0.966891 3.923685
C 3.038630 0.876967 3.962744
C 4.027572 1.052373 4.078103
C 5.107910 1.127896 4.062269
C 5.874578 0.897756 4.070047
C 6.986196 0.976464 3.934132
C 0.043562 2.174431 3.951838
C 0.861539 2.053909 3.973869
C 1.910346 2.049338 4.033459
C 2.819396 2.121589 3.967969
C 3.870043 2.067997 3.978548
C 5.148463 2.168380 4.003299
C 5.945720 2.131875 4.122434
C 6.980690 1.872418 3.974917
C 0.044423 3.097877 4.011873
C 0.835196 2.885314 3.990565
C 2.125336 2.929609 3.994423
C 3.016680 2.950080 3.811776
C 3.935609 2.997023 3.982542
C 5.120178 3.104587 4.035398
C 6.052663 3.075316 3.818014
C 6.924473 3.169315 3.966311
C 0.273188 4.109523 3.923429
C 0.977209 3.797292 3.870440
C 2.053301 4.063400 4.117232
C 3.010333 4.083349 4.077377
C 3.856506 3.983903 3.964830
C 5.116463 3.942769 4.051303
C 6.165766 4.031881 3.962683
C 6.980153 4.253748 3.978500
C 0.001249 4.886615 4.142146
C 0.895693 4.995353 3.958916
C 2.058408 5.064516 3.978610
C 3.111043 4.911773 4.054054
C 4.017809 4.922371 3.959205
C 5.194709 5.049035 4.030077
C 6.054666 5.132792 4.207583
C 6.918662 4.980037 4.208365
C 0.058372 5.830409 3.902205
C 1.161527 5.918272 4.063259
C 2.160131 5.955689 4.138441
C 2.986805 5.848575 3.951289
C 3.986920 5.952256 4.215112
C 5.017520 5.868046 4.180972
C 5.905566 5.948899 4.031327
C 6.867599 6.124135 3.883656
C 0.159544 6.921575 3.953154
C 1.083396 6.793049 4.019354
C 2.002114 6.980168 4.129264
C 2.966238 6.961092 4.147374
C 4.090930 6.992880 4.074800
C 5.241911 6.833313 4.062471
C 6.096600 6.789903 4.015803
C 6.835800 6.987469 3.955943
C 0.110959 0.008228 4.897685
C 1.034829 0.048998 4.973035
C 2.100876 0.034284 4.930322
C 3.146101 0.046962 5.054471
C 4.163691 0.102751 5.115625
C 5.119054 0.011021 4.856744
C 6.020067 0.034747 4.856160
C 6.833692 0.067985 4.975017
C 0.063181 0.975321 5.070487
C 1.036282 1.054755 5.070514
C 2.016508 1.112095 5.092170
C 3.094159 1.215013 5.080039
C 4.030409 1.133102 5.013503
C 4.886518 0.960568 4.920697
C 6.062265 1.094641 5.067981
C 6.899132 1.045802 5.061712
C 0.131521 1.926416 5.139199
C 0.860141 1.971323 4.821355
C 2.046328 2.096251 4.844044
C 2.842550 2.059097 5.058226
C 4.058895 2.050986 5.052797
C 5.047392 1.925770 4.947652
C 6.128141 1.923172 5.070529
C 6.992822 1.918764 5.099071
C 0.079904 3.125676 4.913300
C 1.027225 2.960744 4.868477
C 1.901223 2.932881 4.896760
C 3.081586 3.051490 5.017594
C 3.982708 2.919053 5.045765
C 4.991515 3.074950 4.860717
C 6.171970 3.049958 4.832817
C 6.930949 2.949143 5.180311
C 0.049532 3.943632 4.853355
C 0.848175 3.996771 4.950031
C 1.911454 3.940352 4.937678
C 2.919941 3.885935 4.973323
C 3.971219 3.892802 4.814165
C 5.057014 4.067241 5.236182
C 5.851062 3.968701 5.098160
C 6.880302 4.067328 4.935347
C 0.159151 5.175962 4.980195
C 1.016138 5.046981 5.056422
C 2.062686 5.087326 5.103760
C 2.907790 4.995766 4.960343
C 4.096807 5.061775 5.112170
C 4.978514 4.979580 5.099543
C 5.923352 4.927558 4.928266
C 6.936953 5.072263 5.094525
C 0.040855 6.077438 4.836023
C 0.981155 6.012819 5.017506
C 2.065395 6.107401 4.898627
C 2.890567 6.154900 4.944474
C 4.202294 6.073843 4.988130
C 5.041498 6.195710 5.059124
C 5.855900 6.007398 5.021630
C 6.897614 5.935557 4.906141
C 0.112192 6.791271 5.103760
C 1.055760 6.907212 5.123620
C 1.879855 6.872270 5.033352
C 2.891803 6.965706 5.086423
C 4.112263 6.898817 4.998285
C 4.936218 6.917348 4.871204
C 5.902459 6.976346 4.883375
C 6.991503 6.944446 4.804700
C 0.074149 0.143703 6.098892
C 1.184746 0.052841 5.903071
C 2.114127 0.104217 6.085471
C 3.160945 0.072594 6.031241
C 3.933742 0.062315 5.854830
C 5.008275 0.031148 5.919474
C 6.104830 0.091383 5.865603
C 6.985227 0.195667 5.760421
C 0.046737 1.136233 6.118529
C 0.946073 1.171444 6.134086
C 1.967652 1.131454 6.159515
C 3.003248 0.967681 6.188161
C 4.065322 0.838158 5.972306
C 4.899778 1.001821 6.048825
C 5.981110 0.920310 5.916737
C 6.805598 0.894662 5.929903
C 0.068264 2.024096 6.187699
C 0.903541 2.078866 6.023978
C 1.916509 2.153273 6.055719
C 2.919333 2.015650 6.087763
C 3.890862 2.046909 6.001766
C 5.093396 1.982740 6.092374
C 6.011194 2.196090 6.004063
C 6.984634 1.879543 6.008720
C 0.068983 2.840484 6.020696
C 0.978962 2.884914 5.898938
C 1.921153 3.014943 6.185490
C 3.167663 3.122933 6.027599
C 4.063340 2.848474 6.076107
C 4.996586 3.055546 6.038339
C 6.104867 3.069797 6.093081
C 6.984809 3.193570 5.989286
C 0.028931 3.769390 6.041815
C 1.125392 4.057191 5.995527
C 2.073694 4.047123 6.215938
C 2.938709 4.025758 6.162888
C 4.145687 3.998373 6.079538
C 4.987879 3.903692 6.035965
C 6.034155 3.957343 6.126142
C 6.996607 4.016874 6.005586
C 0.003288 5.120111 5.914991
C 1.004003 5.177981 6.112422
C 2.004053 5.091404 5.980388
C 2.965599 5.041053 5.965160
C 4.197181 5.060243 6.049950
C 5.050427 5.218226 5.983198
C 6.036806 4.848303 5.971778
C 6.984753 5.017028 5.938103
C 0.033720 5.984877 5.760706
C 1.073978 5.929020 5.938459
C 2.146997 5.886741 5.946702
C 3.017385 6.011333 6.125008
C 4.127830 5.944665 5.970007
C 4.937878 6.182640 6.133103
C 5.998769 6.010043 6.113789
C 6.924176 6.186714 6.047956
C 0.096280 6.918535 6.037013
C 1.155752 6.822605 5.975595
C 2.084990 6.881796 6.076215
C 2.952852 6.845948 6.204274
C 3.800031 6.992038 5.963522
C 4.841909 6.905101 5.924365
C 6.085264 6.999639 6.006246
C 6.938191 6.995673 5.728247
C 0.085118 0.256671 6.977248
C 0.957904 0.012811 6.840620
C 2.083312 0.138392 6.946800
C 2.909425 0.056504 6.890677
C 4.019595 0.064924 6.922848
C 4.973615 0.154398 6.746484
C 5.939821 0.249772 6.928423
C 6.964873 0.035248 6.800544
C 0.297548 1.038063 6.911122
C 1.141562 1.007503 6.864963
C 1.930819 1.229723 6.981416
C 3.046932 0.823955 6.987878
C 4.146690 0.978351 6.974467
C 5.037667 1.179087 6.851854
C 6.084622 1.106449 6.981245
C 6.946142 1.198180 6.886098
C 0.225147 1.931076 6.978651
C 1.107329 1.962554 6.969617
C 1.970726 2.164672 6.907455
C 3.119125 1.889292 6.881011
C 4.003748 1.835472 6.972476
C 4.869596 2.127954 6.908677
C 5.885485 1.868019 6.977789
C 6.921944 2.062172 6.765064
C 0.218497 2.807073 6.853242
C 1.168039 3.044794 6.923460
C 2.063973 3.051742 6.985215
C 2.917948 2.852627 6.838617
C 4.032232 2.836133 6.971721
C 4.958967 2.974852 6.864495
C 5.829351 3.007368 6.975407
C 6.930131 3.041457 6.862351
C 0.074100 4.022365 6.920025
C 1.076260 4.230568 6.857935
C 1.838016 3.932674 6.961159
C 2.997896 4.013392 6.995930
C 4.033869 3.759325 6.922074
C 4.823191 3.966960 6.958062
C 5.800814 4.118450 6.893838
C 6.763853 4.091173 6.879559
C 0.137431 5.122777 6.777023
C 0.923349 5.185326 6.926737
C 2.039966 4.862182 6.943025
C 3.004230 4.917030 6.758566
C 3.988835 4.868777 6.987688
C 5.017299 5.052356 6.978366
C 5.994715 4.981754 6.987713
C 6.871198 4.951002 6.745839
C 0.140250 6.029537 6.950291
C 1.176985 6.019315 6.987364
C 1.963265 5.884145 6.752331
C 3.162273 5.949137 6.916943
C 4.120110 6.152953 6.968870
C 5.039169 5.933468 6.999402
C 5.805876 6.085724 6.841361
C 6.929777 5.872120 6.891845
C 0.237621 6.847300 6.936386
C 0.892623 6.993407 6.712132
C 1.861952 6.991111 6.862652
C 3.172135 6.997918 6.947806
C 4.278638 6.924585 6.870402
C 5.108100 6.925540 6.773662
C 5.979445 6.902659 6.905119
C 6.768592 6.723582 6.975588
512
Frame 6/10
C 0.138513 0.318575 0.004884
C 1.239479 0.149289 0.042308
C 2.148419 0.305672 0.043810
C 2.867951 0.039125 0.207307
C 4.001047 0.034538 0.224278
C 4.912760 0.145744 0.281419
C 5.653577 0.293484 0.134447
C 6.578951 0.282403 0.088852
C 0.129239 1.185978 0.085020
C 0.907917 0.887833 0.080120
C 1.733197 0.960604 0.072463
C 2.939379 1.287146 0.109057
C 3.767091 1.117035 0.033106
C 4.874095 0.919756 0.094089
C 5.849295 1.036729 0.168952
C 6.969120 0.749261 0.115918
C 0.076287 2.193611 0.140331
C 0.914390 2.090466 0.080729
C 2.175435 1.883797 0.157937
C 3.224263 1.922019 0.092170
C 4.004503 1.834080 0.192135
C 5.129560 2.062215 0.134417
C 6.196366 1.866266 0.029503
C 6.972043 1.945573 0.345333
C 0.272563 3.135249 0.034700
C 1.218415 3.149964 0.180445
C 2.030881 3.236328 0.086978
C 2.955156 3.102419 0.110325
C 4.017106 3.119141 0.205934
C 4.845709 3.297780 0.011380
C 6.067948 2.942251 0.177303
C 6.775865 3.106621 0.041026
C 0.197196 3.945632 0.147088
C 1.195577 4.146549 0.167808
C 2.286725 4.146256 0.049245
C 3.096511 3.843739 0.053632
C 3.861804 4.143634 0.121340
C 5.227435 3.931742 0.017407
C 6.171568 4.076094 0.003253
C 6.926170 3.863605 0.116579
C 0.132581 5.065948 0.155735
C 0.921333 4.861973 0.260110
C 1.967989 5.216097 0.055759
C 3.165942 4.901352 0.076705
C 4.061115 4.934492 0.014912
C 5.066761 5.070221 0.118730
C 6.038178 4.933723 0.113591
C 6.841639 5.008317 0.363478
C 0.073857 6.060750 0.251728
C 0.881695 6.136159 0.105591
C 1.993006 6.003152 0.009597
C 3.023639 5.900588 0.035492
C 4.123095 6.124507 0.057960
C 4.935201 6.164771 0.068791
C 5.915203 5.919033 0.017186
C 6.698279 5.937438 0.002521
C 0.319087 6.904619 0.356396
C 1.158832 6.916252 0.209118
C 2.205762 6.654157 0.250786
C 3.048177 6.904539 0.017690
C 3.889391 6.898497 0.105952
C 4.979756 6.949646 0.153124
C 6.117082 6.998169 0.086210
C 6.712211 6.734820 0.393132
C 0.226794 0.025850 1.257960
C 0.788194 0.025894 0.889377
C 2.043502 0.213267 1.234671
C 2.765167 0.082794 1.102417
C 3.904936 0.259850 1.086038
C 5.090461 0.087146 1.229798
C 5.874605 0.015497 0.790455
C 6.842287 0.255002 1.149935
C 0.158291 0.999003 1.203221
C 0.804263 0.830360 0.889164
C 1.942287 0.896705 1.011414
C 2.962367 0.977711 0.783894
C 4.040676 0.962798 0.750629
C 4.900980 1.008482 1.268007
C 6.151764 0.848193 0.874868
C 6.817596 1.200130 0.885089
C 0.061126 1.884681 0.905551
C 1.201289 2.001699 1.118297
C 1.907988 1.985196 0.822858
C 3.028673 1.906299 0.859372
C 4.026367 2.250177 1.043836
C 4.997406 2.167944 1.015875
C 6.089105 2.067527 1.071843
C 6.992305 2.265433 0.953017
C 0.032622 3.114178 1.345423
C 0.841604 2.938504 0.856626
C 1.933989 2.912836 1.185612
C 3.108808 3.026657 0.905413
C 3.849167 3.108876 1.098581
C 4.994396 3.033594 0.786011
C 6.136653 2.967671 1.136821
C 6.838063 3.188402 0.847152
C 0.238284 3.748225 0.934665
C 0.851785 4.036254 0.883121
C 2.152789 4.007330 0.820249
C 2.928615 3.945015 0.970538
C 3.904129 4.047083 1.068799
C 4.991578 4.026352 1.123034
C 5.868374 4.182642 0.997816
C 6.734680 3.974486 0.832905
C 0.007952 4.808186 0.829569
C 1.144559 5.009556 1.004891
C 2.080191 4.985464 0.817219
C 2.859740 4.863134 0.923727
C 4.110328 4.865955 0.890413
C 4.938243 4.833875 0.971960
C 5.950272 5.067782 1.123455
C 6.754626 4.852866 1.137397
C 0.010610 5.889622 1.243816
C 1.040115 5.805246 1.054179
C 1.824424 6.134306 1.143676
C 3.021927 6.166295 1.079203
C 3.993432 5.883592 1.093771
C 4.979118 5.988254 0.972030
C 5.965143 6.134787 0.816724
C 6.859130 5.870834 1.230347
C 0.073279 6.847488 1.380678
C 1.017508 6.927920 1.255678
C 1.927569 6.969027 0.827520
C 2.946144 6.928541 0.785209
C 4.010223 6.964554 1.238460
C 5.187280 6.932834 0.941171
C 6.017882 6.958541 0.953147
C 6.749146 6.874412 1.164520
C 0.240898 0.158379 2.017300
C 1.264219 0.086008 1.984918
C 2.128539 0.011550 2.020278
C 2.998231 0.035445 1.869054
C 4.072874 0.074742 2.217098
C 4.902667 0.031829 2.146589
C 6.175683 0.041387 1.778703
C 6.935534 0.103797 1.883069
C 0.014560 1.069730 1.958117
C 0.952182 1.101361 1.878871
C 2.077628 1.052359 1.879512
C 3.002485 1.052581 1.954975
C 4.240481 1.078328 1.962448
C 5.073046 0.772175 1.928932
C 5.894106 0.806637 2.213801
C 6.857390 1.217803 1.957056
C 0.027855 1.943894 2.066154
C 0.815001 1.948555 1.953558
C 1.952003 1.955737 2.153083
C 2.763780 2.022639 2.058008
C 3.909613 2.011297 2.074393
C 5.037469 2.164621 2.145000
C 5.853490 2.012164 2.065173
C 6.847642 2.087599 1.666404
C 0.120680 2.784595 1.932396
C 1.159612 2.967996 1.891286
C 2.015828 3.078572 2.034045
C 2.831345 2.970182 2.075645
C 4.228051 3.115632 1.910185
C 5.161763 3.083852 2.088045
C 5.993057 3.055785 2.169901
C 6.863856 3.177139 2.047274
C 0.038113 4.010546 1.920342
C 0.947006 4.164310 2.159958
C 1.905539 4.158391 2.065475
C 3.267915 3.895905 2.036894
C 4.141444 3.942875 1.847201
C 5.049432 4.000552 1.952981
C 6.163737 3.845852 1.978435
C 6.957544 4.199634 1.881046
C 0.117145 5.133856 2.083417
C 1.086465 5.071306 2.160088
C 2.072247 5.015964 1.841042
C 2.852097 5.081835 1.965221
C 4.237205 5.070249 2.075270
C 5.140838 4.847976 2.085412
C 5.970682 4.787125 1.922555
C 6.930253 5.079027 1.854520
C 0.074914 6.021121 2.276893
C 0.845881 6.062942 1.865533
C 2.143466 5.985769 2.038227
C 2.987600 5.866672 1.996100
C 4.076545 6.193369 1.936878
C 5.080488 5.967256 2.215914
C 6.129250 6.012150 2.136057
C 6.961734 6.002357 2.054821
C 0.147182 6.797142 2.179651
C 1.279052 6.852875 1.919655
C 2.149906 6.932489 2.004796
C 3.208018 6.930801 2.012486
C 4.178351 6.851896 2.320415
C 5.143355 6.979856 1.987001
C 6.116116 6.916985 1.989235
C 6.927184 6.966215 1.943536
C 0.013272 0.330271 2.684307
C 0.981796 0.025356 3.199083
C 2.085125 0.130120 2.803560
C 2.862124 0.027952 3.100774
C 3.747630 0.201721 3.075478
C 4.769245 0.113196 3.150638
C 6.066899 0.028221 3.178854
C 6.856839 0.010114 2.722661
C 0.144636 1.161380 3.071206
C 1.087544 1.193220 2.908258
C 2.044486 1.137493 3.174729
C 3.073117 1.086565 3.127289
C 4.222013 0.940298 3.050376
C 5.025854 0.801217 3.126971
C 6.138702 0.826065 3.039351
C 6.888148 0.887031 3.161772
C 0.245098 2.080211 2.994558
C 1.154708 2.139779 3.000012
C 1.954164 2.066310 3.101501
C 3.166547 2.166369 2.859631
C 3.792524 2.029570 3.125295
C 5.197187 2.097684 3.053094
C 5.970860 2.220924 2.989701
C 6.971687 2.039141 3.000923
C 0.053243 2.799568 2.817423
C 0.864376 3.041397 3.144748
C 2.177090 2.960155 2.989354
C 2.951868 2.872260 2.914691
C 4.124024 3.086639 3.007133
C 4.951505 2.885010 2.877909
C 6.072721 3.079143 2.953120
C 6.991605 2.945036 3.003189
C 0.224527 4.126170 3.079983
C 1.223752 3.810084 3.005276
C 1.971213 4.011567 2.850477
C 2.937556 3.938837 2.914770
C 3.858828 3.934902 3.087654
C 5.082081 4.148371 2.941968
C 5.838033 4.213688 3.079488
C 6.989293 3.969653 2.924891
C 0.025203 5.259307 2.989401
C 0.897510 5.196321 2.969445
C 1.895998 5.005880 3.199345
C 2.947188 5.018849 3.142323
C 3.792216 4.919113 3.034643
C 5.233992 5.066592 2.992858
C 6.152531 5.047518 2.947119
C 6.940398 4.949337 3.157660
C 0.043380 6.159639 3.084722
C 0.986426 5.992545 3.001989
C 1.932908 6.089785 2.795140
C 3.121203 5.804923 3.079799
C 3.948203 5.963683 2.781530
C 5.103673 6.043662 3.066035
C 5.858984 5.952939 2.865581
C 6.995709 6.183587 2.971769
C 0.241716 6.978933 3.031232
C 1.273915 6.914862 2.924584
C 2.166073 6.983461 2.932295
C 2.969271 6.884447 3.067791
C 3.928957 6.982105 3.167334
C 5.103932 6.916553 3.032156
C 5.981712 6.771675 2.896431
C 6.824646 6.784520 2.721395
C 0.037711 0.115179 3.916429
C 0.936940 0.193865 4.210287
C 1.973375 0.004376 4.120913
C 2.717517 0.096569 3.960006
C 3.874342 0.010110 4.223614
C 4.839110 0.030748 3.943643
C 6.331555 0.044884 3.900057
C 6.836329 0.248040 4.203190
C 0.015946 1.027332 3.857830
C 1.180088 0.986256 3.938933
C 2.113145 0.958614 3.904606
C 3.048287 0.846208 3.953430
C 4.034465 1.065467 4.097629
C 5.134888 1.159870 4.077837
C 5.843223 0.872195 4.087559
C 6.982745 0.970580 3.917665
C 0.054453 2.218039 3.939797
C 0.826923 2.067386 3.967337
C 1.887932 2.061672 4.041823
C 2.774245 2.151986 3.959961
C 3.837554 2.084996 3.973185
C 5.185579 2.210475 4.004123
C 5.932150 2.164844 4.153042
C 6.975862 1.840522 3.968646
C 0.055528 3.122346 4.014841
C 0.793995 2.856642 3.988207
C 2.156670 2.912012 3.993028
C 3.020850 2.937600 3.764719
C 3.919511 2.996278 3.978178
C 5.150222 3.130733 4.044247
C 6.065828 3.094146 3.772518
C 6.905591 3.211644 3.957888
C 0.341485 4.136903 3.904286
C 0.971512 3.746616 3.838050
C 2.066626 4.079251 4.146540
C 3.012916 4.104186 4.096721
C 3.820632 3.979879 3.956038
C 5.145578 3.928461 4.064128
C 6.207207 4.039851 3.953354
C 6.975191 4.317185 3.973125
C 0.001561 4.858268 4.177683
C 0.869617 4.994191 3.948645
C 2.073010 5.080645 3.973263
C 3.138803 4.889716 4.067567
C 4.022261 4.902963 3.949006
C 5.243386 5.061294 4.037596
C 6.068332 5.165989 4.259479
C 6.898327 4.975046 4.260456
C 0.072965 5.788012 3.877756
C 1.201909 5.897840 4.079074
C 2.200163 5.944612 4.173051
C 2.983506 5.810719 3.939112
C 3.983650 5.940320 4.268890
C 5.021900 5.835058 4.226215
C 5.881957 5.936124 4.039158
C 6.834499 6.155168 3.854570
C 0.199430 6.901968 3.941443
C 1.104244 6.741311 4.024192
C 2.002643 6.975210 4.161579
C 2.957797 6.951366 4.184217
C 4.113662 6.991100 4.093500
C 5.302388 6.791642 4.078089
C 6.120751 6.737379 4.019754
C 6.794750 6.984336 3.944928
C 0.138698 0.010285 4.872106
C 1.043536 0.061247 4.966293
C 2.126095 0.042855 4.912903
C 3.182626 0.058702 5.068089
C 4.204614 0.128439 5.144531
C 5.148817 0.013776 4.820930
C 6.025084 0.043434 4.820200
C 6.792115 0.084981 4.968772
C 0.078976 0.969152 5.088108
C 1.045353 1.068444 5.088143
C 2.020635 1.140119 5.115213
C 3.117699 1.268767 5.100048
C 4.038011 1.166378 5.016878
C 4.858147 0.950710 4.900871
C 6.077831 1.118301 5.084976
C 6.873914 1.057252 5.077140
C 0.164401 1.908020 5.173998
C 0.825176 1.964154 4.776694
C 2.057910 2.120313 4.805055
C 2.803187 2.073872 5.072782
C 4.073619 2.063732 5.065996
C 5.059240 1.907212 4.934565
C 6.160176 1.903965 5.088162
C 6.991027 1.898455 5.123839
C 0.099880 3.157095 4.891626
C 1.034031 2.950929 4.835596
C 1.876529 2.916102 4.870950
C 3.101982 3.064362 5.021992
C 3.978385 2.898816 5.057207
C 4.989394 3.093688 4.825896
C 6.214963 3.062448 4.791021
C 6.913686 2.936429 5.225389
C 0.061915 3.929540 4.816694
C 0.810219 3.995964 4.937539
C 1.889317 3.925440 4.922098
C 2.899926 3.857418 4.966654
C 3.964023 3.866003 4.767707
C 5.071267 4.084051 5.295227
C 5.813827 3.960877 5.122700
C 6.850378 4.084160 4.919183
C 0.198939 5.219952 4.975244
C 1.020172 5.058726 5.070527
C 2.078357 5.109158 5.129700
C 2.884737 4.994708 4.950429
C 4.121008 5.077219 5.140213
C 4.973143 4.974475 5.124429
C 5.904191 4.909448 4.910333
C 6.921191 5.090328 5.118156
C 0.051069 6.096798 4.795028
C 0.976444 6.016024 5.021883
C 2.081744 6.134252 4.873284
C 2.863208 6.193625 4.930592
C 4.252867 6.092304 4.985162
C 5.051872 6.244637 5.073905
C 5.819875 6.009248 5.027037
C 6.872018 5.919446 4.882676
C 0.140241 6.739089 5.129700
C 1.069700 6.884015 5.154525
C 1.849819 6.840338 5.041689
C 2.864753 6.957132 5.108028
C 4.140328 6.873521 4.997856
C 4.920272 6.896685 4.839005
C 5.878073 6.970433 4.854219
C 6.989379 6.930558 4.755875
C 0.092686 0.179629 6.123615
C 1.230933 0.066052 5.878839
C 2.142658 0.130271 6.106838
C 3.201182 0.090743 6.039052
C 3.917177 0.077894 5.818538
C 5.010344 0.038935 5.899342
C 6.131038 0.114229 5.832003
C 6.981534 0.244584 5.700526
C 0.058422 1.170291 6.148161
C 0.932591 1.214304 6.167607
C 1.959565 1.164317 6.199393
C 3.004061 0.959602 6.235201
C 4.081653 0.797698 5.965382
C 4.874723 1.002276 6.061031
C 5.976387 0.900388 5.895921
C 6.756997 0.868328 5.912378
C 0.085330 2.030120 6.234624
C 0.879426 2.098582 6.029972
C 1.895636 2.191591 6.069648
C 2.899166 2.019562 6.109704
C 3.863577 2.058637 6.002208
C 5.116745 1.978425 6.115468
C 6.013992 2.245112 6.005079
C 6.980792 1.849429 6.010901
C 0.086229 2.800605 6.025870
C 0.973703 2.856142 5.873672
C 1.901441 3.018679 6.231862
C 3.209578 3.153666 6.034499
C 4.079175 2.810593 6.095133
C 4.995733 3.069432 6.047924
C 6.131084 3.087246 6.116351
C 6.981011 3.241963 5.986608
C 0.036163 3.711737 6.052269
C 1.156740 4.071488 5.994408
C 2.092118 4.058904 6.269923
C 2.923387 4.032198 6.203609
C 4.182109 3.997966 6.099422
C 4.984849 3.879616 6.044956
C 6.042693 3.946679 6.157678
C 6.995759 4.021092 6.006982
C 0.004110 5.150138 5.893739
C 1.005004 5.222476 6.140527
C 2.005066 5.114256 5.975484
C 2.956999 5.051316 5.956450
C 4.246477 5.075303 6.062437
C 5.063033 5.272782 5.978997
C 6.046007 4.810379 5.964723
C 6.980941 5.021285 5.922629
C 0.042151 5.981097 5.700883
C 1.092472 5.911275 5.923073
C 2.183746 5.858427 5.933377
C 3.021731 6.014166 6.156261
C 4.159788 5.930831 5.962509
C 4.922347 6.228301 6.166378
C 5.998462 6.012554 6.142236
C 6.905220 6.233393 6.059945
C 0.120350 6.898169 6.046266
C 1.194690 6.778256 5.969494
C 2.106237 6.852245 6.095269
C 2.941065 6.807435 6.255343
C 3.750039 6.990047 5.954402
C 4.802387 6.881376 5.905456
C 6.106580 6.999549 6.007807
C 6.922739 6.994591 5.660309
C 0.106397 0.320839 6.971560
C 0.947380 0.016014 6.800775
C 2.104140 0.172990 6.933500
C 2.886781 0.070629 6.863346
C 4.024494 0.081154 6.903560
C 4.967018 0.192997 6.683104
C 5.924776 0.312215 6.910529
C 6.956091 0.044060 6.750680
C 0.371935 1.047578 6.888903
C 1.176952 1.009379 6.831203
C 1.913524 1.287154 6.976770
C 3.058666 0.779944 6.984848
C 4.183363 0.972939 6.968083
C 5.047084 1.223859 6.814818
C 6.105777 1.133061 6.976556
C 6.932678 1.247725 6.857623
C 0.281434 1.913845 6.973314
C 1.134162 1.953192 6.962021
C 1.963408 2.205840 6.884319
C 3.148906 1.861615 6.851264
C 4.004684 1.794340 6.965595
C 4.836995 2.159943 6.885847
C 5.856856 1.835024 6.972236
C 6.902430 2.077716 6.706330
C 0.273122 2.758841 6.816552
C 1.210049 3.055993 6.904324
C 2.079967 3.064677 6.981519
C 2.897436 2.815784 6.798272
C 4.040290 2.795166 6.964652
C 4.948708 2.968565 6.830619
C 5.786689 3.009210 6.969259
C 6.912664 3.051822 6.827938
C 0.092625 4.027957 6.900032
C 1.095325 4.288210 6.822418
C 1.797521 3.915843 6.951449
C 2.997370 4.016740 6.994913
C 4.042337 3.699157 6.902592
C 4.778989 3.958700 6.947577
C 5.751017 4.148063 6.867298
C 6.704816 4.113966 6.849448
C 0.171789 5.153471 6.721278
C 0.904187 5.231657 6.908421
C 2.049957 4.827728 6.928781
C 3.005288 4.896288 6.698208
C 3.986044 4.835971 6.984610
C 5.021624 5.065445 6.972957
C 5.993393 4.977192 6.984642
C 6.838998 4.938753 6.682298
C 0.175312 6.036922 6.937863
C 1.221232 6.024144 6.984205
C 1.954081 5.855182 6.690413
C 3.202841 5.936421 6.896179
C 4.150137 6.191191 6.961087
C 5.048961 5.916835 6.999253
C 5.757345 6.107154 6.801701
C 6.912221 5.840150 6.864806
C 0.297026 6.809125 6.920482
C 0.865779 6.991759 6.640165
C 1.827440 6.988888 6.828315
C 3.215169 6.997397 6.934758
C 4.348297 6.905731 6.838002
C 5.135126 6.906924 6.717077
C 5.974306 6.878324 6.881399
C 6.710740 6.654477 6.969485
512
Frame 7/10
C 0.166216 0.382290 0.005861
C 1.287375 0.179147 0.050770
C 2.178103 0.366807 0.052572
C 2.841541 0.046950 0.248769
C 4.001257 0.041446 0.269133
C 4.895312 0.174892 0.337703
C 5.584292 0.352181 0.161337
C 6.494741 0.338884 0.106622
C 0.155087 1.223174 0.102024
C 0.889501 0.865400 0.096144
C 1.679836 0.952725 0.086956
C 2.927254 1.344576 0.130868
C 3.720509 1.140442 0.039727
C 4.848913 0.903707 0.112907
C 5.819154 1.044075 0.202743
C 6.962944 0.699113 0.139102
C 0.091545 2.232333 0.168397
C 0.897268 2.108559 0.096875
C 2.210522 1.860557 0.189524
C 3.269116 1.906423 0.110604
C 4.005403 1.800896 0.230562
C 5.155472 2.074659 0.161301
C 6.235640 1.839520 0.035403
C 6.966452 1.934688 0.414399
C 0.327075 3.162298 0.041640
C 1.262098 3.179957 0.216534
C 2.037057 3.283594 0.104374
C 2.946187 3.122902 0.132390
C 4.020527 3.142969 0.247121
C 4.814851 3.357336 0.013656
C 6.081538 2.930701 0.212764
C 6.731038 3.127945 0.049231
C 0.236636 3.934758 0.176505
C 1.234692 4.175859 0.201370
C 2.344070 4.175507 0.059094
C 3.115814 3.812486 0.064359
C 3.834165 4.172361 0.145608
C 5.272922 3.918091 0.020889
C 6.205882 4.091313 0.003904
C 6.911404 3.836326 0.139895
C 0.159097 5.079137 0.186882
C 0.905600 4.834367 0.312132
C 1.961587 5.259317 0.066911
C 3.199130 4.881622 0.092046
C 4.073338 4.921391 0.017895
C 5.080114 5.084265 0.142476
C 6.045813 4.920468 0.136310
C 6.809967 5.009980 0.436174
C 0.088628 6.072900 0.302074
C 0.858033 6.163391 0.126710
C 1.991607 6.003782 0.011517
C 3.028367 5.880706 0.042591
C 4.147715 6.149408 0.069552
C 4.922241 6.197725 0.082550
C 5.898243 5.902839 0.020623
C 6.637935 5.924926 0.003026
C 0.382904 6.885543 0.427676
C 1.190598 6.899503 0.250942
C 2.246915 6.584988 0.300943
C 3.057812 6.885447 0.021229
C 3.867269 6.878196 0.127142
C 4.975707 6.939575 0.183749
C 6.140498 6.997803 0.103452
C 6.654653 6.681784 0.471758
C 0.272152 0.031020 1.309553
C 0.745833 0.031073 0.867252
C 2.052203 0.255920 1.281606
C 2.718200 0.099353 1.122900
C 3.885924 0.311820 1.103245
C 5.108553 0.104575 1.275758
C 5.849526 0.018596 0.748546
C 6.810745 0.306002 1.179922
C 0.189950 0.998804 1.243865
C 0.765116 0.796432 0.866996
C 1.930745 0.876046 1.013697
C 2.954840 0.973253 0.740673
C 4.048812 0.955358 0.700755
C 4.881176 1.010179 1.321608
C 6.182117 0.817832 0.849842
C 6.781115 1.240156 0.862107
C 0.073351 1.861618 0.886661
C 1.241547 2.002039 1.141956
C 1.889585 1.982236 0.787430
C 3.034408 1.887558 0.831246
C 4.031640 2.300212 1.052603
C 4.996887 2.201533 1.019050
C 6.106926 2.081033 1.086212
C 6.990766 2.318520 0.943620
C 0.039146 3.137014 1.414508
C 0.809925 2.926204 0.827951
C 1.920787 2.895403 1.222734
C 3.130570 3.031989 0.886495
C 3.819000 3.130652 1.118297
C 4.993275 3.040312 0.743213
C 6.163984 2.961205 1.164185
C 6.805676 3.226083 0.816583
C 0.285941 3.697870 0.921599
C 0.822142 4.043505 0.859746
C 2.183347 4.008796 0.784299
C 2.914338 3.934017 0.964646
C 3.884955 4.056499 1.082559
C 4.989894 4.031622 1.147641
C 5.842049 4.219171 0.997379
C 6.681616 3.969383 0.799486
C 0.009542 4.769823 0.795483
C 1.173471 5.011468 1.005869
C 2.096229 4.982556 0.780663
C 2.831688 4.835760 0.908473
C 4.132393 4.839146 0.868496
C 4.925892 4.800649 0.966352
C 5.940326 5.081339 1.148147
C 6.705551 4.823439 1.164877
C 0.012733 5.867546 1.292579
C 1.048138 5.766296 1.065015
C 1.789309 6.161168 1.172411
C 3.026312 6.199554 1.095044
C 3.992118 5.860310 1.112525
C 4.974942 5.985905 0.966436
C 5.958172 6.161744 0.780069
C 6.830956 5.845000 1.276416
C 0.087935 6.816985 1.456814
C 1.021009 6.913504 1.306814
C 1.913083 6.962832 0.793024
C 2.935373 6.914250 0.742251
C 4.012268 6.957464 1.286153
C 5.224736 6.919400 0.929406
C 6.021458 6.950249 0.943776
C 6.698975 6.849294 1.197424
C 0.289078 0.190054 2.020759
C 1.317062 0.103210 1.981902
C 2.154247 0.013860 2.024333
C 2.997877 0.042534 1.842865
C 4.087449 0.089691 2.260517
C 4.883200 0.038194 2.175907
C 6.210820 0.049664 1.734444
C 6.922641 0.124557 1.859683
C 0.017472 1.083677 1.949741
C 0.942618 1.121633 1.854645
C 2.093154 1.062831 1.855414
C 3.002982 1.063097 1.945970
C 4.288577 1.093993 1.954937
C 5.087656 0.726610 1.914718
C 5.872927 0.767965 2.256561
C 6.828868 1.261364 1.948468
C 0.033426 1.932673 2.079385
C 0.778002 1.938266 1.944270
C 1.942404 1.946885 2.183699
C 2.716536 2.027167 2.069610
C 3.891536 2.013556 2.089271
C 5.044962 2.197545 2.174000
C 5.824188 2.014597 2.078208
C 6.817171 2.105119 1.599685
C 0.144816 2.741513 1.918875
C 1.191534 2.961596 1.869544
C 2.018994 3.094287 2.040855
C 2.797614 2.964218 2.090774
C 4.273661 3.138759 1.892222
C 5.194116 3.100623 2.105654
C 5.991669 3.066942 2.203881
C 6.836627 3.212567 2.056728
C 0.045735 4.012656 1.904410
C 0.936408 4.197173 2.191950
C 1.886646 4.190069 2.078570
C 3.321498 3.875086 2.044273
C 4.169732 3.931450 1.816642
C 5.059319 4.000662 1.943577
C 6.196484 3.815022 1.974122
C 6.949053 4.239561 1.857256
C 0.140575 5.160627 2.100100
C 1.103758 5.085568 2.192105
C 2.086696 5.019157 1.809251
C 2.822516 5.098202 1.958265
C 4.284646 5.084299 2.090325
C 5.169005 4.817571 2.102494
C 5.964818 4.744550 1.907066
C 6.916304 5.094833 1.825424
C 0.089896 6.025345 2.332271
C 0.815057 6.075530 1.838640
C 2.172160 5.982922 2.045873
C 2.985120 5.840006 1.995320
C 4.091854 6.232043 1.924253
C 5.096586 5.960707 2.259097
C 6.155100 6.014580 2.163269
C 6.954081 6.002828 2.065785
C 0.176619 6.756571 2.215581
C 1.334862 6.823450 1.903586
C 2.179888 6.918987 2.005755
C 3.249622 6.916961 2.014983
C 4.214022 6.822275 2.384498
C 5.172026 6.975827 1.984401
C 6.139340 6.900382 1.987082
C 6.912621 6.959458 1.932243
C 0.015926 0.396326 2.621168
C 0.978155 0.030428 3.238900
C 2.102150 0.156144 2.764272
C 2.834549 0.033542 3.120929
C 3.697156 0.242065 3.090573
C 4.723095 0.135835 3.180766
C 6.080279 0.033865 3.214624
C 6.828207 0.012137 2.667193
C 0.173563 1.193656 3.085447
C 1.105053 1.231864 2.889909
C 2.053383 1.164991 3.209675
C 3.087740 1.103878 3.152747
C 4.266416 0.928358 3.060451
C 5.031025 0.761461 3.152365
C 6.166443 0.791278 3.047221
C 6.865778 0.864437 3.194126
C 0.294118 2.096253 2.993470
C 1.185650 2.167735 3.000015
C 1.944997 2.079572 3.121801
C 3.199856 2.199643 2.831557
C 3.751029 2.035484 3.150354
C 5.236624 2.117221 3.063713
C 5.965032 2.265109 2.987642
C 6.966025 2.046969 3.001108
C 0.063891 2.759482 2.780908
C 0.837251 3.049677 3.173698
C 2.212508 2.952186 2.987225
C 2.942241 2.846711 2.897629
C 4.148829 3.103967 3.008559
C 4.941806 2.862012 2.853491
C 6.087265 3.094971 2.943744
C 6.989926 2.934043 3.003827
C 0.269433 4.151404 3.095979
C 1.268502 3.772101 3.006332
C 1.965455 4.013881 2.820572
C 2.925067 3.926604 2.897724
C 3.830594 3.921883 3.105184
C 5.098498 4.178045 2.930362
C 5.805640 4.256426 3.095386
C 6.987151 3.963584 2.909869
C 0.030244 5.311169 2.987281
C 0.877012 5.235586 2.963333
C 1.875197 5.007056 3.239214
C 2.936625 5.022619 3.170788
C 3.750660 4.902936 3.041572
C 5.280791 5.079910 2.991430
C 6.183038 5.057021 2.936543
C 6.928478 4.939204 3.189192
C 0.052056 6.191567 3.101666
C 0.983711 5.991054 3.002387
C 1.919490 6.107742 2.754169
C 3.145444 5.765908 3.095759
C 3.937844 5.956420 2.737836
C 5.124408 6.052394 3.079242
C 5.830780 5.943527 2.838698
C 6.994850 6.220305 2.966123
C 0.290059 6.974719 3.037478
C 1.328698 6.897835 2.909501
C 2.199287 6.980154 2.918754
C 2.963125 6.861336 3.081349
C 3.914749 6.978525 3.200800
C 5.124718 6.899864 3.038587
C 5.978055 6.726010 2.875717
C 6.789575 6.741423 2.665673
C 0.045253 0.138214 3.899715
C 0.924328 0.232637 4.252345
C 1.968051 0.005251 4.145095
C 2.661020 0.115882 3.952007
C 3.849211 0.012132 4.268337
C 4.806932 0.036897 3.932372
C 6.397866 0.053860 3.880069
C 6.803595 0.297648 4.243828
C 0.019135 1.032798 3.829396
C 1.216105 0.983507 3.926720
C 2.135774 0.950337 3.885527
C 3.057945 0.815450 3.944116
C 4.041358 1.078560 4.117155
C 5.161866 1.191844 4.093404
C 5.811867 0.846633 4.105071
C 6.979294 0.964696 3.901198
C 0.065344 2.261646 3.927757
C 0.792308 2.080863 3.960804
C 1.865518 2.074006 4.050188
C 2.729094 2.182384 3.951954
C 3.805065 2.101995 3.967821
C 5.222695 2.252570 4.004948
C 5.918580 2.197813 4.183651
C 6.971035 1.808627 3.962375
C 0.066634 3.146815 4.017809
C 0.752794 2.827970 3.985848
C 2.188004 2.894414 3.991634
C 3.025020 2.925120 3.717663
C 3.903413 2.995534 3.973814
C 5.180267 3.156880 4.053097
C 6.078994 3.112975 3.727022
C 6.886709 3.253972 3.949466
C 0.409782 4.164284 3.885143
C 0.965814 3.695939 3.805660
C 2.079952 4.095101 4.175848
C 3.015500 4.125024 4.116065
C 3.784759 3.975854 3.947246
C 5.174694 3.914153 4.076954
C 6.248649 4.047821 3.944025
C 6.970229 4.380622 3.967750
C 0.001873 4.829922 4.213220
C 0.843540 4.993030 3.938374
C 2.087612 5.096774 3.967915
C 3.166564 4.867659 4.081081
C 4.026714 4.883556 3.938808
C 5.292063 5.073553 4.045116
C 6.081999 5.199187 4.311375
C 6.877993 4.970055 4.312548
C 0.087558 5.745614 3.853307
C 1.242291 5.877408 4.094888
C 2.240196 5.933534 4.207662
C 2.980207 5.772862 3.926934
C 3.980380 5.928383 4.322669
C 5.026280 5.802069 4.271458
C 5.858349 5.923348 4.046990
C 6.801399 6.186202 3.825484
C 0.239316 6.882362 3.929732
C 1.125093 6.689574 4.029031
C 2.003172 6.970252 4.193895
C 2.949357 6.941639 4.221061
C 4.136395 6.989320 4.112200
C 5.362866 6.749970 4.093707
C 6.144901 6.684855 4.023705
C 6.753700 6.981203 3.933914
C 0.166438 0.012342 4.846527
C 1.052244 0.073496 4.959552
C 2.151313 0.051427 4.895483
C 3.219151 0.070442 5.081707
C 4.245537 0.154127 5.173437
C 5.178581 0.016532 4.785116
C 6.030100 0.052121 4.784240
C 6.750538 0.101977 4.962526
C 0.094772 0.962982 5.105730
C 1.054424 1.082133 5.105771
C 2.024762 1.168142 5.138255
C 3.141239 1.322520 5.120058
C 4.045613 1.199653 5.020254
C 4.829777 0.940852 4.881046
C 6.093397 1.141962 5.101972
C 6.848697 1.068703 5.092568
C 0.197281 1.889624 5.208798
C 0.790211 1.956985 4.732033
C 2.069492 2.144376 4.766066
C 2.763824 2.088646 5.087339
C 4.088343 2.076479 5.079196
C 5.071088 1.888655 4.921478
C 6.192211 1.884758 5.105794
C 6.989232 1.878146 5.148607
C 0.119856 3.188515 4.869951
C 1.040837 2.941115 4.802715
C 1.851834 2.899322 4.845140
C 3.122379 3.077234 5.026390
C 3.974061 2.878579 5.068648
C 4.987273 3.112425 4.791075
C 6.257955 3.074938 4.749225
C 6.896423 2.923715 5.270467
C 0.074298 3.915448 4.780033
C 0.772263 3.995156 4.925047
C 1.867181 3.910528 4.906517
C 2.879912 3.828902 4.959985
C 3.956828 3.839204 4.721248
C 5.085521 4.100861 5.354273
C 5.776592 3.953052 5.147240
C 6.820453 4.100992 4.903020
C 0.238727 5.263942 4.970292
C 1.024206 5.070471 5.084633
C 2.094029 5.130989 5.155640
C 2.861685 4.993649 4.940515
C 4.145210 5.092662 5.168255
C 4.967771 4.969370 5.149315
C 5.885029 4.891337 4.892400
C 6.905429 5.108394 5.141787
C 0.061282 6.116157 4.754034
C 0.971733 6.019228 5.026259
C 2.098093 6.161102 4.847941
C 2.835850 6.232350 4.916710
C 4.303440 6.110765 4.982195
C 5.062247 6.293565 5.088686
C 5.783850 6.011098 5.032445
C 6.846421 5.903336 4.859212
C 0.168289 6.686906 5.155639
C 1.083640 6.860818 5.185430
C 1.819783 6.808405 5.050027
C 2.837704 6.948559 5.129634
C 4.168394 6.848226 4.997427
C 4.904327 6.876023 4.806807
C 5.853688 6.964519 4.825063
C 6.987254 6.916669 4.707049
C 0.111223 0.215555 6.148338
C 1.277119 0.079262 5.854606
C 2.171190 0.156325 6.128206
C 3.241418 0.108891 6.046862
C 3.900613 0.093473 5.782246
C 5.012413 0.046722 5.879211
C 6.157246 0.137075 5.798404
C 6.977840 0.293500 5.640631
C 0.070106 1.204349 6.177794
C 0.919109 1.257165 6.201129
C 1.951478 1.197181 6.239272
C 3.004873 0.951522 6.282241
C 4.097983 0.757237 5.958458
C 4.849668 1.002731 6.073238
C 5.971665 0.880465 5.875106
C 6.708396 0.841994 5.894854
C 0.102396 2.036144 6.281549
C 0.855311 2.118299 6.035967
C 1.874763 2.229909 6.083578
C 2.879000 2.023475 6.131644
C 3.836293 2.070364 6.002649
C 5.140095 1.974110 6.138562
C 6.016791 2.294135 6.006095
C 6.976950 1.819315 6.013081
C 0.103475 2.760726 6.031045
C 0.968443 2.827371 5.848407
C 1.881730 3.022415 6.278234
C 3.251494 3.184400 6.041398
C 4.095010 2.772711 6.114160
C 4.994879 3.083319 6.057509
C 6.157301 3.104695 6.139621
C 6.977213 3.290355 5.983929
C 0.043396 3.654085 6.062723
C 1.188088 4.085786 5.993290
C 2.110541 4.070685 6.323908
C 2.908064 4.038637 6.244331
C 4.218531 3.997559 6.119307
C 4.981819 3.855539 6.053948
C 6.051232 3.936015 6.189214
C 6.994911 4.025310 6.008379
C 0.004933 5.180166 5.872486
C 1.006005 5.266971 6.168632
C 2.006079 5.137107 5.970581
C 2.948399 5.061579 5.947740
C 4.295772 5.090364 6.074924
C 5.075640 5.327338 5.974796
C 6.055209 4.772455 5.957667
C 6.977129 5.025542 5.907155
C 0.050581 5.977316 5.641059
C 1.110967 5.893530 5.907688
C 2.220496 5.830112 5.920052
C 3.026077 6.016999 6.187513
C 4.191745 5.916997 5.955011
C 4.906817 6.273961 6.199654
C 5.998154 6.015065 6.170683
C 6.886265 6.280072 6.071934
C 0.144420 6.877802 6.055519
C 1.233627 6.733907 5.963392
C 2.127484 6.822694 6.114323
C 2.929278 6.768922 6.306411
C 3.700047 6.988057 5.945283
C 4.762864 6.857651 5.886548
C 6.127896 6.999458 6.009368
C 6.907287 6.993509 5.592371
C 0.127677 0.385007 6.965873
C 0.936856 0.019217 6.760930
C 2.124968 0.207588 6.920200
C 2.864138 0.084755 6.836016
C 4.029392 0.097385 6.884272
C 4.960422 0.231597 6.619725
C 5.909731 0.374658 6.892635
C 6.947309 0.052872 6.700817
C 0.446322 1.057094 6.866684
C 1.212342 1.011255 6.797444
C 1.896229 1.344585 6.972124
C 3.070399 0.735933 6.981817
C 4.220036 0.967527 6.961700
C 5.056501 1.268631 6.777782
C 6.126933 1.159673 6.971868
C 6.919214 1.297270 6.829147
C 0.337721 1.896614 6.967977
C 1.160994 1.943831 6.954426
C 1.956089 2.247008 6.861183
C 3.178688 1.833938 6.821517
C 4.005621 1.753209 6.958714
C 4.804394 2.191932 6.863016
C 5.828227 1.802029 6.966683
C 6.882916 2.093259 6.647596
C 0.327746 2.710610 6.779863
C 1.252059 3.067192 6.885189
C 2.095960 3.077613 6.977823
C 2.876923 2.778941 6.757926
C 4.048348 2.754199 6.957582
C 4.938450 2.962278 6.796743
C 5.744027 3.011052 6.963110
C 6.895197 3.062186 6.793526
C 0.111150 4.033548 6.880038
C 1.114389 4.345852 6.786902
C 1.757025 3.899012 6.941739
C 2.996844 4.020088 6.993896
C 4.050804 3.638988 6.883111
C 4.734787 3.950440 6.937092
C 5.701221 4.177675 6.840757
C 6.645780 4.136759 6.819338
C 0.206147 5.184166 6.665534
C 0.885024 5.277989 6.890105
C 2.059948 4.793273 6.914538
C 3.006346 4.875546 6.637850
C 3.983253 4.803165 6.981531
C 5.025948 5.078534 6.967549
C 5.992072 4.972630 6.981570
C 6.806798 4.926504 6.618758
C 0.210375 6.044306 6.925436
C 1.265478 6.028973 6.981046
C 1.944897 5.826218 6.628496
C 3.243409 5.923705 6.875415
C 4.180165 6.229429 6.953305
C 5.058753 5.900201 6.999103
C 5.708814 6.128585 6.762041
C 6.894665 5.808179 6.837767
C 0.356431 6.770950 6.904579
C 0.838934 6.990111 6.568197
C 1.792928 6.986666 6.793978
C 3.258203 6.996876 6.921709
C 4.417956 6.886877 6.805603
C 5.162151 6.888309 6.660493
C 5.969167 6.853989 6.857679
C 6.652888 6.585373 6.963382
512
Frame 8/10
C 0.193918 0.446005 0.006837
C 1.335271 0.209005 0.059231
C 2.207787 0.427941 0.061334
C 2.815131 0.054775 0.290230
C 4.001466 0.048353 0.313989
C 4.877864 0.204041 0.393987
C 5.515008 0.410878 0.188226
C 6.410532 0.395364 0.124392
C 0.180934 1.260369 0.119028
C 0.871084 0.842966 0.112168
C 1.626475 0.944846 0.101448
C 2.915130 1.402005 0.152679
C 3.673928 1.163849 0.046348
C 4.823732 0.887658 0.131725
C 5.789013 1.051421 0.236533
C 6.956768 0.648966 0.162286
C 0.106802 2.271055 0.196463
C 0.880146 2.126652 0.113021
C 2.245609 1.837316 0.221111
C 3.313969 1.890826 0.129038
C 4.006304 1.767711 0.268989
C 5.181384 2.087102 0.188184
C 6.274913 1.812773 0.041304
C 6.960861 1.923803 0.483466
C 0.381588 3.189348 0.048580
C 1.305780 3.209949 0.252623
C 2.043234 3.330859 0.121769
C 2.937218 3.143386 0.154455
C 4.023948 3.166797 0.288308
C 4.783993 3.416892 0.015932
C 6.095127 2.919151 0.248224
C 6.686211 3.149269 0.057436
C 0.276075 3.923885 0.205923
C 1.273807 4.205169 0.234932
C 2.401415 4.204758 0.068943
C 3.135116 3.781234 0.075085
C 3.806525 4.201088 0.169876
C 5.318409 3.904439 0.024370
C 6.240195 4.106532 0.004555
C 6.896638 3.809047 0.163211
C 0.185613 5.092327 0.218029
C 0.889866 4.806762 0.364154
C 1.955185 5.302536 0.078063
C 3.232319 4.861892 0.107387
C 4.085561 4.908289 0.020877
C 5.093466 5.098310 0.166222
C 6.053449 4.907212 0.159028
C 6.778294 5.011644 0.508870
C 0.103400 6.085050 0.352420
C 0.834372 6.190623 0.147828
C 1.990208 6.004413 0.013436
C 3.033095 5.860824 0.049689
C 4.172334 6.174309 0.081143
C 4.909281 6.230679 0.096308
C 5.881284 5.886646 0.024060
C 6.577591 5.912414 0.003530
C 0.446721 6.866466 0.498955
C 1.222365 6.882753 0.292765
C 2.288067 6.515820 0.351100
C 3.067448 6.866355 0.024767
C 3.845147 6.857895 0.148332
C 4.971659 6.929504 0.214373
C 6.163914 6.997437 0.120694
C 6.597096 6.628747 0.550385
C 0.317511 0.036190 1.361145
C 0.703471 0.036252 0.845128
C 2.060903 0.298573 1.328540
C 2.671234 0.115912 1.143384
C 3.866911 0.363790 1.120453
C 5.126645 0.122004 1.321717
C 5.824447 0.021695 0.706637
C 6.779202 0.357003 1.209909
C 0.221608 0.998605 1.284509
C 0.725969 0.762504 0.844829
C 1.919202 0.855387 1.015979
C 2.947313 0.968796 0.697451
C 4.056947 0.947917 0.650881
C 4.861373 1.011875 1.375209
C 6.212470 0.787470 0.824815
C 6.744634 1.280182 0.839125
C 0.085576 1.838554 0.867772
C 1.281805 2.002379 1.165615
C 1.871183 1.979275 0.752001
C 3.040142 1.868818 0.803120
C 4.036914 2.350248 1.061370
C 4.996369 2.235121 1.022225
C 6.124748 2.094538 1.100580
C 6.989227 2.371606 0.934224
C 0.045671 3.159850 1.483592
C 0.778245 2.913905 0.799277
C 1.907585 2.877970 1.259856
C 3.152331 3.037320 0.867578
C 3.788833 3.152427 1.138013
C 4.992155 3.047031 0.700415
C 6.191315 2.954739 1.191549
C 6.773288 3.263763 0.786013
C 0.333598 3.647515 0.908532
C 0.792500 4.050755 0.836370
C 2.213904 4.010262 0.748349
C 2.900062 3.923020 0.958753
C 3.865781 4.065916 1.096319
C 4.988209 4.036893 1.172248
C 5.815724 4.255699 0.996942
C 6.628552 3.964281 0.766067
C 0.011132 4.731460 0.761396
C 1.202382 5.013379 1.006848
C 2.112268 4.979649 0.744107
C 2.803636 4.808387 0.893218
C 4.154459 4.812338 0.846579
C 4.913541 4.767424 0.960744
C 5.930380 5.094895 1.172838
C 6.656476 4.794012 1.192356
C 0.014855 5.845470 1.341342
C 1.056161 5.727345 1.075851
C 1.754194 6.188029 1.201146
C 3.030697 6.232813 1.110885
C 3.990804 5.837029 1.131280
C 4.970765 5.983556 0.960842
C 5.951200 6.188702 0.743414
C 6.802782 5.819167 1.322486
C 0.102591 6.786483 1.532950
C 1.024511 6.899088 1.357949
C 1.898596 6.956637 0.758528
C 2.924602 6.899958 0.699293
C 4.014312 6.950375 1.333845
C 5.262192 6.905967 0.917640
C 6.025035 6.941957 0.934406
C 6.648804 6.824176 1.230328
C 0.337257 0.221730 2.024219
C 1.369906 0.120412 1.978886
C 2.179954 0.016171 2.028389
C 2.997523 0.049623 1.816675
C 4.102024 0.104639 2.303937
C 4.863733 0.044560 2.205225
C 6.245956 0.057942 1.690185
C 6.909748 0.145316 1.836297
C 0.020384 1.097623 1.941364
C 0.933055 1.141906 1.830419
C 2.108680 1.073303 1.831316
C 3.003478 1.073614 1.936965
C 4.336674 1.109659 1.947427
C 5.102265 0.681045 1.900505
C 5.851748 0.729292 2.299321
C 6.800346 1.304924 1.939879
C 0.038997 1.921452 2.092615
C 0.741002 1.927977 1.934982
C 1.932804 1.938032 2.214316
C 2.669292 2.031695 2.081212
C 3.873459 2.015815 2.104150
C 5.052456 2.230469 2.203000
C 5.794886 2.017030 2.091242
C 6.786699 2.122639 1.532965
C 0.168952 2.698432 1.905354
C 1.223457 2.955195 1.847801
C 2.022159 3.110001 2.047664
C 2.763883 2.958255 2.105903
C 4.319271 3.161885 1.874259
C 5.226468 3.117393 2.123263
C 5.990280 3.078099 2.237861
C 6.809398 3.247995 2.066183
C 0.053358 4.014765 1.888479
C 0.925809 4.230035 2.223942
C 1.867754 4.221747 2.091665
C 3.375081 3.854267 2.051652
C 4.198021 3.920025 1.786082
C 5.069205 4.000772 1.934173
C 6.229231 3.784193 1.969809
C 6.940561 4.279488 1.833465
C 0.164004 5.187398 2.116784
C 1.121051 5.099829 2.224123
C 2.101145 5.022350 1.777459
C 2.792935 5.114569 1.951309
C 4.332087 5.098348 2.105379
C 5.197173 4.787166 2.119576
C 5.958955 4.701975 1.891577
C 6.902354 5.110638 1.796328
C 0.104879 6.029569 2.387650
C 0.784234 6.088119 1.811746
C 2.200853 5.980076 2.053518
C 2.982640 5.813340 1.994540
C 4.107163 6.270717 1.911629
C 5.112683 5.954159 2.302280
C 6.180950 6.017010 2.190480
C 6.946428 6.003300 2.076750
C 0.206055 6.715999 2.251511
C 1.390672 6.794025 1.887517
C 2.209869 6.905485 2.006714
C 3.291225 6.903121 2.017480
C 4.249692 6.792654 2.448581
C 5.200697 6.971799 1.981801
C 6.162563 6.883779 1.984930
C 6.898057 6.952701 1.920950
C 0.018580 0.462380 2.558029
C 0.974514 0.035499 3.278716
C 2.119175 0.182168 2.724984
C 2.806973 0.039133 3.141084
C 3.646682 0.282409 3.105669
C 4.676944 0.158474 3.210893
C 6.093659 0.039510 3.250395
C 6.799575 0.014160 2.611725
C 0.202490 1.225932 3.099688
C 1.122562 1.270508 2.871561
C 2.062281 1.192490 3.244621
C 3.102364 1.121191 3.178205
C 4.310819 0.916417 3.070526
C 5.036196 0.721704 3.177759
C 6.194183 0.756491 3.055091
C 6.843407 0.841843 3.226481
C 0.343138 2.112296 2.992381
C 1.216591 2.195691 3.000017
C 1.935829 2.092834 3.142101
C 3.233165 2.232916 2.803483
C 3.709534 2.041398 3.175413
C 5.276061 2.136758 3.074332
C 5.959204 2.309294 2.985582
C 6.960362 2.054798 3.001293
C 0.074540 2.719395 2.744393
C 0.810126 3.057956 3.202647
C 2.247926 2.944217 2.985096
C 2.932615 2.821163 2.880567
C 4.173634 3.121295 3.009986
C 4.932107 2.839014 2.829073
C 6.101809 3.110800 2.934368
C 6.988247 2.923050 3.004465
C 0.314338 4.176638 3.111976
C 1.313252 3.734117 3.007387
C 1.959698 4.016194 2.790667
C 2.912579 3.914371 2.880678
C 3.802359 3.908863 3.122715
C 5.114914 4.207719 2.918755
C 5.773247 4.299164 3.111283
C 6.985010 3.957514 2.894847
C 0.035284 5.363030 2.985162
C 0.856515 5.274850 2.957222
C 1.854397 5.008232 3.279083
C 2.926063 5.026389 3.199253
C 3.709103 4.886759 3.048500
C 5.327589 5.093228 2.990001
C 6.213544 5.066525 2.925967
C 6.916557 4.929072 3.220724
C 0.060733 6.223495 3.118611
C 0.980996 5.989563 3.002785
C 1.906072 6.125699 2.713197
C 3.169685 5.726892 3.111719
C 3.927484 5.949156 2.694142
C 5.145142 6.061127 3.092449
C 5.802577 5.934114 2.811814
C 6.993992 6.257022 2.960477
C 0.338402 6.970506 3.043724
C 1.383481 6.880807 2.894418
C 2.232502 6.976846 2.905213
C 2.956980 6.838226 3.094907
C 3.900540 6.974946 3.234267
C 5.145504 6.883175 3.045018
C 5.974397 6.680345 2.855004
C 6.754504 6.698327 2.609952
C 0.052795 0.161250 3.883001
C 0.911717 0.271410 4.294402
C 1.962726 0.006126 4.169278
C 2.604523 0.135196 3.944008
C 3.824079 0.014155 4.313060
C 4.774754 0.043047 3.921100
C 6.464177 0.062837 3.860080
C 6.770861 0.347256 4.284466
C 0.022324 1.038264 3.800962
C 1.252123 0.980758 3.914507
C 2.158403 0.942059 3.866448
C 3.067602 0.784692 3.934802
C 4.048251 1.091653 4.136681
C 5.188843 1.223818 4.108972
C 5.780512 0.821072 4.122583
C 6.975843 0.958812 3.884731
C 0.076234 2.305254 3.915716
C 0.757693 2.094340 3.954271
C 1.843105 2.086341 4.058553
C 2.683943 2.212781 3.943946
C 3.772575 2.118994 3.962458
C 5.259811 2.294665 4.005772
C 5.905010 2.230781 4.214259
C 6.966207 1.776731 3.956105
C 0.077739 3.171284 4.020777
C 0.711593 2.799299 3.983489
C 2.219338 2.876817 3.990240
C 3.029190 2.912640 3.670607
C 3.887316 2.994790 3.969449
C 5.210311 3.183027 4.061946
C 6.092160 3.131804 3.681525
C 6.867828 3.296301 3.941044
C 0.478079 4.191665 3.866001
C 0.960117 3.645262 3.773270
C 2.093277 4.110951 4.205156
C 3.018083 4.145861 4.135409
C 3.748885 3.971830 3.938453
C 5.203810 3.899845 4.089780
C 6.290090 4.055791 3.934696
C 6.965267 4.444059 3.962375
C 0.002185 4.801576 4.248756
C 0.817463 4.991868 3.928103
C 2.102214 5.112903 3.962568
C 3.194325 4.845603 4.094594
C 4.031166 4.864149 3.928609
C 5.340740 5.085812 4.052635
C 6.095665 5.232385 4.363271
C 6.857658 4.965064 4.364639
C 0.102151 5.703216 3.828859
C 1.282673 5.856976 4.110703
C 2.280229 5.922456 4.242272
C 2.976908 5.735006 3.914757
C 3.977110 5.916447 4.376447
C 5.030660 5.769081 4.316701
C 5.834740 5.910573 4.054822
C 6.768298 6.217236 3.796398
C 0.279202 6.862756 3.918020
C 1.145942 6.637836 4.033869
C 2.003700 6.965294 4.226211
C 2.940916 6.931912 4.257904
C 4.159127 6.987540 4.130899
C 5.423344 6.708298 4.109325
C 6.169051 6.632331 4.027656
C 6.712650 6.978070 3.922899
C 0.194178 0.014399 4.820948
C 1.060951 0.085746 4.952811
C 2.176532 0.059998 4.878064
C 3.255677 0.082183 5.095325
C 4.286460 0.179814 5.202343
C 5.208344 0.019287 4.749302
C 6.035117 0.060807 4.748280
C 6.708961 0.118973 4.956280
C 0.110567 0.956812 5.123351
C 1.063494 1.095822 5.123400
C 2.028889 1.196166 5.161298
C 3.164779 1.376273 5.140068
C 4.053216 1.232929 5.023630
C 4.801406 0.930994 4.861220
C 6.108963 1.165622 5.118967
C 6.823480 1.080153 5.107995
C 0.230161 1.871228 5.243598
C 0.755246 1.949816 4.687371
C 2.081074 2.168439 4.727077
C 2.724462 2.103420 5.101895
C 4.103067 2.089225 5.092395
C 5.082936 1.870097 4.908391
C 6.224246 1.865551 5.123426
C 6.987438 1.857837 5.173374
C 0.139832 3.219934 4.848276
C 1.047644 2.931301 4.769835
C 1.827140 2.882542 4.819330
C 3.142775 3.090107 5.030789
C 3.969738 2.858342 5.080089
C 4.985152 3.131163 4.756255
C 6.300948 3.087427 4.707429
C 6.879161 2.911001 5.315545
C 0.086680 3.901357 4.743372
C 0.734307 3.994349 4.912555
C 1.845044 3.895616 4.890937
C 2.859897 3.800386 4.953316
C 3.949632 3.812404 4.674790
C 5.099774 4.117671 5.413318
C 5.739358 3.945227 5.171780
C 6.790529 4.117824 4.886857
C 0.278515 5.307933 4.965341
C 1.028241 5.082216 5.098738
C 2.109700 5.152821 5.181580
C 2.838632 4.992591 4.930601
C 4.169411 5.108106 5.196298
C 4.962400 4.964265 5.174200
C 5.865867 4.873227 4.874466
C 6.889668 5.126460 5.165419
C 0.071496 6.135517 4.713040
C 0.967022 6.022433 5.030636
C 2.114442 6.187953 4.822597
C 2.808492 6.271075 4.902829
C 4.354014 6.129226 4.979227
C 5.072621 6.342492 5.103467
C 5.747825 6.012947 5.037852
C 6.820825 5.887225 4.835747
C 0.196337 6.634724 5.181579
C 1.097581 6.837621 5.216335
C 1.789747 6.776473 5.058365
C 2.810655 6.939985 5.151239
C 4.196460 6.822930 4.996999
C 4.888381 6.855360 4.774608
C 5.829303 6.958606 4.795907
C 6.985130 6.902781 4.658224
C 0.129760 0.251480 6.173061
C 1.323306 0.092473 5.830374
C 2.199722 0.182379 6.149574
C 3.281655 0.127040 6.054672
C 3.884048 0.109052 5.745953
C 5.014482 0.054509 5.859079
C 6.183453 0.159921 5.764805
C 6.974147 0.342417 5.580737
C 0.081790 1.238408 6.207426
C 0.905627 1.300026 6.234650
C 1.943391 1.230044 6.279151
C 3.005685 0.943442 6.329281
C 4.114314 0.716777 5.951535
C 4.824612 1.003186 6.085444
C 5.966942 0.860543 5.854290
C 6.659796 0.815659 5.877330
C 0.119462 2.042168 6.328474
C 0.831196 2.138015 6.041961
C 1.853891 2.268227 6.097508
C 2.858833 2.027387 6.153585
C 3.809008 2.082091 6.003091
C 5.163444 1.969795 6.161655
C 6.019589 2.343157 6.007111
C 6.973109 1.789201 6.015261
C 0.120721 2.720847 6.036219
C 0.963184 2.798599 5.823141
C 1.862018 3.026151 6.324607
C 3.293409 3.215133 6.048298
C 4.110845 2.734830 6.133187
C 4.994026 3.097205 6.067094
C 6.183517 3.122145 6.162891
C 6.973415 3.338748 5.981251
C 0.050629 3.596432 6.073177
C 1.219436 4.100083 5.992171
C 2.128965 4.082465 6.377892
C 2.892741 4.045077 6.285053
C 4.254952 3.997153 6.139191
C 4.978789 3.831462 6.062939
C 6.059771 3.925351 6.220749
C 6.994063 4.029529 6.009775
C 0.005755 5.210193 5.851234
C 1.007006 5.311467 6.196738
C 2.007092 5.159958 5.965678
C 2.939799 5.071842 5.939030
C 4.345067 5.105425 6.087412
C 5.088246 5.381895 5.970596
C 6.064410 4.734531 5.950612
C 6.973317 5.029799 5.891681
C 0.059011 5.973535 5.581236
C 1.129461 5.875785 5.892303
C 2.257245 5.801797 5.906728
C 3.030423 6.019833 6.218765
C 4.223703 5.903163 5.947513
C 4.891286 6.319621 6.232930
C 5.997846 6.017576 6.199130
C 6.867309 6.326750 6.083923
C 0.168490 6.857436 6.064772
C 1.272565 6.689558 5.957291
C 2.148732 6.793143 6.133377
C 2.917491 6.730409 6.357480
C 3.650054 6.986066 5.936163
C 4.723341 6.833926 5.867639
C 6.149212 6.999368 6.010930
C 6.891835 6.992427 5.524433
C 0.148956 0.449175 6.960185
C 0.926332 0.022420 6.721085
C 2.145796 0.242186 6.906900
C 2.841494 0.098881 6.808685
C 4.034291 0.113616 6.864984
C 4.953826 0.270196 6.556346
C 5.894686 0.437101 6.874740
C 6.938528 0.061684 6.650953
C 0.520709 1.066610 6.844464
C 1.247733 1.013131 6.763685
C 1.878934 1.402015 6.967478
C 3.082132 0.691921 6.978787
C 4.256708 0.962114 6.955317
C 5.065918 1.313403 6.740745
C 6.148088 1.186286 6.967179
C 6.905749 1.346815 6.800672
C 0.394007 1.879383 6.962639
C 1.187826 1.934469 6.946830
C 1.948771 2.288176 6.838046
C 3.208469 1.806262 6.791770
C 4.006558 1.712077 6.951833
C 4.771793 2.223920 6.840186
C 5.799598 1.769034 6.961130
C 6.863402 2.108802 6.588862
C 0.382370 2.662378 6.743173
C 1.294069 3.078390 6.866054
C 2.111953 3.090548 6.974127
C 2.856410 2.742097 6.717580
C 4.056406 2.713233 6.950512
C 4.928191 2.955991 6.762867
C 5.701365 3.012894 6.956962
C 6.877729 3.072550 6.759114
C 0.129675 4.039139 6.860044
C 1.133454 4.403493 6.751386
C 1.716529 3.882180 6.932029
C 2.996318 4.023436 6.992878
C 4.059271 3.578819 6.863629
C 4.690584 3.942180 6.926608
C 5.651424 4.207288 6.814217
C 6.586743 4.159553 6.789227
C 0.240505 5.214860 6.609789
C 0.865861 5.324320 6.871789
C 2.069940 4.758819 6.900294
C 3.007403 4.854803 6.577491
C 3.980461 4.770359 6.978453
C 5.030273 5.091623 6.962140
C 5.990750 4.968069 6.978498
C 6.774597 4.914254 6.555218
C 0.245437 6.051690 6.913008
C 1.309725 6.033801 6.977886
C 1.935713 5.797254 6.566579
C 3.283977 5.910990 6.854651
C 4.210192 6.267667 6.945522
C 5.068545 5.883568 6.998954
C 5.660283 6.150016 6.722382
C 6.877110 5.776209 6.810728
C 0.415837 6.732775 6.888675
C 0.812090 6.988463 6.496230
C 1.758416 6.984444 6.759641
C 3.301237 6.996356 6.908661
C 4.487616 6.868023 6.773203
C 5.189176 6.869694 6.603908
C 5.964028 6.829654 6.833959
C 6.595036 6.516268 6.957280
512
Frame 9/10
C 0.221621 0.509720 0.007814
C 1.383167 0.238863 0.067693
C 2.237470 0.489076 0.070096
C 2.788721 0.062600 0.331691
C 4.001676 0.055261 0.358844
C 4.860416 0.233190 0.450270
C 5.445723 0.469575 0.215115
C 6.326322 0.451845 0.142163
C 0.206782 1.297565 0.136032
C 0.852667 0.820533 0.128192
C 1.573115 0.936967 0.115941
C 2.903006 1.459434 0.174491
C 3.627346 1.187256 0.052969
C 4.798551 0.871609 0.150543
C 5.758872 1.058767 0.270324
C 6.950593 0.598818 0.185470
C 0.122060 2.309777 0.224530
C 0.863024 2.144745 0.129167
C 2.280696 1.814076 0.252698
C 3.358821 1.875230 0.147472
C 4.007204 1.734527 0.307416
C 5.207296 2.099545 0.215068
C 6.314186 1.786026 0.047204
C 6.955269 1.912917 0.552532
C 0.436101 3.216398 0.055520
C 1.349463 3.239942 0.288712
C 2.049410 3.378125 0.139165
C 2.928249 3.163870 0.176519
C 4.027370 3.190625 0.329494
C 4.753135 3.476448 0.018208
C 6.108717 2.907601 0.283685
C 6.641384 3.170593 0.065641
C 0.315514 3.913011 0.235340
C 1.312923 4.234479 0.268493
C 2.458760 4.234009 0.078792
C 3.154418 3.749982 0.085812
C 3.778886 4.229814 0.194144
C 5.363896 3.890788 0.027852
C 6.274509 4.121751 0.005205
C 6.881872 3.781768 0.186526
C 0.212129 5.105517 0.249176
C 0.874133 4.779156 0.416175
C 1.948783 5.345756 0.089215
C 3.265507 4.842163 0.122728
C 4.097784 4.895187 0.023860
C 5.106818 5.112354 0.189968
C 6.061084 4.893957 0.181746
C 6.746622 5.013307 0.581565
C 0.118171 6.097200 0.402765
C 0.810711 6.217855 0.168946
C 1.988809 6.005043 0.015356
C 3.037823 5.840942 0.056788
C 4.196953 6.199211 0.092735
C 4.896321 6.263633 0.110066
C 5.864324 5.870452 0.027497
C 6.517247 5.899902 0.004034
C 0.510539 6.847390 0.570234
C 1.254131 6.866004 0.334589
C 2.329220 6.446651 0.401257
C 3.077083 6.847263 0.028305
C 3.823025 6.837595 0.169522
C 4.967610 6.919433 0.244998
C 6.187331 6.997071 0.137936
C 6.539538 6.575711 0.629011
C 0.362870 0.041360 1.412737
C 0.661110 0.041431 0.823003
C 2.069604 0.341227 1.375474
C 2.624267 0.132471 1.163867
C 3.847898 0.415760 1.137660
C 5.144737 0.139433 1.367677
C 5.799368 0.024795 0.664728
C 6.747660 0.408003 1.239896
C 0.253266 0.998405 1.325153
C 0.686821 0.728576 0.822662
C 1.907660 0.834728 1.018262
C 2.939787 0.964338 0.654230
C 4.065082 0.940477 0.601007
C 4.841569 1.013572 1.428811
C 6.242822 0.757109 0.799789
C 6.708153 1.320208 0.816142
C 0.097802 1.815490 0.848882
C 1.322063 2.002718 1.189275
C 1.852780 1.976314 0.716573
C 3.045877 1.850078 0.774995
C 4.042187 2.400283 1.070137
C 4.995850 2.268710 1.025400
C 6.142569 2.108044 1.114949
C 6.987688 2.424693 0.924827
C 0.052195 3.182685 1.552677
C 0.746566 2.901606 0.770602
C 1.894383 2.860537 1.296978
C 3.174093 3.042651 0.848660
C 3.758667 3.174202 1.157730
C 4.991034 3.053750 0.657618
C 6.218645 2.948274 1.218913
C 6.740901 3.301444 0.755444
C 0.381255 3.597160 0.895465
C 0.762857 4.058006 0.812994
C 2.244462 4.011728 0.712399
C 2.885785 3.912023 0.952861
C 3.846607 4.075332 1.110079
C 4.986525 4.042163 1.196855
C 5.789399 4.292227 0.996505
C 6.575488 3.959178 0.732648
C 0.012722 4.693097 0.727310
C 1.231294 5.015290 1.007826
C 2.128306 4.976742 0.707551
C 2.775585 4.781014 0.877964
C 4.176525 4.785529 0.824661
C 4.901189 4.734199 0.955136
C 5.920434 5.108452 1.197529
C 6.607402 4.764585 1.219836
C 0.016977 5.823394 1.390105
C 1.064184 5.688394 1.086687
C 1.719079 6.214890 1.229881
C 3.035083 6.266072 1.126725
C 3.989491 5.813747 1.150034
C 4.966589 5.981207 0.955248
C 5.944229 6.215659 0.706759
C 6.774608 5.793334 1.368555
C 0.117246 6.755980 1.609085
C 1.028012 6.884672 1.409085
C 1.884110 6.950443 0.724032
C 2.913830 6.885666 0.656335
C 4.016357 6.943286 1.381537
C 5.299647 6.892534 0.905874
C 6.028611 6.933665 0.925035
C 6.598634 6.799058 1.263233
C 0.385437 0.253406 2.027679
C 1.422750 0.137613 1.975869
C 2.205662 0.018481 2.032444
C 2.997169 0.056712 1.790486
C 4.116599 0.119588 2.347356
C 4.844267 0.050926 2.234543
C 6.281093 0.066219 1.645925
C 6.896855 0.166076 1.812911
C 0.023296 1.111569 1.932988
C 0.923491 1.162178 1.806193
C 2.124205 1.083775 1.807219
C 3.003975 1.084130 1.927959
C 4.384770 1.125324 1.939916
C 5.116874 0.635480 1.886291
C 5.830569 0.690619 2.342081
C 6.771824 1.348485 1.931290
C 0.044568 1.910231 2.105846
C 0.704002 1.917688 1.925693
C 1.923205 1.929179 2.244932
C 2.622048 2.036223 2.092813
C 3.855381 2.018074 2.119028
C 5.059950 2.263393 2.232000
C 5.765584 2.019463 2.104277
C 6.756228 2.140159 1.466246
C 0.193089 2.655351 1.891834
C 1.255379 2.948794 1.826058
C 2.025325 3.125716 2.054473
C 2.730152 2.952291 2.121031
C 4.364881 3.185012 1.856296
C 5.258821 3.134163 2.140872
C 5.988892 3.089256 2.271841
C 6.782170 3.283423 2.075638
C 0.060980 4.016874 1.872547
C 0.915210 4.262897 2.255934
C 1.848862 4.253425 2.104760
C 3.428664 3.833449 2.059030
C 4.226310 3.908600 1.755522
C 5.079091 4.000883 1.924769
C 6.261979 3.753363 1.965496
C 6.932070 4.319415 1.809674
C 0.187433 5.214169 2.133467
C 1.138344 5.114090 2.256140
C 2.115595 5.025543 1.745668
C 2.763355 5.130936 1.944354
C 4.379527 5.112398 2.120433
C 5.225340 4.756762 2.136659
C 5.953091 4.659400 1.876087
C 6.888405 5.126443 1.767232
C 0.119862 6.033793 2.443028
C 0.753410 6.100707 1.784853
C 2.229546 5.977230 2.061164
C 2.980160 5.786674 1.993760
C 4.122472 6.309391 1.899004
C 5.128781 5.947610 2.345463
C 6.206800 6.019440 2.217692
C 6.938775 6.003771 2.087714
C 0.235492 6.675427 2.287441
C 1.446483 6.764600 1.871448
C 2.239850 6.891983 2.007673
C 3.332829 6.889281 2.019977
C 4.285362 6.763034 2.512664
C 5.229368 6.967770 1.979201
C 6.185786 6.867176 1.982777
C 6.883494 6.945944 1.909657
C 0.021235 0.528434 2.494890
C 0.970873 0.040570 3.318533
C 2.136200 0.208192 2.685696
C 2.779398 0.044723 3.161239
C 3.596208 0.322754 3.120764
C 4.630793 0.181113 3.241021
C 6.107038 0.045154 3.286166
C 6.770943 0.016182 2.556257
C 0.231418 1.258207 3.113929
C 1.140071 1.309152 2.853212
C 2.071178 1.219989 3.279567
C 3.116987 1.138504 3.203663
C 4.355221 0.904477 3.080601
C 5.041366 0.681948 3.203153
C 6.221924 0.721704 3.062961
C 6.821037 0.819249 3.258835
C 0.392157 2.128338 2.991293
C 1.247533 2.223647 3.000019
C 1.926662 2.106096 3.162402
C 3.266475 2.266190 2.775409
C 3.668039 2.047312 3.200472
C 5.315499 2.156295 3.084950
C 5.953376 2.353479 2.983522
C 6.954700 2.062626 3.001477
C 0.085188 2.679309 2.707877
C 0.783002 3.066236 3.231597
C 2.283345 2.936248 2.982967
C 2.922988 2.795615 2.863505
C 4.198439 3.138622 3.011412
C 4.922408 2.816016 2.804655
C 6.116353 3.126628 2.924992
C 6.986568 2.912057 3.005103
C 0.359244 4.201872 3.127972
C 1.358003 3.696134 3.008442
C 1.953940 4.018508 2.760763
C 2.900090 3.902139 2.863632
C 3.774125 3.895844 3.140246
C 5.131330 4.237393 2.907149
C 5.740853 4.341901 3.127181
C 6.982869 3.951445 2.879825
C 0.040325 5.414892 2.983042
C 0.836017 5.314114 2.951111
C 1.833596 5.009407 3.318952
C 2.915500 5.030158 3.227717
C 3.667546 4.870581 3.055429
C 5.374387 5.106547 2.988573
C 6.244050 5.076028 2.915391
C 6.904637 4.918939 3.252256
C 0.069409 6.255422 3.135555
C 0.978281 5.988072 3.003183
C 1.892653 6.143656 2.672225
C 3.193925 5.687877 3.127679
C 3.917125 5.941893 2.650448
C 5.165877 6.069859 3.105656
C 5.774374 5.924702 2.784930
C 6.993134 6.293740 2.954831
C 0.386745 6.966292 3.049971
C 1.438264 6.863779 2.879335
C 2.265716 6.973538 2.891672
C 2.950834 6.815115 3.108465
C 3.886331 6.971367 3.267734
C 5.166291 6.866485 3.051449
C 5.970739 6.634680 2.834290
C 6.719433 6.655231 2.554231
C 0.060337 0.184286 3.866287
C 0.899105 0.310183 4.336460
C 1.957401 0.007002 4.193461
C 2.548027 0.154510 3.936010
C 3.798948 0.016177 4.357782
C 4.742576 0.049197 3.909829
C 6.530488 0.071814 3.840092
C 6.738126 0.396864 4.325104
C 0.025513 1.043730 3.772528
C 1.288140 0.978010 3.902293
C 2.181032 0.933782 3.847369
C 3.077260 0.753933 3.925488
C 4.055144 1.104747 4.156207
C 5.215821 1.255792 4.124539
C 5.749156 0.795511 4.140095
C 6.972392 0.952928 3.868264
C 0.087125 2.348862 3.903676
C 0.723077 2.107817 3.947738
C 1.820691 2.098675 4.066917
C 2.638792 2.243178 3.935938
C 3.740086 2.135993 3.957095
C 5.296927 2.336760 4.006597
C 5.891440 2.263750 4.244867
C 6.961380 1.744836 3.949834
C 0.088845 3.195753 4.023745
C 0.670392 2.770627 3.981131
C 2.250672 2.859219 3.988845
C 3.033360 2.900160 3.623551
C 3.871218 2.994045 3.965085
C 5.240356 3.209173 4.070796
C 6.105326 3.150633 3.636029
C 6.848946 3.338630 3.932622
C 0.546376 4.219045 3.846858
C 0.954419 3.594585 3.740880
C 2.106602 4.126801 4.234464
C 3.020666 4.166698 4.154753
C 3.713012 3.967806 3.929661
C 5.232926 3.885537 4.102605
C 6.331532 4.063761 3.925367
C 6.960306 4.507496 3.957001
C 0.002498 4.773229 4.284293
C 0.791387 4.990706 3.917832
C 2.116816 5.129032 3.957220
C 3.222085 4.823546 4.108108
C 4.035618 4.844741 3.918410
C 5.389418 5.098071 4.060154
C 6.109332 5.265583 4.415166
C 6.837324 4.960074 4.416730
C 0.116744 5.660818 3.804410
C 1.323055 5.836544 4.126518
C 2.320261 5.911379 4.276882
C 2.973609 5.697150 3.902579
C 3.973840 5.904511 4.430225
C 5.035040 5.736092 4.361944
C 5.811132 5.897798 4.062653
C 6.735198 6.248269 3.767312
C 0.319088 6.843149 3.906309
C 1.166791 6.586098 4.038708
C 2.004229 6.960336 4.258527
C 2.932476 6.922185 4.294748
C 4.181859 6.985760 4.149599
C 5.483821 6.666627 4.124943
C 6.193201 6.579807 4.031607
C 6.671600 6.974937 3.911885
C 0.221917 0.016456 4.795369
C 1.069658 0.097995 4.946070
C 2.201751 0.068569 4.860644
C 3.292202 0.093923 5.108943
C 4.327383 0.205502 5.231250
C 5.238107 0.022042 4.713488
C 6.040134 0.069494 4.712320
C 6.667385 0.135970 4.950035
C 0.126362 0.950643 5.140973
C 1.072565 1.109511 5.141028
C 2.033016 1.224190 5.184340
C 3.188319 1.430027 5.160077
C 4.060818 1.266204 5.027005
C 4.773036 0.921136 4.841394
C 6.124529 1.189282 5.135962
C 6.798263 1.091604 5.123423
C 0.263041 1.852832 5.278398
C 0.720282 1.942647 4.642710
C 2.092656 2.192501 4.688088
C 2.685099 2.118195 5.116452
C 4.117791 2.101972 5.105594
C 5.094784 1.851539 4.895304
C 6.256281 1.846344 5.141059
C 6.985643 1.837528 5.198142
C 0.159808 3.251353 4.826601
C 1.054450 2.921487 4.736954
C 1.802446 2.865762 4.793520
C 3.163172 3.102979 5.035187
C 3.965415 2.838105 5.091531
C 4.983030 3.149900 4.721434
C 6.343940 3.099917 4.665633
C 6.861898 2.898287 5.360623
C 0.099063 3.887265 4.706711
C 0.696351 3.993542 4.900063
C 1.822908 3.880704 4.875357
C 2.839882 3.771869 4.946646
C 3.942437 3.785605 4.628331
C 5.114028 4.134481 5.472364
C 5.702123 3.937403 5.196320
C 6.760604 4.134656 4.870694
C 0.318303 5.351923 4.960390
C 1.032275 5.093962 5.112844
C 2.125372 5.174653 5.207519
C 2.815579 4.991532 4.920687
C 4.193613 5.123550 5.224340
C 4.957029 4.959160 5.199086
C 5.846705 4.855117 4.856533
C 6.873906 5.144525 5.189050
C 0.081710 6.154876 4.672045
C 0.962311 6.025638 5.035012
C 2.130791 6.214803 4.797254
C 2.781133 6.309800 4.888947
C 4.404587 6.147687 4.976260
C 5.082995 6.391420 5.118248
C 5.711800 6.014797 5.043260
C 6.795228 5.871114 4.812282
C 0.224385 6.582542 5.207519
C 1.111521 6.814424 5.247240
C 1.759711 6.744540 5.066703
C 2.783605 6.931412 5.172845
C 4.224525 6.797634 4.996570
C 4.872436 6.834697 4.742409
C 5.804917 6.952692 4.766751
C 6.983006 6.888893 4.609399
C 0.148297 0.287406 6.197784
C 1.369492 0.105683 5.806142
C 2.228254 0.208434 6.170941
C 3.321891 0.145189 6.062482
C 3.867484 0.124631 5.709661
C 5.016550 0.062296 5.838948
C 6.209661 0.182767 5.731205
C 6.970454 0.391334 5.520842
C 0.093474 1.272466 6.237058
C 0.892146 1.342887 6.268171
C 1.935304 1.262908 6.319029
C 3.006497 0.935363 6.376321
C 4.130644 0.676316 5.944611
C 4.799557 1.003641 6.097650
C 5.962220 0.840620 5.833474
C 6.611195 0.789325 5.859805
C 0.136528 2.048192 6.375399
C 0.807081 2.157732 6.047956
C 1.833018 2.306545 6.111437
C 2.838666 2.031300 6.175526
C 3.781724 2.093819 6.003532
C 5.186793 1.965480 6.184749
C 6.022388 2.392180 6.008127
C 6.969267 1.759087 6.017441
C 0.137967 2.680967 6.041393
C 0.957924 2.769828 5.797876
C 1.842306 3.029886 6.370979
C 3.335325 3.245866 6.055198
C 4.126680 2.696948 6.152214
C 4.993172 3.111091 6.076678
C 6.209734 3.139594 6.186161
C 6.969618 3.387141 5.978572
C 0.057861 3.538780 6.083631
C 1.250784 4.114381 5.991053
C 2.147388 4.094246 6.431877
C 2.877419 4.051516 6.325775
C 4.291374 3.996746 6.159076
C 4.975759 3.807385 6.071930
C 6.068309 3.914687 6.252285
C 6.993214 4.033747 6.011172
C 0.006577 5.240221 5.829982
C 1.008007 5.355962 6.224843
C 2.008105 5.182809 5.960775
C 2.931199 5.082106 5.930320
C 4.394362 5.120486 6.099899
C 5.100853 5.436451 5.966395
C 6.073612 4.696607 5.943556
C 6.969505 5.034056 5.876207
C 0.067441 5.969755 5.521412
C 1.147956 5.858040 5.876917
C 2.293994 5.773482 5.893403
C 3.034769 6.022666 6.250017
C 4.255660 5.889329 5.940015
C 4.875756 6.365281 6.266205
C 5.997539 6.020087 6.227578
C 6.848353 6.373429 6.095912
C 0.192560 6.837070 6.074025
C 1.311503 6.645209 5.951190
C 2.169979 6.763593 6.152431
C 2.905704 6.691896 6.408548
C 3.600062 6.984076 5.927044
C 4.683819 6.810201 5.848730
C 6.170527 6.999278 6.012491
C 6.876383 6.991345 5.456494
C 0.170235 0.513343 6.954497
C 0.915808 0.025622 6.681240
C 2.166624 0.276785 6.893600
C 2.818850 0.113007 6.781354
C 4.039190 0.129847 6.845696
C 4.947229 0.308796 6.492967
C 5.879642 0.499544 6.856846
C 6.929746 0.070496 6.601089
C 0.595096 1.076125 6.822245
C 1.283123 1.015006 6.729925
C 1.861639 1.459446 6.962832
C 3.093865 0.647910 6.975756
C 4.293381 0.956702 6.948933
C 5.075334 1.358174 6.703709
C 6.169244 1.212898 6.962490
C 6.892285 1.396360 6.772196
C 0.450294 1.862152 6.957302
C 1.214659 1.925108 6.939234
C 1.941453 2.329344 6.814910
C 3.238250 1.778585 6.762023
C 4.007495 1.670945 6.944952
C 4.739191 2.255909 6.817355
C 5.770969 1.736039 6.955577
C 6.843888 2.124345 6.530128
C 0.436994 2.614146 6.706484
C 1.336079 3.089589 6.846919
C 2.127947 3.103483 6.970431
C 2.835897 2.705254 6.677235
C 4.064464 2.672266 6.943442
C 4.917933 2.949704 6.728991
C 5.658703 3.014736 6.950814
C 6.860262 3.082915 6.724701
C 0.148200 4.044731 6.840051
C 1.152519 4.461135 6.715870
C 1.676033 3.865349 6.922319
C 2.995792 4.026784 6.991861
C 4.067739 3.518651 6.844148
C 4.646382 3.933920 6.916123
C 5.601627 4.236900 6.787676
C 6.527706 4.182346 6.759117
C 0.274863 5.245554 6.554045
C 0.846698 5.370652 6.853473
C 2.079931 4.724364 6.886050
C 3.008461 4.834061 6.517133
C 3.977670 4.737554 6.975375
C 5.034598 5.104712 6.956732
C 5.989429 4.963507 6.975427
C 6.742397 4.902005 6.491677
C 0.280500 6.059074 6.900581
C 1.353971 6.038630 6.974727
C 1.926529 5.768291 6.504661
C 3.324545 5.898274 6.833887
C 4.240220 6.305905 6.937740
C 5.078337 5.866935 6.998805
C 5.611752 6.171447 6.682722
C 6.859554 5.744239 6.783690
C 0.475242 6.694600 6.872772
C 0.785246 6.986815 6.424263
C 1.723904 6.982221 6.725304
C 3.344271 6.995835 6.895612
C 4.557275 6.849170 6.740804
C 5.216201 6.851079 6.547324
C 5.958889 6.805318 6.810239
C 6.537184 6.447164 6.951177
512
Frame 10/10
C 0.249324 0.573435 0.008791
C 1.431062 0.268720 0.076155
C 2.267154 0.550210 0.078858
C 2.762311 0.070426 0.373153
C 4.001885 0.062169 0.403700
C 4.842968 0.262339 0.506554
C 5.376439 0.528271 0.242005
C 6.242112 0.508325 0.159933
C 0.232630 1.334760 0.153036
C 0.834251 0.798100 0.144217
C 1.519754 0.929087 0.130433
C 2.890882 1.516864 0.196302
C 3.580764 1.210664 0.059590
C 4.773370 0.855560 0.169361
C 5.728731 1.066113 0.304114
C 6.944417 0.548670 0.208653
C 0.137317 2.348499 0.252596
C 0.845902 2.162838 0.145313
C 2.315783 1.790835 0.284286
C 3.403674 1.859634 0.165906
C 4.008105 1.701343 0.345844
C 5.233209 2.111988 0.241951
C 6.353459 1.759279 0.053105
C 6.949678 1.902032 0.621599
C 0.490613 3.243448 0.062461
C 1.393146 3.269935 0.324801
C 2.055586 3.425391 0.156560
C 2.919280 3.184353 0.198584
C 4.030791 3.214453 0.370681
C 4.722277 3.536004 0.020484
C 6.122306 2.896052 0.319146
C 6.596557 3.191917 0.073847
C 0.354953 3.902137 0.264758
C 1.352038 4.263789 0.302055
C 2.516105 4.263260 0.088641
C 3.173720 3.718730 0.096538
C 3.751247 4.258541 0.218412
C 5.409383 3.877136 0.031333
C 6.308822 4.136970 0.005856
C 6.867106 3.754489 0.209842
C 0.238645 5.118706 0.280323
C 0.858399 4.751551 0.468197
C 1.942381 5.388975 0.100367
C 3.298695 4.822433 0.138069
C 4.110007 4.882086 0.026842
C 5.120170 5.126398 0.213714
C 6.068720 4.880702 0.204464
C 6.714950 5.014970 0.654261
C 0.132942 6.109351 0.453111
C 0.787050 6.245086 0.190065
C 1.987411 6.005673 0.017275
C 3.042551 5.821059 0.063886
C 4.221572 6.224112 0.104327
C 4.883362 6.296587 0.123824
C 5.847365 5.854259 0.030934
C 6.456902 5.887389 0.004539
C 0.574356 6.828314 0.641514
C 1.285897 6.849254 0.376412
C 2.370372 6.377482 0.451414
C 3.086719 6.828171 0.031843
C 3.800903 6.817294 0.190713
C 4.963561 6.909363 0.275623
C 6.210747 6.996705 0.155179
C 6.481980 6.522675 0.707637
C 0.408229 0.046530 1.464329
C 0.618749 0.046610 0.800878
C 2.078304 0.383880 1.422408
C 2.577300 0.149030 1.184351
C 3.828885 0.467731 1.154868
C 5.162829 0.156862 1.413637
C 5.774289 0.027894 0.622820
C 6.716117 0.459004 1.269883
C 0.284924 0.998206 1.365797
C 0.647674 0.694648 0.800495
C 1.896117 0.814069 1.020545
C 2.932260 0.959880 0.611009
C 4.073217 0.933037 0.551133
C 4.821765 1.015268 1.482412
C 6.273175 0.726747 0.774763
C 6.671672 1.360234 0.793160
C 0.110027 1.792426 0.829992
C 1.362321 2.003058 1.212934
C 1.834378 1.973353 0.681145
C 3.051612 1.831338 0.746869
C 4.047460 2.450318 1.078905
C 4.995331 2.302299 1.028575
C 6.160390 2.121549 1.129318
C 6.986149 2.477780 0.915430
C 0.058720 3.205521 1.621762
C 0.714887 2.889307 0.741927
C 1.881181 2.843105 1.334101
C 3.195854 3.047983 0.829743
C 3.728500 3.195977 1.177446
C 4.989913 3.060469 0.614820
C 6.245976 2.941808 1.246277
C 6.708513 3.339124 0.724874
C 0.428912 3.546805 0.882398
C 0.733214 4.065257 0.789618
C 2.275020 4.013194 0.676448
C 2.871508 3.901026 0.946968
C 3.827433 4.084749 1.123839
C 4.984841 4.047433 1.221462
C 5.763074 4.328756 0.996069
C 6.522424 3.954075 0.699229
C 0.014313 4.654734 0.693224
C 1.260206 5.017201 1.008804
C 2.144344 4.973835 0.670995
C 2.747533 4.753641 0.862709
C 4.198590 4.758720 0.802744
C 4.888838 4.700974 0.949527
C 5.910489 5.122008 1.222220
C 6.558327 4.735159 1.247315
C 0.019099 5.801319 1.438868
C 1.072207 5.649444 1.097522
C 1.683964 6.241752 1.258617
C 3.039468 6.299331 1.142566
C 3.988177 5.790466 1.168788
C 4.962412 5.978858 0.949653
C 5.937257 6.242617 0.670104
C 6.746434 5.767501 1.414624
C 0.131902 6.725478 1.685221
C 1.031514 6.870256 1.460220
C 1.869624 6.944248 0.689536
C 2.903059 6.871375 0.613376
C 4.018401 6.936196 1.429229
C 5.337103 6.879100 0.894108
C 6.032188 6.925373 0.915664
C 6.548463 6.773941 1.296137
C 0.433616 0.285082 2.031139
C 1.475593 0.154815 1.972853
C 2.231370 0.020791 2.036500
C 2.996815 0.063801 1.764297
C 4.131174 0.134536 2.390776
C 4.824800 0.057291 2.263861
C 6.316230 0.074497 1.601666
C 6.883961 0.186835 1.789525
C 0.026208 1.125515 1.924611
C 0.913928 1.182450 1.781968
C 2.139731 1.094246 1.783121
C 3.004472 1.094646 1.918954
C 4.432866 1.140990 1.932406
C 5.131483 0.589915 1.872078
C 5.809390 0.651947 2.384841
C 6.743302 1.392045 1.922701
C 0.050139 1.899009 2.119077
C 0.667003 1.907399 1.916405
C 1.913606 1.920327 2.275549
C 2.574804 2.040751 2.104415
C 3.837304 2.020334 2.133907
C 5.067444 2.296317 2.261000
C 5.736281 2.021896 2.117311
C 6.725756 2.157678 1.399527
C 0.217225 2.612270 1.878313
C 1.287301 2.942393 1.804316
C 2.028491 3.141430 2.061282
C 2.696421 2.946327 2.136160
C 4.410491 3.208138 1.838333
C 5.291173 3.150934 2.158481
C 5.987503 3.100413 2.305821
C 6.754941 3.318851 2.085092
C 0.068603 4.018983 1.856615
C 0.904612 4.295759 2.287925
C 1.829970 4.285104 2.117855
C 3.482247 3.812630 2.066409
C 4.254599 3.897175 1.724962
C 5.088978 4.000993 1.915366
C 6.294726 3.722533 1.961183
C 6.923579 4.359341 1.785883
C 0.210862 5.240940 2.150150
C 1.155637 5.128352 2.288158
C 2.130044 5.028736 1.713876
C 2.733774 5.147303 1.937398
C 4.426968 5.126448 2.135487
C 5.253508 4.726357 2.153741
C 5.947228 4.616825 1.860598
C 6.874455 5.142249 1.738136
C 0.134844 6.038017 2.498407
C 0.722586 6.113295 1.757960
C 2.258240 5.974383 2.068809
C 2.977680 5.760009 1.992980
C 4.137781 6.348064 1.886380
C 5.144879 5.941061 2.388646
C 6.232650 6.021870 2.244903
C 6.931122 6.004243 2.098678
C 0.264928 6.634856 2.323372
C 1.502293 6.735174 1.855379
C 2.269832 6.878481 2.008633
C 3.374433 6.875441 2.022474
C 4.321032 6.733413 2.576747
C 5.258040 6.963741 1.976601
C 6.209010 6.850573 1.980624
C 6.868931 6.939187 1.898364
C 0.023889 0.594489 2.431752
C 0.967232 0.045641 3.358350
C 2.153225 0.234216 2.646408
C 2.751823 0.050314 3.181394
C 3.545734 0.363098 3.135860
C 4.584642 0.203752 3.271149
C 6.120418 0.050798 3.321936
C 6.742311 0.018205 2.500789
C 0.260345 1.290483 3.128170
C 1.157580 1.347797 2.834864
C 2.080075 1.247487 3.314513
C 3.131610 1.155817 3.229121
C 4.399624 0.892537 3.090677
C 5.046537 0.642191 3.228547
C 6.249664 0.686917 3.070832
C 6.798667 0.796655 3.291189
C 0.441177 2.144380 2.990204
C 1.278474 2.251602 3.000022
C 1.917495 2.119358 3.182702
C 3.299784 2.299464 2.747336
C 3.626544 2.053226 3.225531
C 5.354936 2.175831 3.095569
C 5.947548 2.397664 2.981462
C 6.949037 2.070454 3.001662
C 0.095837 2.639223 2.671362
C 0.755877 3.074515 3.260546
C 2.318763 2.928279 2.980838
C 2.913362 2.770067 2.846443
C 4.223243 3.155950 3.012839
C 4.912709 2.793018 2.780237
C 6.130897 3.142457 2.915616
C 6.984889 2.901064 3.005741
C 0.404149 4.227106 3.143969
C 1.402753 3.658151 3.009497
C 1.948183 4.020821 2.730858
C 2.887601 3.889906 2.846587
C 3.745890 3.882824 3.157777
C 5.147746 4.267067 2.895542
C 5.708460 4.384639 3.143079
C 6.980727 3.945376 2.864803
C 0.045366 5.466753 2.980922
C 0.815519 5.353378 2.945000
C 1.812796 5.010583 3.358821
C 2.904938 5.033928 3.256182
C 3.625990 4.854404 3.062357
C 5.421186 5.119865 2.987144
C 6.274556 5.085532 2.904814
C 6.892717 4.908807 3.283788
C 0.078085 6.287350 3.152500
C 0.975566 5.986581 3.003580
C 1.879235 6.161613 2.631253
C 3.218166 5.648861 3.143639
C 3.906765 5.934629 2.606754
C 5.186612 6.078592 3.118863
C 5.746170 5.915290 2.758046
C 6.992276 6.330457 2.949185
C 0.435089 6.962079 3.056217
C 1.493047 6.846752 2.864251
C 2.298931 6.970230 2.878131
C 2.944688 6.792005 3.122023
C 3.872123 6.967788 3.301201
C 5.187077 6.849796 3.057880
C 5.967082 6.589015 2.813576
C 6.684362 6.612135 2.498510
C 0.067879 0.207322 3.849572
C 0.886493 0.348956 4.378517
C 1.952076 0.007877 4.217643
C 2.491530 0.173823 3.928011
C 3.773816 0.018199 4.402505
C 4.710398 0.055346 3.898558
C 6.596799 0.080790 3.820103
C 6.705392 0.446472 4.365741
C 0.028702 1.049197 3.744094
C 1.324158 0.975261 3.890080
C 2.203661 0.925505 3.828291
C 3.086917 0.723175 3.916174
C 4.062037 1.117840 4.175733
C 5.242799 1.287766 4.140106
C 5.717801 0.769950 4.157607
C 6.968941 0.947044 3.851797
C 0.098016 2.392469 3.891635
C 0.688462 2.121294 3.941206
C 1.798278 2.111009 4.075282
C 2.593641 2.273576 3.927930
C 3.707597 2.152992 3.951732
C 5.334042 2.378854 4.007422
C 5.877870 2.296719 4.275476
C 6.956552 1.712940 3.943563
C 0.099951 3.220222 4.026713
C 0.629191 2.741956 3.978772
C 2.282006 2.841621 3.987451
C 3.037530 2.887680 3.576495
C 3.855120 2.993301 3.960721
C 5.270400 3.235320 4.079645
C 6.118491 3.169462 3.590533
C 6.830064 3.380958 3.924199
C 0.614673 4.246426 3.827715
C 0.948721 3.543908 3.708490
C 2.119928 4.142651 4.263772
C 3.023249 4.187536 4.174097
C 3.677138 3.963781 3.920869
C 5.262041 3.871229 4.115431
C 6.372973 4.071732 3.916037
C 6.955344 4.570933 3.951626
C 0.002810 4.744883 4.319829
C 0.765310 4.989544 3.907561
C 2.131417 5.145162 3.951873
C 3.249846 4.801489 4.121621
C 4.040071 4.825334 3.908212
C 5.438095 5.110330 4.067674
C 6.122998 5.298781 4.467062
C 6.816989 4.955083 4.468821
C 0.131337 5.618421 3.779961
C 1.363436 5.816112 4.142332
C 2.360294 5.900301 4.311492
C 2.970311 5.659293 3.890401
C 3.970570 5.892575 4.484003
C 5.039420 5.703104 4.407188
C 5.787523 5.885023 4.070485
C 6.702098 6.279303 3.738226
C 0.358974 6.823543 3.894597
C 1.187640 6.534361 4.043546
C 2.004758 6.955378 4.290843
C 2.924035 6.912458 4.331591
C 4.204592 6.983980 4.168299
C 5.544299 6.624955 4.140560
C 6.217351 6.527283 4.035557
C 6.630550 6.971804 3.900871
C 0.249657 0.018513 4.769791
C 1.078365 0.110245 4.939328
C 2.226970 0.077140 4.843225
C 3.328727 0.105663 5.122561
C 4.368305 0.231190 5.260156
C 5.267871 0.024797 4.677674
C 6.045150 0.078181 4.676360
C 6.625808 0.152966 4.943789
C 0.142158 0.944473 5.158595
C 1.081635 1.123199 5.158657
C 2.037143 1.252213 5.207383
C 3.211859 1.483780 5.180087
C 4.068420 1.299480 5.030381
C 4.744665 0.911278 4.821568
C 6.140096 1.212942 5.152958
C 6.773046 1.103054 5.138851
C 0.295921 1.834436 5.313197
C 0.685317 1.935478 4.598049
C 2.104238 2.216564 4.649099
C 2.645736 2.132969 5.131008
C 4.132514 2.114718 5.118793
C 5.106632 1.832982 4.882217
C 6.288317 1.827137 5.158691
C 6.983849 1.817219 5.222910
C 0.179784 3.282772 4.804926
C 1.061256 2.911673 4.704073
C 1.777752 2.848983 4.767710
C 3.183568 3.115852 5.039585
C 3.961092 2.817868 5.102972
C 4.980909 3.168638 4.686613
C 6.386933 3.112407 4.623838
C 6.844635 2.885572 5.405701
C 0.111446 3.873173 4.670050
C 0.658394 3.992734 4.887571
C 1.800771 3.865792 4.859776
C 2.819867 3.743353 4.939977
C 3.935242 3.758805 4.581872
C 5.128281 4.151291 5.531409
C 5.664889 3.929578 5.220860
C 6.730680 4.151488 4.854530
C 0.358090 5.395913 4.955439
C 1.036310 5.105707 5.126949
C 2.141043 5.196484 5.233459
C 2.792527 4.990474 4.910773
C 4.217815 5.138993 5.252383
C 4.951657 4.954055 5.223972
C 5.827543 4.837006 4.838599
C 6.858144 5.162591 5.212681
C 0.091923 6.174236 4.631051
C 0.957600 6.028842 5.039389
C 2.147139 6.241653 4.771911
C 2.753775 6.348525 4.875066
C 4.455161 6.166147 4.973292
C 5.093370 6.440347 5.133029
C 5.675774 6.016646 5.048667
C 6.769632 5.855003 4.788817
C 0.252433 6.530359 5.233459
C 1.125461 6.791227 5.278145
C 1.729674 6.712608 5.075041
C 2.756556 6.922838 5.194451
C 4.252591 6.772338 4.996141
C 4.856490 6.814034 4.710210
C 5.780532 6.946779 4.737595
C 6.980881 6.875004 4.560574
C 0.166834 0.323332 6.222506
C 1.415679 0.118893 5.781909
C 2.256785 0.234488 6.192309
C 3.362127 0.163337 6.070293
C 3.850919 0.140209 5.673369
C 5.018619 0.070082 5.818816
C 6.235869 0.205613 5.697606
C 6.966761 0.440251 5.460947
C 0.105159 1.306524 6.266690
C 0.878664 1.385748 6.301693
C 1.927217 1.295771 6.358908
C 3.007309 0.927283 6.423362
C 4.146975 0.635856 5.937688
C 4.774501 1.004096 6.109856
C 5.957497 0.820698 5.812658
C 6.562594 0.762991 5.842281
C 0.153594 2.054217 6.422323
C 0.782967 2.177448 6.053950
C 1.812145 2.344864 6.125367
C 2.818499 2.035212 6.197467
C 3.754439 2.105546 6.003974
C 5.210142 1.961165 6.207842
C 6.025186 2.441202 6.009143
C 6.965426 1.728973 6.019621
C 0.155213 2.641088 6.046567
C 0.952665 2.741056 5.772610
C 1.822594 3.033622 6.417352
C 3.377241 3.276600 6.062097
C 4.142514 2.659067 6.171240
C 4.992319 3.124978 6.086263
C 6.235951 3.157043 6.209431
C 6.965820 3.435533 5.975894
C 0.065094 3.481127 6.094085
C 1.282132 4.128679 5.989935
C 2.165812 4.106027 6.485861
C 2.862096 4.057956 6.366497
C 4.327796 3.996339 6.178960
C 4.972728 3.783308 6.080921
C 6.076848 3.904023 6.283820
C 6.992366 4.037966 6.012568
C 0.007399 5.270249 5.808729
C 1.009008 5.400457 6.252949
C 2.009119 5.205660 5.955872
C 2.922599 5.092369 5.921610
C 4.443658 5.135546 6.112387
C 5.113460 5.491008 5.962194
C 6.082813 4.658682 5.936501
C 6.965693 5.038313 5.860733
C 0.075871 5.965974 5.461589
C 1.166450 5.840295 5.861532
C 2.330744 5.745168 5.880078
C 3.039115 6.025499 6.281269
C 4.287618 5.875495 5.932517
C 4.860225 6.410941 6.299481
C 5.997231 6.022598 6.256025
C 6.829397 6.420107 6.107901
C 0.216630 6.816704 6.083278
C 1.350441 6.600860 5.945089
C 2.191227 6.734042 6.171485
C 2.893916 6.653383 6.459617
C 3.550070 6.982085 5.917924
C 4.644296 6.786476 5.829821
C 6.191843 6.999188 6.014053
C 6.860931 6.990264 5.388556
C 0.191515 0.577510 6.948809
C 0.905284 0.028825 6.641395
C 2.187452 0.311383 6.880300
C 2.796206 0.127133 6.754023
C 4.044089 0.146078 6.826408
C 4.940633 0.347395 6.429588
C 5.864597 0.561987 6.838952
C 6.920964 0.079308 6.551225
C 0.669483 1.085641 6.800025
C 1.318513 1.016882 6.696166
C 1.844344 1.516877 6.958186
C 3.105598 0.603899 6.972726
C 4.330053 0.951290 6.942550
C 5.084751 1.402946 6.666672
C 6.190399 1.239510 6.957801
C 6.878820 1.445905 6.743721
C 0.506581 1.844920 6.951965
C 1.241491 1.915746 6.931639
C 1.934134 2.370512 6.791774
C 3.268031 1.750908 6.732275
C 4.008432 1.629813 6.938071
C 4.706590 2.287897 6.794524
C 5.742341 1.703043 6.950024
C 6.824374 2.139888 6.471394
C 0.491619 2.565914 6.669794
C 1.378089 3.100787 6.827784
C 2.143940 3.116419 6.966735
C 2.815384 2.668411 6.636889
C 4.072522 2.631299 6.936373
C 4.907675 2.943417 6.695115
C 5.616040 3.016578 6.944666
C 6.842795 3.093279 6.690289
C 0.166725 4.050322 6.820057
C 1.171584 4.518777 6.680353
C 1.635537 3.848517 6.912609
C 2.995266 4.030133 6.990843
C 4.076206 3.458482 6.824666
C 4.602180 3.925660 6.905639
C 5.551831 4.266513 6.761136
C 6.468669 4.205139 6.729007
C 0.309221 5.276249 6.498301
C 0.827536 5.416983 6.835158
C 2.089923 4.689910 6.871806
C 3.009519 4.813319 6.456774
C 3.974879 4.704748 6.972297
C 5.038923 5.117801 6.951323
C 5.988108 4.958946 6.972355
C 6.710197 4.889755 6.428137
C 0.315562 6.066459 6.888154
C 1.398217 6.043459 6.971568
C 1.917345 5.739327 6.442744
C 3.365113 5.885558 6.813123
C 4.270247 6.344143 6.929957
C 5.088129 5.850302 6.998655
C 5.563221 6.192878 6.643062
C 6.841998 5.712269 6.756651
C 0.534647 6.656425 6.856868
C 0.758402 6.985166 6.352296
C 1.689392 6.979999 6.690967
C 3.387305 6.995314 6.882564
C 4.626934 6.830316 6.708404
C 5.243226 6.832464 6.490739
C 5.953751 6.780983 6.786518
C 6.479332 6.378059 6.945074
