LAMMPS (29 Aug 2024)
OMP_NUM_THREADS environment is not set. Defaulting to 1 thread. (src/comm.cpp:98)
  using 1 OpenMP thread(s) per MPI task

#---------------------------- Atomic setup ------------------------------------#
units            metal
timestep         0.001
boundary         p p p
lattice          fcc 5.26
Lattice spacing in x,y,z = 5.26 5.26 5.26
region           sim_box block 0 10 0 10 0 10
create_box       1 sim_box
Created orthogonal box = (0 0 0) to (52.6 52.6 52.6)
  1 by 1 by 1 MPI processor grid
create_atoms     1 box
Created 4000 atoms
  using lattice units in orthogonal box = (0 0 0) to (52.6 52.6 52.6)
  create_atoms CPU = 0.001 seconds

pair_style       lj/cut 10.2                                             # interatomic potential (Lennard-Jones, EAM, etc.)
pair_coeff       * * 0.0103 3.4  # interatomic potential parameters (ex. eam.alloy ${potentials_dir}/Cu_u3.eam)
pair_modify      tail yes
neigh_modify     delay 0                                                       # neighbor list update frequency (0 = every timestep)
mass             1 39.948                                                 # atomic mass
variable         rnd equal round(random(0,999999,42))

#----------------------------- Equilibriation ---------------------------------#
velocity         all create 26.816 ${rnd} dist gaussian              # initial velocities
velocity         all create 26.816 420940 dist gaussian              
fix              f2 all nph iso 0 0 1.0        # barostat
variable         rnd equal round(random(0,999999,0))
fix              f3 all temp/csvr 26.816 26.816 0.1 ${rnd} # thermostat
fix              f3 all temp/csvr 26.816 26.816 0.1 53464 
run              10000                                           # equilibriation run
Generated 0 of 0 mixed pair_coeff terms from geometric mixing rule
Neighbor list info ...
  update: every = 1 steps, delay = 0 steps, check = yes
  max neighbors/atom: 2000, page size: 100000
  master list distance cutoff = 12.2
  ghost atom cutoff = 12.2
  binsize = 6.1, bins = 9 9 9
  1 neighbor lists, perpetual/occasional/extra = 1 0 0
  (1) pair lj/cut, perpetual
      attributes: half, newton on
      pair build: half/bin/atomonly/newton
      stencil: half/bin/3d
      bin: standard
Per MPI rank memory allocation (min/avg/max) = 4.972 | 4.972 | 4.972 Mbytes
   Step          Temp          E_pair         E_mol          TotEng         Press          Volume    
         0   26.816        -355.96834      0             -342.10684     -241.63856      145531.58    
     10000   26.327631     -341.84241      0             -328.23336      6.1924706      148311.66    
Loop time of 48.991 on 1 procs for 10000 steps with 4000 atoms

Performance: 17.636 ns/day, 1.361 hours/ns, 204.119 timesteps/s, 816.477 katom-step/s
99.4% CPU use with 1 MPI tasks x 1 OpenMP threads

MPI task timing breakdown:
Section |  min time  |  avg time  |  max time  |%varavg| %total
---------------------------------------------------------------
Pair    | 47.489     | 47.489     | 47.489     |   0.0 | 96.94
Neigh   | 0.01039    | 0.01039    | 0.01039    |   0.0 |  0.02
Comm    | 0.29434    | 0.29434    | 0.29434    |   0.0 |  0.60
Output  | 0.00015002 | 0.00015002 | 0.00015002 |   0.0 |  0.00
Modify  | 1.0833     | 1.0833     | 1.0833     |   0.0 |  2.21
Other   |            | 0.1134     |            |       |  0.23

Nlocal:           4000 ave        4000 max        4000 min
Histogram: 1 0 0 0 0 0 0 0 0 0
Nghost:           8195 ave        8195 max        8195 min
Histogram: 1 0 0 0 0 0 0 0 0 0
Neighs:         402194 ave      402194 max      402194 min
Histogram: 1 0 0 0 0 0 0 0 0 0

Total # of neighbors = 402194
Ave neighs/atom = 100.5485
Neighbor list builds = 1
Dangerous builds = 0

#----------------------------- Run simulation ---------------------------------#
dump             d1 all custom 10000 md/data/ar_fcc/dump_0.32.gz id type x y z # snapshots
run              90000
Generated 0 of 0 mixed pair_coeff terms from geometric mixing rule
Per MPI rank memory allocation (min/avg/max) = 4.972 | 4.972 | 4.972 Mbytes
   Step          Temp          E_pair         E_mol          TotEng         Press          Volume    
     10000   26.327631     -341.84241      0             -328.23336      6.1924706      148311.66    
    100000   26.706708     -341.40332      0             -327.59832     -2.7492836      148492.75    
Loop time of 454.859 on 1 procs for 90000 steps with 4000 atoms

Performance: 17.095 ns/day, 1.404 hours/ns, 197.864 timesteps/s, 791.454 katom-step/s
99.5% CPU use with 1 MPI tasks x 1 OpenMP threads

MPI task timing breakdown:
Section |  min time  |  avg time  |  max time  |%varavg| %total
---------------------------------------------------------------
Pair    | 440.81     | 440.81     | 440.81     |   0.0 | 96.91
Neigh   | 0.041796   | 0.041796   | 0.041796   |   0.0 |  0.01
Comm    | 2.6898     | 2.6898     | 2.6898     |   0.0 |  0.59
Output  | 0.14608    | 0.14608    | 0.14608    |   0.0 |  0.03
Modify  | 10.094     | 10.094     | 10.094     |   0.0 |  2.22
Other   |            | 1.079      |            |       |  0.24

Nlocal:           4000 ave        4000 max        4000 min
Histogram: 1 0 0 0 0 0 0 0 0 0
Nghost:           8195 ave        8195 max        8195 min
Histogram: 1 0 0 0 0 0 0 0 0 0
Neighs:         403478 ave      403478 max      403478 min
Histogram: 1 0 0 0 0 0 0 0 0 0

Total # of neighbors = 403478
Ave neighs/atom = 100.8695
Neighbor list builds = 4
Dangerous builds = 0
undump           d1
min_modify       line forcezero
minimize         0 0 100000 100000                                                                               # minimize energy
Generated 0 of 0 mixed pair_coeff terms from geometric mixing rule
Per MPI rank memory allocation (min/avg/max) = 6.097 | 6.097 | 6.097 Mbytes
   Step          Temp          E_pair         E_mol          TotEng         Press          Volume    
    100000   26.706708     -341.40332      0             -327.59832     -2.7492836      148492.75    
    100065   26.706708     -355.09143      0             -341.28643     -786.88251      148492.75    
Loop time of 12.4649 on 1 procs for 65 steps with 4000 atoms

99.6% CPU use with 1 MPI tasks x 1 OpenMP threads

Minimization stats:
  Stopping criterion = linesearch alpha is zero
  Energy initial, next-to-last, final = 
     -341.403317006291  -355.091426258737  -355.091426258737
  Force two-norm initial, final = 2.9944732 6.9197317e-07
  Force max component initial, final = 0.13726949 2.7275079e-08
  Final line search alpha, max atom move = 3.3204334 9.0565083e-08
  Iterations, force evaluations = 65 1878

MPI task timing breakdown:
Section |  min time  |  avg time  |  max time  |%varavg| %total
---------------------------------------------------------------
Pair    | 12.353     | 12.353     | 12.353     |   0.0 | 99.10
Neigh   | 0          | 0          | 0          |   0.0 |  0.00
Comm    | 0.054241   | 0.054241   | 0.054241   |   0.0 |  0.44
Output  | 0          | 0          | 0          |   0.0 |  0.00
Modify  | 0          | 0          | 0          |   0.0 |  0.00
Other   |            | 0.05734    |            |       |  0.46

Nlocal:           4000 ave        4000 max        4000 min
Histogram: 1 0 0 0 0 0 0 0 0 0
Nghost:           8195 ave        8195 max        8195 min
Histogram: 1 0 0 0 0 0 0 0 0 0
Neighs:         403182 ave      403182 max      403182 min
Histogram: 1 0 0 0 0 0 0 0 0 0

Total # of neighbors = 403182
Ave neighs/atom = 100.7955
Neighbor list builds = 0
Dangerous builds = 0
write_dump       all custom md/data/ar_fcc/dump_0.32_relaxed.gz id type x y z
#------------------------------------------------------------------------------#
Total wall time: 0:08:36
