LAMMPS (29 Aug 2024)
OMP_NUM_THREADS environment is not set. Defaulting to 1 thread. (src/comm.cpp:98)
  using 1 OpenMP thread(s) per MPI task

#---------------------------- Atomic setup ------------------------------------#
units            metal
timestep         0.001
boundary         p p p
lattice          fcc 5.26
Lattice spacing in x,y,z = 5.26 5.26 5.26
region           sim_box block 0 10 0 10 0 10
create_box       1 sim_box
Created orthogonal box = (0 0 0) to (52.6 52.6 52.6)
  1 by 1 by 1 MPI processor grid
create_atoms     1 box
Created 4000 atoms
  using lattice units in orthogonal box = (0 0 0) to (52.6 52.6 52.6)
  create_atoms CPU = 0.001 seconds

pair_style       lj/cut 10.2                                             # interatomic potential (Lennard-Jones, EAM, etc.)
pair_coeff       * * 0.0103 3.4  # interatomic potential parameters (ex. eam.alloy ${potentials_dir}/Cu_u3.eam)
pair_modify      tail yes
neigh_modify     delay 0                                                       # neighbor list update frequency (0 = every timestep)
mass             1 39.948                                                 # atomic mass
variable         rnd equal round(random(0,999999,42))

#----------------------------- Equilibriation ---------------------------------#
velocity         all create 56.984 ${rnd} dist gaussian              # initial velocities
velocity         all create 56.984 420940 dist gaussian              
fix              f2 all nph iso 0 0 1.0        # barostat
variable         rnd equal round(random(0,999999,0))
fix              f3 all temp/csvr 56.984 56.984 0.1 ${rnd} # thermostat
fix              f3 all temp/csvr 56.984 56.984 0.1 53464 
run              10000                                           # equilibriation run
Generated 0 of 0 mixed pair_coeff terms from geometric mixing rule
Neighbor list info ...
  update: every = 1 steps, delay = 0 steps, check = yes
  max neighbors/atom: 2000, page size: 100000
  master list distance cutoff = 12.2
  ghost atom cutoff = 12.2
  binsize = 6.1, bins = 9 9 9
  1 neighbor lists, perpetual/occasional/extra = 1 0 0
  (1) pair lj/cut, perpetual
      attributes: half, newton on
      pair build: half/bin/atomonly/newton
      stencil: half/bin/3d
      bin: standard
Per MPI rank memory allocation (min/avg/max) = 4.972 | 4.972 | 4.972 Mbytes
   Step          Temp          E_pair         E_mol          TotEng         Press          Volume    
         0   56.984        -355.96834      0             -326.51266     -127.18629      145531.58    
     10000   55.751476     -321.48244      0             -292.66387      15.332168      154968.94    
Loop time of 49.1429 on 1 procs for 10000 steps with 4000 atoms

Performance: 17.581 ns/day, 1.365 hours/ns, 203.488 timesteps/s, 813.953 katom-step/s
99.5% CPU use with 1 MPI tasks x 1 OpenMP threads

MPI task timing breakdown:
Section |  min time  |  avg time  |  max time  |%varavg| %total
---------------------------------------------------------------
Pair    | 47.17      | 47.17      | 47.17      |   0.0 | 95.99
Neigh   | 0.46737    | 0.46737    | 0.46737    |   0.0 |  0.95
Comm    | 0.29908    | 0.29908    | 0.29908    |   0.0 |  0.61
Output  | 0.00021631 | 0.00021631 | 0.00021631 |   0.0 |  0.00
Modify  | 1.0923     | 1.0923     | 1.0923     |   0.0 |  2.22
Other   |            | 0.1139     |            |       |  0.23

Nlocal:           4000 ave        4000 max        4000 min
Histogram: 1 0 0 0 0 0 0 0 0 0
Nghost:           8195 ave        8195 max        8195 min
Histogram: 1 0 0 0 0 0 0 0 0 0
Neighs:         391327 ave      391327 max      391327 min
Histogram: 1 0 0 0 0 0 0 0 0 0

Total # of neighbors = 391327
Ave neighs/atom = 97.83175
Neighbor list builds = 45
Dangerous builds = 0

#----------------------------- Run simulation ---------------------------------#
dump             d1 all custom 10000 md/data/ar_fcc/dump_0.68.gz id type x y z # snapshots
run              90000
Generated 0 of 0 mixed pair_coeff terms from geometric mixing rule
Per MPI rank memory allocation (min/avg/max) = 4.972 | 4.972 | 4.972 Mbytes
   Step          Temp          E_pair         E_mol          TotEng         Press          Volume    
     10000   55.751476     -321.48244      0             -292.66387      15.332168      154968.94    
    100000   56.100898     -320.1955       0             -291.19631     -7.8780511      155523.39    
Loop time of 458.713 on 1 procs for 90000 steps with 4000 atoms

Performance: 16.952 ns/day, 1.416 hours/ns, 196.201 timesteps/s, 784.805 katom-step/s
99.5% CPU use with 1 MPI tasks x 1 OpenMP threads

MPI task timing breakdown:
Section |  min time  |  avg time  |  max time  |%varavg| %total
---------------------------------------------------------------
Pair    | 440.46     | 440.46     | 440.46     |   0.0 | 96.02
Neigh   | 4.2188     | 4.2188     | 4.2188     |   0.0 |  0.92
Comm    | 2.7629     | 2.7629     | 2.7629     |   0.0 |  0.60
Output  | 0.14372    | 0.14372    | 0.14372    |   0.0 |  0.03
Modify  | 10.079     | 10.079     | 10.079     |   0.0 |  2.20
Other   |            | 1.044      |            |       |  0.23

Nlocal:           4000 ave        4000 max        4000 min
Histogram: 1 0 0 0 0 0 0 0 0 0
Nghost:           8195 ave        8195 max        8195 min
Histogram: 1 0 0 0 0 0 0 0 0 0
Neighs:         389795 ave      389795 max      389795 min
Histogram: 1 0 0 0 0 0 0 0 0 0

Total # of neighbors = 389795
Ave neighs/atom = 97.44875
Neighbor list builds = 393
Dangerous builds = 0
undump           d1
min_modify       line forcezero
minimize         0 0 100000 100000                                                                               # minimize energy
Generated 0 of 0 mixed pair_coeff terms from geometric mixing rule
Per MPI rank memory allocation (min/avg/max) = 6.097 | 6.097 | 6.097 Mbytes
   Step          Temp          E_pair         E_mol          TotEng         Press          Volume    
    100000   56.100898     -320.1955       0             -291.19631     -7.8780511      155523.39    
    100163   56.100898     -349.59359      0             -320.5944      -1626.6491      155523.39    
Loop time of 280.172 on 1 procs for 163 steps with 4000 atoms

99.6% CPU use with 1 MPI tasks x 1 OpenMP threads

Minimization stats:
  Stopping criterion = linesearch alpha is zero
  Energy initial, next-to-last, final = 
     -320.195503365508  -349.593585615398  -349.593585615398
  Force two-norm initial, final = 4.2735268 5.1346099e-14
  Force max component initial, final = 0.2144909 2.1552584e-15
  Final line search alpha, max atom move = 0 0
  Iterations, force evaluations = 163 42940

MPI task timing breakdown:
Section |  min time  |  avg time  |  max time  |%varavg| %total
---------------------------------------------------------------
Pair    | 277.66     | 277.66     | 277.66     |   0.0 | 99.10
Neigh   | 0.010439   | 0.010439   | 0.010439   |   0.0 |  0.00
Comm    | 1.2673     | 1.2673     | 1.2673     |   0.0 |  0.45
Output  | 0          | 0          | 0          |   0.0 |  0.00
Modify  | 0          | 0          | 0          |   0.0 |  0.00
Other   |            | 1.23       |            |       |  0.44

Nlocal:           4000 ave        4000 max        4000 min
Histogram: 1 0 0 0 0 0 0 0 0 0
Nghost:           8195 ave        8195 max        8195 min
Histogram: 1 0 0 0 0 0 0 0 0 0
Neighs:         400000 ave      400000 max      400000 min
Histogram: 1 0 0 0 0 0 0 0 0 0

Total # of neighbors = 400000
Ave neighs/atom = 100
Neighbor list builds = 1
Dangerous builds = 0
write_dump       all custom md/data/ar_fcc/dump_0.68_relaxed.gz id type x y z
#------------------------------------------------------------------------------#
Total wall time: 0:13:08
