LAMMPS (29 Aug 2024)
OMP_NUM_THREADS environment is not set. Defaulting to 1 thread. (src/comm.cpp:98)
  using 1 OpenMP thread(s) per MPI task

#---------------------------- Atomic setup ------------------------------------#
units            metal
timestep         0.001
boundary         p p p
lattice          fcc 5.26
Lattice spacing in x,y,z = 5.26 5.26 5.26
region           sim_box block 0 10 0 10 0 10
create_box       1 sim_box
Created orthogonal box = (0 0 0) to (52.6 52.6 52.6)
  1 by 1 by 1 MPI processor grid
create_atoms     1 box
Created 4000 atoms
  using lattice units in orthogonal box = (0 0 0) to (52.6 52.6 52.6)
  create_atoms CPU = 0.001 seconds

pair_style       lj/cut 10.2                                             # interatomic potential (Lennard-Jones, EAM, etc.)
pair_coeff       * * 0.0103 3.4  # interatomic potential parameters (ex. eam.alloy ${potentials_dir}/Cu_u3.eam)
pair_modify      tail yes
neigh_modify     delay 0                                                       # neighbor list update frequency (0 = every timestep)
mass             1 39.948                                                 # atomic mass
variable         rnd equal round(random(0,999999,42))

#----------------------------- Equilibriation ---------------------------------#
velocity         all create 87.152 ${rnd} dist gaussian              # initial velocities
velocity         all create 87.152 420940 dist gaussian              
fix              f2 all nph iso 0 0 1.0        # barostat
variable         rnd equal round(random(0,999999,0))
fix              f3 all temp/csvr 87.152 87.152 0.1 ${rnd} # thermostat
fix              f3 all temp/csvr 87.152 87.152 0.1 53464 
run              10000                                           # equilibriation run
Generated 0 of 0 mixed pair_coeff terms from geometric mixing rule
Neighbor list info ...
  update: every = 1 steps, delay = 0 steps, check = yes
  max neighbors/atom: 2000, page size: 100000
  master list distance cutoff = 12.2
  ghost atom cutoff = 12.2
  binsize = 6.1, bins = 9 9 9
  1 neighbor lists, perpetual/occasional/extra = 1 0 0
  (1) pair lj/cut, perpetual
      attributes: half, newton on
      pair build: half/bin/atomonly/newton
      stencil: half/bin/3d
      bin: standard
Per MPI rank memory allocation (min/avg/max) = 4.972 | 4.972 | 4.972 Mbytes
   Step          Temp          E_pair         E_mol          TotEng         Press          Volume    
         0   87.152        -355.96834      0             -310.91848     -12.734015      145531.58    
     10000   85.59582      -296.12497      0             -251.87952      25.044914      164494.03    
Loop time of 46.8103 on 1 procs for 10000 steps with 4000 atoms

Performance: 18.457 ns/day, 1.300 hours/ns, 213.628 timesteps/s, 854.513 katom-step/s
99.5% CPU use with 1 MPI tasks x 1 OpenMP threads

MPI task timing breakdown:
Section |  min time  |  avg time  |  max time  |%varavg| %total
---------------------------------------------------------------
Pair    | 44.717     | 44.717     | 44.717     |   0.0 | 95.53
Neigh   | 0.57273    | 0.57273    | 0.57273    |   0.0 |  1.22
Comm    | 0.30318    | 0.30318    | 0.30318    |   0.0 |  0.65
Output  | 0.00020459 | 0.00020459 | 0.00020459 |   0.0 |  0.00
Modify  | 1.0996     | 1.0996     | 1.0996     |   0.0 |  2.35
Other   |            | 0.1173     |            |       |  0.25

Nlocal:           4000 ave        4000 max        4000 min
Histogram: 1 0 0 0 0 0 0 0 0 0
Nghost:           8195 ave        8195 max        8195 min
Histogram: 1 0 0 0 0 0 0 0 0 0
Neighs:         369392 ave      369392 max      369392 min
Histogram: 1 0 0 0 0 0 0 0 0 0

Total # of neighbors = 369392
Ave neighs/atom = 92.348
Neighbor list builds = 61
Dangerous builds = 0

#----------------------------- Run simulation ---------------------------------#
dump             d1 all custom 10000 md/data/ar_fcc/dump_1.04.gz id type x y z # snapshots
run              90000
Generated 0 of 0 mixed pair_coeff terms from geometric mixing rule
Per MPI rank memory allocation (min/avg/max) = 4.975 | 4.975 | 4.975 Mbytes
   Step          Temp          E_pair         E_mol          TotEng         Press          Volume    
     10000   85.59582      -296.12497      0             -251.87952      25.044914      164494.03    
    100000   85.064171     -292.40956      0             -248.43893     -17.468113      166207.39    
Loop time of 434.823 on 1 procs for 90000 steps with 4000 atoms

Performance: 17.883 ns/day, 1.342 hours/ns, 206.981 timesteps/s, 827.923 katom-step/s
99.5% CPU use with 1 MPI tasks x 1 OpenMP threads

MPI task timing breakdown:
Section |  min time  |  avg time  |  max time  |%varavg| %total
---------------------------------------------------------------
Pair    | 415.59     | 415.59     | 415.59     |   0.0 | 95.58
Neigh   | 5.137      | 5.137      | 5.137      |   0.0 |  1.18
Comm    | 2.7609     | 2.7609     | 2.7609     |   0.0 |  0.63
Output  | 0.14367    | 0.14367    | 0.14367    |   0.0 |  0.03
Modify  | 10.099     | 10.099     | 10.099     |   0.0 |  2.32
Other   |            | 1.092      |            |       |  0.25

Nlocal:           4000 ave        4000 max        4000 min
Histogram: 1 0 0 0 0 0 0 0 0 0
Nghost:           8195 ave        8195 max        8195 min
Histogram: 1 0 0 0 0 0 0 0 0 0
Neighs:         366744 ave      366744 max      366744 min
Histogram: 1 0 0 0 0 0 0 0 0 0

Total # of neighbors = 366744
Ave neighs/atom = 91.686
Neighbor list builds = 528
Dangerous builds = 0
undump           d1
min_modify       line forcezero
minimize         0 0 100000 100000                                                                               # minimize energy
Generated 0 of 0 mixed pair_coeff terms from geometric mixing rule
Per MPI rank memory allocation (min/avg/max) = 6.106 | 6.106 | 6.106 Mbytes
   Step          Temp          E_pair         E_mol          TotEng         Press          Volume    
    100000   85.064171     -292.40956      0             -248.43893     -17.468113      166207.39    
    100028   85.064171     -330.48379      0             -286.51315     -2212.098       166207.39    
Loop time of 0.482429 on 1 procs for 28 steps with 4000 atoms

99.5% CPU use with 1 MPI tasks x 1 OpenMP threads

Minimization stats:
  Stopping criterion = linesearch alpha is zero
  Energy initial, next-to-last, final = 
     -292.409562666738  -330.483786287638  -330.483786287638
  Force two-norm initial, final = 4.9643796 0.11954775
  Force max component initial, final = 0.21798816 0.0056087878
  Final line search alpha, max atom move = 0.0034185103 1.9173699e-05
  Iterations, force evaluations = 28 84

MPI task timing breakdown:
Section |  min time  |  avg time  |  max time  |%varavg| %total
---------------------------------------------------------------
Pair    | 0.46725    | 0.46725    | 0.46725    |   0.0 | 96.85
Neigh   | 0.0085752  | 0.0085752  | 0.0085752  |   0.0 |  1.78
Comm    | 0.0026238  | 0.0026238  | 0.0026238  |   0.0 |  0.54
Output  | 0          | 0          | 0          |   0.0 |  0.00
Modify  | 0          | 0          | 0          |   0.0 |  0.00
Other   |            | 0.003983   |            |       |  0.83

Nlocal:           4000 ave        4000 max        4000 min
Histogram: 1 0 0 0 0 0 0 0 0 0
Nghost:           8195 ave        8195 max        8195 min
Histogram: 1 0 0 0 0 0 0 0 0 0
Neighs:         364811 ave      364811 max      364811 min
Histogram: 1 0 0 0 0 0 0 0 0 0

Total # of neighbors = 364811
Ave neighs/atom = 91.20275
Neighbor list builds = 1
Dangerous builds = 0
write_dump       all custom md/data/ar_fcc/dump_1.04_relaxed.gz id type x y z
#------------------------------------------------------------------------------#
Total wall time: 0:08:02
