LAMMPS (29 Aug 2024)
OMP_NUM_THREADS environment is not set. Defaulting to 1 thread. (src/comm.cpp:98)
  using 1 OpenMP thread(s) per MPI task
Lattice spacing in x,y,z = 5.26 5.26 5.26
Created orthogonal box = (0 0 0) to (52.6 52.6 52.6)
  1 by 1 by 1 MPI processor grid
Created 4000 atoms
  using lattice units in orthogonal box = (0 0 0) to (52.6 52.6 52.6)
  create_atoms CPU = 0.001 seconds
Generated 0 of 0 mixed pair_coeff terms from geometric mixing rule
Neighbor list info ...
  update: every = 1 steps, delay = 0 steps, check = yes
  max neighbors/atom: 2000, page size: 100000
  master list distance cutoff = 12.2
  ghost atom cutoff = 12.2
  binsize = 6.1, bins = 9 9 9
  1 neighbor lists, perpetual/occasional/extra = 1 0 0
  (1) pair lj/cut, perpetual
      attributes: half, newton on
      pair build: half/bin/atomonly/newton
      stencil: half/bin/3d
      bin: standard
Setting up Verlet run ...
  Unit style    : metal
  Current step  : 0
  Time step     : 0.001
Per MPI rank memory allocation (min/avg/max) = 4.972 | 4.972 | 4.972 Mbytes
   Step          Temp          E_pair         E_mol          TotEng         Press          Volume    
         0   10.056        -355.96834      0             -350.77028     -305.22316      145531.58    
     10000   9.8846207     -350.93676      0             -345.82729      6.128403       145437.02    
Loop time of 37.007 on 1 procs for 10000 steps with 4000 atoms

Performance: 23.347 ns/day, 1.028 hours/ns, 270.219 timesteps/s, 1.081 Matom-step/s
99.4% CPU use with 1 MPI tasks x 1 OpenMP threads

MPI task timing breakdown:
Section |  min time  |  avg time  |  max time  |%varavg| %total
---------------------------------------------------------------
Pair    | 35.519     | 35.519     | 35.519     |   0.0 | 95.98
Neigh   | 0          | 0          | 0          |   0.0 |  0.00
Comm    | 0.28592    | 0.28592    | 0.28592    |   0.0 |  0.77
Output  | 0.00016849 | 0.00016849 | 0.00016849 |   0.0 |  0.00
Modify  | 1.0864     | 1.0864     | 1.0864     |   0.0 |  2.94
Other   |            | 0.1155     |            |       |  0.31

Nlocal:           4000 ave        4000 max        4000 min
Histogram: 1 0 0 0 0 0 0 0 0 0
Nghost:           8195 ave        8195 max        8195 min
Histogram: 1 0 0 0 0 0 0 0 0 0
Neighs:         400000 ave      400000 max      400000 min
Histogram: 1 0 0 0 0 0 0 0 0 0

Total # of neighbors = 400000
Ave neighs/atom = 100
Neighbor list builds = 0
Dangerous builds = 0
Generated 0 of 0 mixed pair_coeff terms from geometric mixing rule
Setting up Verlet run ...
  Unit style    : metal
  Current step  : 10000
  Time step     : 0.001
Per MPI rank memory allocation (min/avg/max) = 4.972 | 4.972 | 4.972 Mbytes
   Step          Temp          E_pair         E_mol          TotEng         Press          Volume    
     10000   9.8846207     -350.93676      0             -345.82729      6.128403       145437.02    
    100000   9.9227505     -350.76046      0             -345.63127     -4.6610891      145543.01    
Loop time of 449.67 on 1 procs for 90000 steps with 4000 atoms

Performance: 17.293 ns/day, 1.388 hours/ns, 200.147 timesteps/s, 800.588 katom-step/s
99.5% CPU use with 1 MPI tasks x 1 OpenMP threads

MPI task timing breakdown:
Section |  min time  |  avg time  |  max time  |%varavg| %total
---------------------------------------------------------------
Pair    | 435.71     | 435.71     | 435.71     |   0.0 | 96.90
Neigh   | 0          | 0          | 0          |   0.0 |  0.00
Comm    | 2.6746     | 2.6746     | 2.6746     |   0.0 |  0.59
Output  | 0.14661    | 0.14661    | 0.14661    |   0.0 |  0.03
Modify  | 10.087     | 10.087     | 10.087     |   0.0 |  2.24
Other   |            | 1.051      |            |       |  0.23

Nlocal:           4000 ave        4000 max        4000 min
Histogram: 1 0 0 0 0 0 0 0 0 0
Nghost:           8195 ave        8195 max        8195 min
Histogram: 1 0 0 0 0 0 0 0 0 0
Neighs:         403993 ave      403993 max      403993 min
Histogram: 1 0 0 0 0 0 0 0 0 0

Total # of neighbors = 403993
Ave neighs/atom = 100.99825
Neighbor list builds = 0
Dangerous builds = 0
Generated 0 of 0 mixed pair_coeff terms from geometric mixing rule
Setting up cg style minimization ...
  Unit style    : metal
  Current step  : 100000
Per MPI rank memory allocation (min/avg/max) = 6.097 | 6.097 | 6.097 Mbytes
   Step          Temp          E_pair         E_mol          TotEng         Press          Volume    
    100000   9.9227505     -350.76046      0             -345.63127     -4.6610891      145543.01    
    100061   9.9227505     -355.96696      0             -350.83778     -308.02869      145543.01    
Loop time of 1.07079 on 1 procs for 61 steps with 4000 atoms

99.6% CPU use with 1 MPI tasks x 1 OpenMP threads

Minimization stats:
  Stopping criterion = linesearch alpha is zero
  Energy initial, next-to-last, final = 
     -350.760456065063  -355.966961594783  -355.966961594783
  Force two-norm initial, final = 1.8722008 7.4877311e-07
  Force max component initial, final = 0.069189738 2.9230398e-08
  Final line search alpha, max atom move = 0.44585753 1.3032593e-08
  Iterations, force evaluations = 61 160

MPI task timing breakdown:
Section |  min time  |  avg time  |  max time  |%varavg| %total
---------------------------------------------------------------
Pair    | 1.0586     | 1.0586     | 1.0586     |   0.0 | 98.86
Neigh   | 0          | 0          | 0          |   0.0 |  0.00
Comm    | 0.0047253  | 0.0047253  | 0.0047253  |   0.0 |  0.44
Output  | 0          | 0          | 0          |   0.0 |  0.00
Modify  | 0          | 0          | 0          |   0.0 |  0.00
Other   |            | 0.007476   |            |       |  0.70

Nlocal:           4000 ave        4000 max        4000 min
Histogram: 1 0 0 0 0 0 0 0 0 0
Nghost:           8195 ave        8195 max        8195 min
Histogram: 1 0 0 0 0 0 0 0 0 0
Neighs:         403381 ave      403381 max      403381 min
Histogram: 1 0 0 0 0 0 0 0 0 0

Total # of neighbors = 403381
Ave neighs/atom = 100.84525
Neighbor list builds = 0
Dangerous builds = 0
Total wall time: 0:08:07
