LAMMPS (29 Aug 2024)
OMP_NUM_THREADS environment is not set. Defaulting to 1 thread. (src/comm.cpp:98)
  using 1 OpenMP thread(s) per MPI task

#---------------------------- Atomic setup ------------------------------------#
units            metal
timestep         0.001
boundary         p p p
lattice          fcc 5.26
Lattice spacing in x,y,z = 5.26 5.26 5.26
region           sim_box block 0 10 0 10 0 10
create_box       1 sim_box
Created orthogonal box = (0 0 0) to (52.6 52.6 52.6)
  1 by 1 by 1 MPI processor grid
create_atoms     1 box
Created 4000 atoms
  using lattice units in orthogonal box = (0 0 0) to (52.6 52.6 52.6)
  create_atoms CPU = 0.000 seconds

pair_style       lj/cut 10.2                                             # interatomic potential (Lennard-Jones, EAM, etc.)
pair_coeff       * * 0.0103 3.4  # interatomic potential parameters (ex. eam.alloy ${potentials_dir}/Cu_u3.eam)
pair_modify      tail yes
neigh_modify     delay 0                                                       # neighbor list update frequency (0 = every timestep)
mass             1 39.948                                                 # atomic mass
variable         rnd equal round(random(0,999999,42))

#----------------------------- Equilibriation ---------------------------------#
velocity         all create 20.112 ${rnd} dist gaussian              # initial velocities
velocity         all create 20.112 420940 dist gaussian              
fix              f2 all nph iso 0 0 1.0        # barostat
variable         rnd equal round(random(0,999999,0))
fix              f3 all temp/csvr 20.112 20.112 0.1 ${rnd} # thermostat
fix              f3 all temp/csvr 20.112 20.112 0.1 53464 
run              10000                                           # equilibriation run
Generated 0 of 0 mixed pair_coeff terms from geometric mixing rule
Neighbor list info ...
  update: every = 1 steps, delay = 0 steps, check = yes
  max neighbors/atom: 2000, page size: 100000
  master list distance cutoff = 12.2
  ghost atom cutoff = 12.2
  binsize = 6.1, bins = 9 9 9
  1 neighbor lists, perpetual/occasional/extra = 1 0 0
  (1) pair lj/cut, perpetual
      attributes: half, newton on
      pair build: half/bin/atomonly/newton
      stencil: half/bin/3d
      bin: standard
Per MPI rank memory allocation (min/avg/max) = 4.972 | 4.972 | 4.972 Mbytes
   Step          Temp          E_pair         E_mol          TotEng         Press          Volume    
         0   20.112        -355.96834      0             -345.57222     -267.0724       145531.58    
     10000   19.502968     -345.40868      0             -335.32737     -10.313373      147248.5     
Loop time of 48.9548 on 1 procs for 10000 steps with 4000 atoms

Performance: 17.649 ns/day, 1.360 hours/ns, 204.270 timesteps/s, 817.081 katom-step/s
99.4% CPU use with 1 MPI tasks x 1 OpenMP threads

MPI task timing breakdown:
Section |  min time  |  avg time  |  max time  |%varavg| %total
---------------------------------------------------------------
Pair    | 47.446     | 47.446     | 47.446     |   0.0 | 96.92
Neigh   | 0.010428   | 0.010428   | 0.010428   |   0.0 |  0.02
Comm    | 0.29363    | 0.29363    | 0.29363    |   0.0 |  0.60
Output  | 0.00018934 | 0.00018934 | 0.00018934 |   0.0 |  0.00
Modify  | 1.0859     | 1.0859     | 1.0859     |   0.0 |  2.22
Other   |            | 0.1188     |            |       |  0.24

Nlocal:           4000 ave        4000 max        4000 min
Histogram: 1 0 0 0 0 0 0 0 0 0
Nghost:           8195 ave        8195 max        8195 min
Histogram: 1 0 0 0 0 0 0 0 0 0
Neighs:         404641 ave      404641 max      404641 min
Histogram: 1 0 0 0 0 0 0 0 0 0

Total # of neighbors = 404641
Ave neighs/atom = 101.16025
Neighbor list builds = 1
Dangerous builds = 0

#----------------------------- Run simulation ---------------------------------#
dump             d1 all custom 10000 md/data/ar_fcc/dump_0.24.gz id type x y z # snapshots
run              90000
Generated 0 of 0 mixed pair_coeff terms from geometric mixing rule
Per MPI rank memory allocation (min/avg/max) = 4.972 | 4.972 | 4.972 Mbytes
   Step          Temp          E_pair         E_mol          TotEng         Press          Volume    
     10000   19.502968     -345.40868      0             -335.32737     -10.313373      147248.5     
    100000   20.029984     -345.38393      0             -335.03021     -30.00494       147369.53    
Loop time of 451.861 on 1 procs for 90000 steps with 4000 atoms

Performance: 17.209 ns/day, 1.395 hours/ns, 199.176 timesteps/s, 796.706 katom-step/s
99.5% CPU use with 1 MPI tasks x 1 OpenMP threads

MPI task timing breakdown:
Section |  min time  |  avg time  |  max time  |%varavg| %total
---------------------------------------------------------------
Pair    | 437.87     | 437.87     | 437.87     |   0.0 | 96.90
Neigh   | 0          | 0          | 0          |   0.0 |  0.00
Comm    | 2.6816     | 2.6816     | 2.6816     |   0.0 |  0.59
Output  | 0.14458    | 0.14458    | 0.14458    |   0.0 |  0.03
Modify  | 10.088     | 10.088     | 10.088     |   0.0 |  2.23
Other   |            | 1.076      |            |       |  0.24

Nlocal:           4000 ave        4000 max        4000 min
Histogram: 1 0 0 0 0 0 0 0 0 0
Nghost:           8195 ave        8195 max        8195 min
Histogram: 1 0 0 0 0 0 0 0 0 0
Neighs:         404072 ave      404072 max      404072 min
Histogram: 1 0 0 0 0 0 0 0 0 0

Total # of neighbors = 404072
Ave neighs/atom = 101.018
Neighbor list builds = 0
Dangerous builds = 0
undump           d1
min_modify       line forcezero
minimize         0 0 100000 100000                                                                               # minimize energy
Generated 0 of 0 mixed pair_coeff terms from geometric mixing rule
Per MPI rank memory allocation (min/avg/max) = 6.097 | 6.097 | 6.097 Mbytes
   Step          Temp          E_pair         E_mol          TotEng         Press          Volume    
    100000   20.029984     -345.38393      0             -335.03021     -30.00494       147369.53    
    100064   20.029984     -355.54249      0             -345.18876     -617.14564      147369.53    
Loop time of 27.2558 on 1 procs for 64 steps with 4000 atoms

99.6% CPU use with 1 MPI tasks x 1 OpenMP threads

Minimization stats:
  Stopping criterion = linesearch alpha is zero
  Energy initial, next-to-last, final = 
     -345.383934283969  -355.542486348165  -355.542486348165
  Force two-norm initial, final = 2.5918271 5.4270233e-07
  Force max component initial, final = 0.10884144 2.0214194e-08
  Final line search alpha, max atom move = 1.1494749 2.323571e-08
  Iterations, force evaluations = 64 4119

MPI task timing breakdown:
Section |  min time  |  avg time  |  max time  |%varavg| %total
---------------------------------------------------------------
Pair    | 27.017     | 27.017     | 27.017     |   0.0 | 99.12
Neigh   | 0          | 0          | 0          |   0.0 |  0.00
Comm    | 0.11907    | 0.11907    | 0.11907    |   0.0 |  0.44
Output  | 0          | 0          | 0          |   0.0 |  0.00
Modify  | 0          | 0          | 0          |   0.0 |  0.00
Other   |            | 0.1196     |            |       |  0.44

Nlocal:           4000 ave        4000 max        4000 min
Histogram: 1 0 0 0 0 0 0 0 0 0
Nghost:           8195 ave        8195 max        8195 min
Histogram: 1 0 0 0 0 0 0 0 0 0
Neighs:         403678 ave      403678 max      403678 min
Histogram: 1 0 0 0 0 0 0 0 0 0

Total # of neighbors = 403678
Ave neighs/atom = 100.9195
Neighbor list builds = 0
Dangerous builds = 0
write_dump       all custom md/data/ar_fcc/dump_0.24_relaxed.gz id type x y z
#------------------------------------------------------------------------------#
Total wall time: 0:08:48
