LAMMPS (29 Aug 2024)
OMP_NUM_THREADS environment is not set. Defaulting to 1 thread. (src/comm.cpp:98)
  using 1 OpenMP thread(s) per MPI task
Lattice spacing in x,y,z = 5.26 5.26 5.26
Created orthogonal box = (0 0 0) to (52.6 52.6 52.6)
  1 by 1 by 1 MPI processor grid
Created 4000 atoms
  using lattice units in orthogonal box = (0 0 0) to (52.6 52.6 52.6)
  create_atoms CPU = 0.001 seconds
Generated 0 of 0 mixed pair_coeff terms from geometric mixing rule
Neighbor list info ...
  update: every = 1 steps, delay = 0 steps, check = yes
  max neighbors/atom: 2000, page size: 100000
  master list distance cutoff = 12.2
  ghost atom cutoff = 12.2
  binsize = 6.1, bins = 9 9 9
  1 neighbor lists, perpetual/occasional/extra = 1 0 0
  (1) pair lj/cut, perpetual
      attributes: half, newton on
      pair build: half/bin/atomonly/newton
      stencil: half/bin/3d
      bin: standard
Setting up Verlet run ...
  Unit style    : metal
  Current step  : 0
  Time step     : 0.001
Per MPI rank memory allocation (min/avg/max) = 4.972 | 4.972 | 4.972 Mbytes
   Step          Temp          E_pair         E_mol          TotEng         Press          Volume    
         0   83.8          -355.96834      0             -312.65117     -25.450935      145531.58    
     10000   82.090347     -298.35718      0             -255.92375      55.532135      163328.35    
Loop time of 47.6892 on 1 procs for 10000 steps with 4000 atoms

Performance: 18.117 ns/day, 1.325 hours/ns, 209.691 timesteps/s, 838.764 katom-step/s
99.5% CPU use with 1 MPI tasks x 1 OpenMP threads

MPI task timing breakdown:
Section |  min time  |  avg time  |  max time  |%varavg| %total
---------------------------------------------------------------
Pair    | 45.574     | 45.574     | 45.574     |   0.0 | 95.56
Neigh   | 0.5988     | 0.5988     | 0.5988     |   0.0 |  1.26
Comm    | 0.30147    | 0.30147    | 0.30147    |   0.0 |  0.63
Output  | 0.0001661  | 0.0001661  | 0.0001661  |   0.0 |  0.00
Modify  | 1.0977     | 1.0977     | 1.0977     |   0.0 |  2.30
Other   |            | 0.1174     |            |       |  0.25

Nlocal:           4000 ave        4000 max        4000 min
Histogram: 1 0 0 0 0 0 0 0 0 0
Nghost:           8195 ave        8195 max        8195 min
Histogram: 1 0 0 0 0 0 0 0 0 0
Neighs:         371677 ave      371677 max      371677 min
Histogram: 1 0 0 0 0 0 0 0 0 0

Total # of neighbors = 371677
Ave neighs/atom = 92.91925
Neighbor list builds = 59
Dangerous builds = 0
Generated 0 of 0 mixed pair_coeff terms from geometric mixing rule
Setting up Verlet run ...
  Unit style    : metal
  Current step  : 10000
  Time step     : 0.001
Per MPI rank memory allocation (min/avg/max) = 4.975 | 4.975 | 4.975 Mbytes
   Step          Temp          E_pair         E_mol          TotEng         Press          Volume    
     10000   82.090347     -298.35718      0             -255.92375      55.532135      163328.35    
    100000   82.332547     -296.11452      0             -253.5559      -3.6039488      164597.66    
Loop time of 441.785 on 1 procs for 90000 steps with 4000 atoms

Performance: 17.601 ns/day, 1.364 hours/ns, 203.719 timesteps/s, 814.875 katom-step/s
99.5% CPU use with 1 MPI tasks x 1 OpenMP threads

MPI task timing breakdown:
Section |  min time  |  avg time  |  max time  |%varavg| %total
---------------------------------------------------------------
Pair    | 422.22     | 422.22     | 422.22     |   0.0 | 95.57
Neigh   | 5.4495     | 5.4495     | 5.4495     |   0.0 |  1.23
Comm    | 2.7655     | 2.7655     | 2.7655     |   0.0 |  0.63
Output  | 0.14213    | 0.14213    | 0.14213    |   0.0 |  0.03
Modify  | 10.113     | 10.113     | 10.113     |   0.0 |  2.29
Other   |            | 1.094      |            |       |  0.25

Nlocal:           4000 ave        4000 max        4000 min
Histogram: 1 0 0 0 0 0 0 0 0 0
Nghost:           8195 ave        8195 max        8195 min
Histogram: 1 0 0 0 0 0 0 0 0 0
Neighs:         369225 ave      369225 max      369225 min
Histogram: 1 0 0 0 0 0 0 0 0 0

Total # of neighbors = 369225
Ave neighs/atom = 92.30625
Neighbor list builds = 510
Dangerous builds = 0
Generated 0 of 0 mixed pair_coeff terms from geometric mixing rule
Setting up cg style minimization ...
  Unit style    : metal
  Current step  : 100000
Per MPI rank memory allocation (min/avg/max) = 6.1 | 6.1 | 6.1 Mbytes
   Step          Temp          E_pair         E_mol          TotEng         Press          Volume    
    100000   82.332547     -296.11452      0             -253.5559      -3.6039488      164597.66    
    100025   82.332547     -333.46602      0             -290.90739     -2146.4374      164597.66    
Loop time of 0.563983 on 1 procs for 25 steps with 4000 atoms

99.5% CPU use with 1 MPI tasks x 1 OpenMP threads

Minimization stats:
  Stopping criterion = linesearch alpha is zero
  Energy initial, next-to-last, final = 
     -296.114524826455  -333.466018205482  -333.466018205482
  Force two-norm initial, final = 4.9532389 0.13072208
  Force max component initial, final = 0.22462516 0.0047828278
  Final line search alpha, max atom move = 1.0477837 0.005011369
  Iterations, force evaluations = 25 94

MPI task timing breakdown:
Section |  min time  |  avg time  |  max time  |%varavg| %total
---------------------------------------------------------------
Pair    | 0.5468     | 0.5468     | 0.5468     |   0.0 | 96.95
Neigh   | 0.010316   | 0.010316   | 0.010316   |   0.0 |  1.83
Comm    | 0.0028902  | 0.0028902  | 0.0028902  |   0.0 |  0.51
Output  | 0          | 0          | 0          |   0.0 |  0.00
Modify  | 0          | 0          | 0          |   0.0 |  0.00
Other   |            | 0.003975   |            |       |  0.70

Nlocal:           4000 ave        4000 max        4000 min
Histogram: 1 0 0 0 0 0 0 0 0 0
Nghost:           8195 ave        8195 max        8195 min
Histogram: 1 0 0 0 0 0 0 0 0 0
Neighs:         367614 ave      367614 max      367614 min
Histogram: 1 0 0 0 0 0 0 0 0 0

Total # of neighbors = 367614
Ave neighs/atom = 91.9035
Neighbor list builds = 1
Dangerous builds = 0
Total wall time: 0:08:10
