LAMMPS (29 Aug 2024)
OMP_NUM_THREADS environment is not set. Defaulting to 1 thread. (src/comm.cpp:98)
  using 1 OpenMP thread(s) per MPI task

#---------------------------- Atomic setup ------------------------------------#
units            metal
timestep         0.001
boundary         p p p
lattice          fcc 5.26
Lattice spacing in x,y,z = 5.26 5.26 5.26
region           sim_box block 0 10 0 10 0 10
create_box       1 sim_box
Created orthogonal box = (0 0 0) to (52.6 52.6 52.6)
  1 by 1 by 1 MPI processor grid
create_atoms     1 box
Created 4000 atoms
  using lattice units in orthogonal box = (0 0 0) to (52.6 52.6 52.6)
  create_atoms CPU = 0.001 seconds

pair_style       lj/cut 10.2                                             # interatomic potential (Lennard-Jones, EAM, etc.)
pair_coeff       * * 0.0103 3.4  # interatomic potential parameters (ex. eam.alloy ${potentials_dir}/Cu_u3.eam)
pair_modify      tail yes
neigh_modify     delay 0                                                       # neighbor list update frequency (0 = every timestep)
mass             1 39.948                                                 # atomic mass
variable         rnd equal round(random(0,999999,42))

#----------------------------- Equilibriation ---------------------------------#
velocity         all create 90.504 ${rnd} dist gaussian              # initial velocities
velocity         all create 90.504 420940 dist gaussian              
fix              f2 all nph iso 0 0 1.0        # barostat
variable         rnd equal round(random(0,999999,0))
fix              f3 all temp/csvr 90.504 90.504 0.1 ${rnd} # thermostat
fix              f3 all temp/csvr 90.504 90.504 0.1 53464 
run              10000                                           # equilibriation run
Generated 0 of 0 mixed pair_coeff terms from geometric mixing rule
Neighbor list info ...
  update: every = 1 steps, delay = 0 steps, check = yes
  max neighbors/atom: 2000, page size: 100000
  master list distance cutoff = 12.2
  ghost atom cutoff = 12.2
  binsize = 6.1, bins = 9 9 9
  1 neighbor lists, perpetual/occasional/extra = 1 0 0
  (1) pair lj/cut, perpetual
      attributes: half, newton on
      pair build: half/bin/atomonly/newton
      stencil: half/bin/3d
      bin: standard
Per MPI rank memory allocation (min/avg/max) = 4.972 | 4.972 | 4.972 Mbytes
   Step          Temp          E_pair         E_mol          TotEng         Press          Volume    
         0   90.504        -355.96834      0             -309.18579     -0.017095773    145531.58    
     10000   89.961486     -292.00995      0             -245.50784      28.281819      166246.61    
Loop time of 46.2038 on 1 procs for 10000 steps with 4000 atoms

Performance: 18.700 ns/day, 1.283 hours/ns, 216.433 timesteps/s, 865.730 katom-step/s
99.5% CPU use with 1 MPI tasks x 1 OpenMP threads

MPI task timing breakdown:
Section |  min time  |  avg time  |  max time  |%varavg| %total
---------------------------------------------------------------
Pair    | 44.122     | 44.122     | 44.122     |   0.0 | 95.49
Neigh   | 0.56581    | 0.56581    | 0.56581    |   0.0 |  1.22
Comm    | 0.30005    | 0.30005    | 0.30005    |   0.0 |  0.65
Output  | 0.00019129 | 0.00019129 | 0.00019129 |   0.0 |  0.00
Modify  | 1.0991     | 1.0991     | 1.0991     |   0.0 |  2.38
Other   |            | 0.117      |            |       |  0.25

Nlocal:           4000 ave        4000 max        4000 min
Histogram: 1 0 0 0 0 0 0 0 0 0
Nghost:           8195 ave        8195 max        8195 min
Histogram: 1 0 0 0 0 0 0 0 0 0
Neighs:         365144 ave      365144 max      365144 min
Histogram: 1 0 0 0 0 0 0 0 0 0

Total # of neighbors = 365144
Ave neighs/atom = 91.286
Neighbor list builds = 63
Dangerous builds = 0

#----------------------------- Run simulation ---------------------------------#
dump             d1 all custom 10000 md/data/ar_fcc/dump_1.08.gz id type x y z # snapshots
run              90000
Generated 0 of 0 mixed pair_coeff terms from geometric mixing rule
Per MPI rank memory allocation (min/avg/max) = 4.975 | 4.975 | 4.975 Mbytes
   Step          Temp          E_pair         E_mol          TotEng         Press          Volume    
     10000   89.961486     -292.00995      0             -245.50784      28.281819      166246.61    
    100000   90.136318     -288.82172      0             -242.22924     -62.541588      168163.94    
Loop time of 427.255 on 1 procs for 90000 steps with 4000 atoms

Performance: 18.200 ns/day, 1.319 hours/ns, 210.647 timesteps/s, 842.589 katom-step/s
99.5% CPU use with 1 MPI tasks x 1 OpenMP threads

MPI task timing breakdown:
Section |  min time  |  avg time  |  max time  |%varavg| %total
---------------------------------------------------------------
Pair    | 408.31     | 408.31     | 408.31     |   0.0 | 95.56
Neigh   | 4.8714     | 4.8714     | 4.8714     |   0.0 |  1.14
Comm    | 2.77       | 2.77       | 2.77       |   0.0 |  0.65
Output  | 0.14243    | 0.14243    | 0.14243    |   0.0 |  0.03
Modify  | 10.088     | 10.088     | 10.088     |   0.0 |  2.36
Other   |            | 1.077      |            |       |  0.25

Nlocal:           4000 ave        4000 max        4000 min
Histogram: 1 0 0 0 0 0 0 0 0 0
Nghost:           8195 ave        8195 max        8195 min
Histogram: 1 0 0 0 0 0 0 0 0 0
Neighs:         360643 ave      360643 max      360643 min
Histogram: 1 0 0 0 0 0 0 0 0 0

Total # of neighbors = 360643
Ave neighs/atom = 90.16075
Neighbor list builds = 541
Dangerous builds = 0
undump           d1
min_modify       line forcezero
minimize         0 0 100000 100000                                                                               # minimize energy
Generated 0 of 0 mixed pair_coeff terms from geometric mixing rule
Per MPI rank memory allocation (min/avg/max) = 6.1 | 6.1 | 6.1 Mbytes
   Step          Temp          E_pair         E_mol          TotEng         Press          Volume    
    100000   90.136318     -288.82172      0             -242.22924     -62.541588      168163.94    
    100157   90.136318     -327.17314      0             -280.58065     -2300.4283      168163.94    
Loop time of 158.905 on 1 procs for 157 steps with 4000 atoms

99.6% CPU use with 1 MPI tasks x 1 OpenMP threads

Minimization stats:
  Stopping criterion = linesearch alpha is zero
  Energy initial, next-to-last, final = 
     -288.821720932455  -327.173136025998  -327.173136025998
  Force two-norm initial, final = 4.892603 8.6274595e-13
  Force max component initial, final = 0.22307237 3.2668421e-14
  Final line search alpha, max atom move = 7.2504538 2.3686088e-13
  Iterations, force evaluations = 157 31455

MPI task timing breakdown:
Section |  min time  |  avg time  |  max time  |%varavg| %total
---------------------------------------------------------------
Pair    | 157.06     | 157.06     | 157.06     |   0.0 | 98.84
Neigh   | 0.0085609  | 0.0085609  | 0.0085609  |   0.0 |  0.01
Comm    | 0.92277    | 0.92277    | 0.92277    |   0.0 |  0.58
Output  | 0          | 0          | 0          |   0.0 |  0.00
Modify  | 0          | 0          | 0          |   0.0 |  0.00
Other   |            | 0.914      |            |       |  0.58

Nlocal:           4000 ave        4000 max        4000 min
Histogram: 1 0 0 0 0 0 0 0 0 0
Nghost:           8195 ave        8195 max        8195 min
Histogram: 1 0 0 0 0 0 0 0 0 0
Neighs:         361584 ave      361584 max      361584 min
Histogram: 1 0 0 0 0 0 0 0 0 0

Total # of neighbors = 361584
Ave neighs/atom = 90.396
Neighbor list builds = 1
Dangerous builds = 0
write_dump       all custom md/data/ar_fcc/dump_1.08_relaxed.gz id type x y z
#------------------------------------------------------------------------------#
Total wall time: 0:10:32
