LAMMPS (29 Aug 2024)
OMP_NUM_THREADS environment is not set. Defaulting to 1 thread. (src/comm.cpp:98)
  using 1 OpenMP thread(s) per MPI task

#---------------------------- Atomic setup ------------------------------------#
units            metal
timestep         0.001
boundary         p p p
lattice          fcc 5.26
Lattice spacing in x,y,z = 5.26 5.26 5.26
region           sim_box block 0 10 0 10 0 10
create_box       1 sim_box
Created orthogonal box = (0 0 0) to (52.6 52.6 52.6)
  1 by 1 by 1 MPI processor grid
create_atoms     1 box
Created 4000 atoms
  using lattice units in orthogonal box = (0 0 0) to (52.6 52.6 52.6)
  create_atoms CPU = 0.001 seconds

pair_style       lj/cut 10.2                                             # interatomic potential (Lennard-Jones, EAM, etc.)
pair_coeff       * * 0.0103 3.4  # interatomic potential parameters (ex. eam.alloy ${potentials_dir}/Cu_u3.eam)
pair_modify      tail yes
neigh_modify     delay 0                                                       # neighbor list update frequency (0 = every timestep)
mass             1 39.948                                                 # atomic mass
variable         rnd equal round(random(0,999999,42))

#----------------------------- Equilibriation ---------------------------------#
velocity         all create 23.464000000000002 ${rnd} dist gaussian              # initial velocities
velocity         all create 23.464000000000002 420940 dist gaussian              
fix              f2 all nph iso 0 0 1.0        # barostat
variable         rnd equal round(random(0,999999,0))
fix              f3 all temp/csvr 23.464000000000002 23.464000000000002 0.1 ${rnd} # thermostat
fix              f3 all temp/csvr 23.464000000000002 23.464000000000002 0.1 53464 
run              10000                                           # equilibriation run
Generated 0 of 0 mixed pair_coeff terms from geometric mixing rule
Neighbor list info ...
  update: every = 1 steps, delay = 0 steps, check = yes
  max neighbors/atom: 2000, page size: 100000
  master list distance cutoff = 12.2
  ghost atom cutoff = 12.2
  binsize = 6.1, bins = 9 9 9
  1 neighbor lists, perpetual/occasional/extra = 1 0 0
  (1) pair lj/cut, perpetual
      attributes: half, newton on
      pair build: half/bin/atomonly/newton
      stencil: half/bin/3d
      bin: standard
Per MPI rank memory allocation (min/avg/max) = 4.972 | 4.972 | 4.972 Mbytes
   Step          Temp          E_pair         E_mol          TotEng         Press          Volume    
         0   23.464        -355.96834      0             -343.83953     -254.35548      145531.58    
     10000   22.718822     -343.6059       0             -331.86229     -25.847154      147901.44    
Loop time of 48.4911 on 1 procs for 10000 steps with 4000 atoms

Performance: 17.818 ns/day, 1.347 hours/ns, 206.223 timesteps/s, 824.893 katom-step/s
99.4% CPU use with 1 MPI tasks x 1 OpenMP threads

MPI task timing breakdown:
Section |  min time  |  avg time  |  max time  |%varavg| %total
---------------------------------------------------------------
Pair    | 46.986     | 46.986     | 46.986     |   0.0 | 96.90
Neigh   | 0.010401   | 0.010401   | 0.010401   |   0.0 |  0.02
Comm    | 0.29338    | 0.29338    | 0.29338    |   0.0 |  0.61
Output  | 0.00015828 | 0.00015828 | 0.00015828 |   0.0 |  0.00
Modify  | 1.0854     | 1.0854     | 1.0854     |   0.0 |  2.24
Other   |            | 0.1157     |            |       |  0.24

Nlocal:           4000 ave        4000 max        4000 min
Histogram: 1 0 0 0 0 0 0 0 0 0
Nghost:           8195 ave        8195 max        8195 min
Histogram: 1 0 0 0 0 0 0 0 0 0
Neighs:         402162 ave      402162 max      402162 min
Histogram: 1 0 0 0 0 0 0 0 0 0

Total # of neighbors = 402162
Ave neighs/atom = 100.5405
Neighbor list builds = 1
Dangerous builds = 0

#----------------------------- Run simulation ---------------------------------#
dump             d1 all custom 10000 md/data/ar_fcc/dump_0.28.gz id type x y z # snapshots
run              90000
Generated 0 of 0 mixed pair_coeff terms from geometric mixing rule
Per MPI rank memory allocation (min/avg/max) = 4.972 | 4.972 | 4.972 Mbytes
   Step          Temp          E_pair         E_mol          TotEng         Press          Volume    
     10000   22.718822     -343.6059       0             -331.86229     -25.847154      147901.44    
    100000   23.362209     -343.40617      0             -331.32998     -35.934412      148029.72    
Loop time of 449.307 on 1 procs for 90000 steps with 4000 atoms

Performance: 17.307 ns/day, 1.387 hours/ns, 200.309 timesteps/s, 801.235 katom-step/s
99.5% CPU use with 1 MPI tasks x 1 OpenMP threads

MPI task timing breakdown:
Section |  min time  |  avg time  |  max time  |%varavg| %total
---------------------------------------------------------------
Pair    | 435.31     | 435.31     | 435.31     |   0.0 | 96.89
Neigh   | 0          | 0          | 0          |   0.0 |  0.00
Comm    | 2.6759     | 2.6759     | 2.6759     |   0.0 |  0.60
Output  | 0.14506    | 0.14506    | 0.14506    |   0.0 |  0.03
Modify  | 10.11      | 10.11      | 10.11      |   0.0 |  2.25
Other   |            | 1.064      |            |       |  0.24

Nlocal:           4000 ave        4000 max        4000 min
Histogram: 1 0 0 0 0 0 0 0 0 0
Nghost:           8195 ave        8195 max        8195 min
Histogram: 1 0 0 0 0 0 0 0 0 0
Neighs:         403561 ave      403561 max      403561 min
Histogram: 1 0 0 0 0 0 0 0 0 0

Total # of neighbors = 403561
Ave neighs/atom = 100.89025
Neighbor list builds = 0
Dangerous builds = 0
undump           d1
min_modify       line forcezero
minimize         0 0 100000 100000                                                                               # minimize energy
Generated 0 of 0 mixed pair_coeff terms from geometric mixing rule
Per MPI rank memory allocation (min/avg/max) = 6.097 | 6.097 | 6.097 Mbytes
   Step          Temp          E_pair         E_mol          TotEng         Press          Volume    
    100000   23.362209     -343.40617      0             -331.32998     -35.934412      148029.72    
    100066   23.362209     -355.294        0             -343.21781     -720.75464      148029.72    
Loop time of 30.2277 on 1 procs for 66 steps with 4000 atoms

99.5% CPU use with 1 MPI tasks x 1 OpenMP threads

Minimization stats:
  Stopping criterion = linesearch alpha is zero
  Energy initial, next-to-last, final = 
      -343.40617239289  -355.293998077128  -355.293998077128
  Force two-norm initial, final = 2.7861956 5.9613574e-07
  Force max component initial, final = 0.098835633 2.1899102e-08
  Final line search alpha, max atom move = 3.5716258 7.8215399e-08
  Iterations, force evaluations = 66 4567

MPI task timing breakdown:
Section |  min time  |  avg time  |  max time  |%varavg| %total
---------------------------------------------------------------
Pair    | 29.962     | 29.962     | 29.962     |   0.0 | 99.12
Neigh   | 0          | 0          | 0          |   0.0 |  0.00
Comm    | 0.13338    | 0.13338    | 0.13338    |   0.0 |  0.44
Output  | 0          | 0          | 0          |   0.0 |  0.00
Modify  | 0          | 0          | 0          |   0.0 |  0.00
Other   |            | 0.132      |            |       |  0.44

Nlocal:           4000 ave        4000 max        4000 min
Histogram: 1 0 0 0 0 0 0 0 0 0
Nghost:           8195 ave        8195 max        8195 min
Histogram: 1 0 0 0 0 0 0 0 0 0
Neighs:         403546 ave      403546 max      403546 min
Histogram: 1 0 0 0 0 0 0 0 0 0

Total # of neighbors = 403546
Ave neighs/atom = 100.8865
Neighbor list builds = 0
Dangerous builds = 0
write_dump       all custom md/data/ar_fcc/dump_0.28_relaxed.gz id type x y z
#------------------------------------------------------------------------------#
Total wall time: 0:08:48
