LAMMPS (29 Aug 2024)
OMP_NUM_THREADS environment is not set. Defaulting to 1 thread. (src/comm.cpp:98)
  using 1 OpenMP thread(s) per MPI task

#---------------------------- Atomic setup ------------------------------------#
units            metal
timestep         0.001
boundary         p p p
lattice          diamond 5.658
Lattice spacing in x,y,z = 5.658 5.658 5.658
region           sim_box block 0 10 0 10 0 10
create_box       1 sim_box
Created orthogonal box = (0 0 0) to (56.58 56.58 56.58)
  1 by 1 by 1 MPI processor grid
create_atoms     1 box
Created 8000 atoms
  using lattice units in orthogonal box = (0 0 0) to (56.58 56.58 56.58)
  create_atoms CPU = 0.001 seconds

pair_style       tersoff                                             # interatomic potential (Lennard-Jones, EAM, etc.)
pair_coeff       * * ${potentials_dir}/ge.tersoff Ge # interatomic potential parameters (ex. eam.alloy ${potentials_dir}/Cu_u3.eam)
pair_coeff       * * md/potentials/ge.tersoff Ge 
Reading tersoff potential file md/potentials/ge.tersoff with DATE: 2016-12-21
pair_modify      tail yes
neigh_modify     delay 0                                                       # neighbor list update frequency (0 = every timestep)
mass             1 72.64                                                 # atomic mass
variable         rnd equal round(random(0,999999,42))

#----------------------------- Equilibriation ---------------------------------#
velocity         all create 1065.68 ${rnd} dist gaussian              # initial velocities
velocity         all create 1065.68 420940 dist gaussian              
fix              f2 all nph iso 0 0 1.0        # barostat
variable         rnd equal round(random(0,999999,0))
fix              f3 all temp/csvr 1065.68 1065.68 0.1 ${rnd} # thermostat
fix              f3 all temp/csvr 1065.68 1065.68 0.1 53464 
run              10000                                           # equilibriation run
Neighbor list info ...
  update: every = 1 steps, delay = 0 steps, check = yes
  max neighbors/atom: 2000, page size: 100000
  master list distance cutoff = 5.1
  ghost atom cutoff = 5.1
  binsize = 2.55, bins = 23 23 23
  1 neighbor lists, perpetual/occasional/extra = 1 0 0
  (1) pair tersoff, perpetual
      attributes: full, newton on
      pair build: full/bin/atomonly
      stencil: full/bin/3d
      bin: standard
Per MPI rank memory allocation (min/avg/max) = 4.119 | 4.119 | 4.119 Mbytes
   Step          Temp          E_pair         E_mol          TotEng         Press          Volume    
         0   1065.68       -33726.198      0             -32624.336     -35875.704      181129.35    
     10000   1063.5962     -32588.478      0             -31488.771      815.25154      175494.02    
Loop time of 179.686 on 1 procs for 10000 steps with 8000 atoms

Performance: 4.808 ns/day, 4.991 hours/ns, 55.653 timesteps/s, 445.221 katom-step/s
99.6% CPU use with 1 MPI tasks x 1 OpenMP threads

MPI task timing breakdown:
Section |  min time  |  avg time  |  max time  |%varavg| %total
---------------------------------------------------------------
Pair    | 176.5      | 176.5      | 176.5      |   0.0 | 98.23
Neigh   | 0.66646    | 0.66646    | 0.66646    |   0.0 |  0.37
Comm    | 0.2199     | 0.2199     | 0.2199     |   0.0 |  0.12
Output  | 6.5253e-05 | 6.5253e-05 | 6.5253e-05 |   0.0 |  0.00
Modify  | 2.1272     | 2.1272     | 2.1272     |   0.0 |  1.18
Other   |            | 0.1745     |            |       |  0.10

Nlocal:           8000 ave        8000 max        8000 min
Histogram: 1 0 0 0 0 0 0 0 0 0
Nghost:           4995 ave        4995 max        4995 min
Histogram: 1 0 0 0 0 0 0 0 0 0
Neighs:              0 ave           0 max           0 min
Histogram: 1 0 0 0 0 0 0 0 0 0
FullNghs:       223802 ave      223802 max      223802 min
Histogram: 1 0 0 0 0 0 0 0 0 0

Total # of neighbors = 223802
Ave neighs/atom = 27.97525
Neighbor list builds = 78
Dangerous builds = 0

#----------------------------- Run simulation ---------------------------------#
dump             d1 all custom 10000 md/data/ge_cd/dump_0.88.gz id type x y z # snapshots
run              90000
Per MPI rank memory allocation (min/avg/max) = 4.119 | 4.119 | 4.119 Mbytes
   Step          Temp          E_pair         E_mol          TotEng         Press          Volume    
     10000   1063.5962     -32588.478      0             -31488.771      815.25154      175494.02    
    100000   1082.8445     -32568.957      0             -31449.348      1063.9572      175501.58    
Loop time of 1627.73 on 1 procs for 90000 steps with 8000 atoms

Performance: 4.777 ns/day, 5.024 hours/ns, 55.292 timesteps/s, 442.334 katom-step/s
99.6% CPU use with 1 MPI tasks x 1 OpenMP threads

MPI task timing breakdown:
Section |  min time  |  avg time  |  max time  |%varavg| %total
---------------------------------------------------------------
Pair    | 1599.1     | 1599.1     | 1599.1     |   0.0 | 98.24
Neigh   | 5.7084     | 5.7084     | 5.7084     |   0.0 |  0.35
Comm    | 1.9372     | 1.9372     | 1.9372     |   0.0 |  0.12
Output  | 0.24327    | 0.24327    | 0.24327    |   0.0 |  0.01
Modify  | 19.231     | 19.231     | 19.231     |   0.0 |  1.18
Other   |            | 1.541      |            |       |  0.09

Nlocal:           8000 ave        8000 max        8000 min
Histogram: 1 0 0 0 0 0 0 0 0 0
Nghost:           4995 ave        4995 max        4995 min
Histogram: 1 0 0 0 0 0 0 0 0 0
Neighs:              0 ave           0 max           0 min
Histogram: 1 0 0 0 0 0 0 0 0 0
FullNghs:       223786 ave      223786 max      223786 min
Histogram: 1 0 0 0 0 0 0 0 0 0

Total # of neighbors = 223786
Ave neighs/atom = 27.97325
Neighbor list builds = 665
Dangerous builds = 0
undump           d1
min_modify       line forcezero
minimize         0 0 100000 100000                                                                               # minimize energy
Per MPI rank memory allocation (min/avg/max) = 5.244 | 5.244 | 5.244 Mbytes
   Step          Temp          E_pair         E_mol          TotEng         Press          Volume    
    100000   1082.8445     -32568.957      0             -31449.348      1063.9572      175501.58    
    100103   1082.8445     -33836.801      0             -32717.192     -13126.681      175501.58    
Loop time of 3.58736 on 1 procs for 103 steps with 8000 atoms

99.6% CPU use with 1 MPI tasks x 1 OpenMP threads

Minimization stats:
  Stopping criterion = linesearch alpha is zero
  Energy initial, next-to-last, final = 
     -32568.9566818149  -33836.8012924485  -33836.8012924485
  Force two-norm initial, final = 183.35862 3.6824464e-05
  Force max component initial, final = 4.9811902 1.0787205e-06
  Final line search alpha, max atom move = 0.043002494 4.6387672e-08
  Iterations, force evaluations = 103 211

MPI task timing breakdown:
Section |  min time  |  avg time  |  max time  |%varavg| %total
---------------------------------------------------------------
Pair    | 3.562      | 3.562      | 3.562      |   0.0 | 99.29
Neigh   | 0          | 0          | 0          |   0.0 |  0.00
Comm    | 0.004493   | 0.004493   | 0.004493   |   0.0 |  0.13
Output  | 0          | 0          | 0          |   0.0 |  0.00
Modify  | 0          | 0          | 0          |   0.0 |  0.00
Other   |            | 0.02082    |            |       |  0.58

Nlocal:           8000 ave        8000 max        8000 min
Histogram: 1 0 0 0 0 0 0 0 0 0
Nghost:           4995 ave        4995 max        4995 min
Histogram: 1 0 0 0 0 0 0 0 0 0
Neighs:              0 ave           0 max           0 min
Histogram: 1 0 0 0 0 0 0 0 0 0
FullNghs:       223814 ave      223814 max      223814 min
Histogram: 1 0 0 0 0 0 0 0 0 0

Total # of neighbors = 223814
Ave neighs/atom = 27.97675
Neighbor list builds = 0
Dangerous builds = 0
write_dump       all custom md/data/ge_cd/dump_0.88_relaxed.gz id type x y z
#------------------------------------------------------------------------------#
Total wall time: 0:30:11
