LAMMPS (29 Aug 2024)
OMP_NUM_THREADS environment is not set. Defaulting to 1 thread. (src/comm.cpp:98)
  using 1 OpenMP thread(s) per MPI task

#---------------------------- Atomic setup ------------------------------------#
units            metal
timestep         0.001
boundary         p p p
lattice          diamond 5.658
Lattice spacing in x,y,z = 5.658 5.658 5.658
region           sim_box block 0 10 0 10 0 10
create_box       1 sim_box
Created orthogonal box = (0 0 0) to (56.58 56.58 56.58)
  1 by 1 by 1 MPI processor grid
create_atoms     1 box
Created 8000 atoms
  using lattice units in orthogonal box = (0 0 0) to (56.58 56.58 56.58)
  create_atoms CPU = 0.001 seconds

pair_style       tersoff                                             # interatomic potential (Lennard-Jones, EAM, etc.)
pair_coeff       * * ${potentials_dir}/ge.tersoff Ge # interatomic potential parameters (ex. eam.alloy ${potentials_dir}/Cu_u3.eam)
pair_coeff       * * md/potentials/ge.tersoff Ge 
Reading tersoff potential file md/potentials/ge.tersoff with DATE: 2016-12-21
pair_modify      tail yes
neigh_modify     delay 0                                                       # neighbor list update frequency (0 = every timestep)
mass             1 72.64                                                 # atomic mass
variable         rnd equal round(random(0,999999,42))

#----------------------------- Equilibriation ---------------------------------#
velocity         all create 1840.72 ${rnd} dist gaussian              # initial velocities
velocity         all create 1840.72 420940 dist gaussian              
fix              f2 all nph iso 0 0 1.0        # barostat
variable         rnd equal round(random(0,999999,0))
fix              f3 all temp/csvr 1840.72 1840.72 0.1 ${rnd} # thermostat
fix              f3 all temp/csvr 1840.72 1840.72 0.1 53464 
run              10000                                           # equilibriation run
Neighbor list info ...
  update: every = 1 steps, delay = 0 steps, check = yes
  max neighbors/atom: 2000, page size: 100000
  master list distance cutoff = 5.1
  ghost atom cutoff = 5.1
  binsize = 2.55, bins = 23 23 23
  1 neighbor lists, perpetual/occasional/extra = 1 0 0
  (1) pair tersoff, perpetual
      attributes: full, newton on
      pair build: full/bin/atomonly
      stencil: full/bin/3d
      bin: standard
Per MPI rank memory allocation (min/avg/max) = 4.119 | 4.119 | 4.119 Mbytes
   Step          Temp          E_pair         E_mol          TotEng         Press          Volume    
         0   1840.72       -33726.198      0             -31822.982     -31150.128      181129.35    
     10000   1834.4002     -31601.129      0             -29704.447      551.47473      177407.95    
Loop time of 185.804 on 1 procs for 10000 steps with 8000 atoms

Performance: 4.650 ns/day, 5.161 hours/ns, 53.820 timesteps/s, 430.562 katom-step/s
99.6% CPU use with 1 MPI tasks x 1 OpenMP threads

MPI task timing breakdown:
Section |  min time  |  avg time  |  max time  |%varavg| %total
---------------------------------------------------------------
Pair    | 181.66     | 181.66     | 181.66     |   0.0 | 97.77
Neigh   | 1.6127     | 1.6127     | 1.6127     |   0.0 |  0.87
Comm    | 0.22531    | 0.22531    | 0.22531    |   0.0 |  0.12
Output  | 5.4923e-05 | 5.4923e-05 | 5.4923e-05 |   0.0 |  0.00
Modify  | 2.1252     | 2.1252     | 2.1252     |   0.0 |  1.14
Other   |            | 0.1769     |            |       |  0.10

Nlocal:           8000 ave        8000 max        8000 min
Histogram: 1 0 0 0 0 0 0 0 0 0
Nghost:           4998 ave        4998 max        4998 min
Histogram: 1 0 0 0 0 0 0 0 0 0
Neighs:              0 ave           0 max           0 min
Histogram: 1 0 0 0 0 0 0 0 0 0
FullNghs:       221022 ave      221022 max      221022 min
Histogram: 1 0 0 0 0 0 0 0 0 0

Total # of neighbors = 221022
Ave neighs/atom = 27.62775
Neighbor list builds = 164
Dangerous builds = 0

#----------------------------- Run simulation ---------------------------------#
dump             d1 all custom 10000 md/data/ge_cd/dump_1.52.gz id type x y z # snapshots
run              90000
Per MPI rank memory allocation (min/avg/max) = 4.119 | 4.119 | 4.119 Mbytes
   Step          Temp          E_pair         E_mol          TotEng         Press          Volume    
     10000   1834.4002     -31601.129      0             -29704.447      551.47473      177407.95    
    100000   1844.9994     -37555.968      0             -35648.328     -4433.988       118924.75    
Loop time of 7885.72 on 1 procs for 90000 steps with 8000 atoms

Performance: 0.986 ns/day, 24.339 hours/ns, 11.413 timesteps/s, 91.304 katom-step/s
99.6% CPU use with 1 MPI tasks x 1 OpenMP threads

MPI task timing breakdown:
Section |  min time  |  avg time  |  max time  |%varavg| %total
---------------------------------------------------------------
Pair    | 7846.8     | 7846.8     | 7846.8     |   0.0 | 99.51
Neigh   | 15.456     | 15.456     | 15.456     |   0.0 |  0.20
Comm    | 2.2623     | 2.2623     | 2.2623     |   0.0 |  0.03
Output  | 0.25695    | 0.25695    | 0.25695    |   0.0 |  0.00
Modify  | 19.284     | 19.284     | 19.284     |   0.0 |  0.24
Other   |            | 1.616      |            |       |  0.02

Nlocal:           8000 ave        8000 max        8000 min
Histogram: 1 0 0 0 0 0 0 0 0 0
Nghost:           6104 ave        6104 max        6104 min
Histogram: 1 0 0 0 0 0 0 0 0 0
Neighs:              0 ave           0 max           0 min
Histogram: 1 0 0 0 0 0 0 0 0 0
FullNghs:       303688 ave      303688 max      303688 min
Histogram: 1 0 0 0 0 0 0 0 0 0

Total # of neighbors = 303688
Ave neighs/atom = 37.961
Neighbor list builds = 1337
Dangerous builds = 0
