LAMMPS (29 Aug 2024)
OMP_NUM_THREADS environment is not set. Defaulting to 1 thread. (src/comm.cpp:98)
  using 1 OpenMP thread(s) per MPI task

#---------------------------- Atomic setup ------------------------------------#
units            metal
timestep         0.001
boundary         p p p
lattice          diamond 5.658
Lattice spacing in x,y,z = 5.658 5.658 5.658
region           sim_box block 0 10 0 10 0 10
create_box       1 sim_box
Created orthogonal box = (0 0 0) to (56.58 56.58 56.58)
  1 by 1 by 1 MPI processor grid
create_atoms     1 box
Created 8000 atoms
  using lattice units in orthogonal box = (0 0 0) to (56.58 56.58 56.58)
  create_atoms CPU = 0.001 seconds

pair_style       tersoff                                             # interatomic potential (Lennard-Jones, EAM, etc.)
pair_coeff       * * ${potentials_dir}/ge.tersoff Ge # interatomic potential parameters (ex. eam.alloy ${potentials_dir}/Cu_u3.eam)
pair_coeff       * * md/potentials/ge.tersoff Ge 
Reading tersoff potential file md/potentials/ge.tersoff with DATE: 2016-12-21
pair_modify      tail yes
neigh_modify     delay 0                                                       # neighbor list update frequency (0 = every timestep)
mass             1 72.64                                                 # atomic mass
variable         rnd equal round(random(0,999999,42))

#----------------------------- Equilibriation ---------------------------------#
velocity         all create 1550.08 ${rnd} dist gaussian              # initial velocities
velocity         all create 1550.08 420940 dist gaussian              
fix              f2 all nph iso 0 0 1.0        # barostat
variable         rnd equal round(random(0,999999,0))
fix              f3 all temp/csvr 1550.08 1550.08 0.1 ${rnd} # thermostat
fix              f3 all temp/csvr 1550.08 1550.08 0.1 53464 
run              10000                                           # equilibriation run
Neighbor list info ...
  update: every = 1 steps, delay = 0 steps, check = yes
  max neighbors/atom: 2000, page size: 100000
  master list distance cutoff = 5.1
  ghost atom cutoff = 5.1
  binsize = 2.55, bins = 23 23 23
  1 neighbor lists, perpetual/occasional/extra = 1 0 0
  (1) pair tersoff, perpetual
      attributes: full, newton on
      pair build: full/bin/atomonly
      stencil: full/bin/3d
      bin: standard
Per MPI rank memory allocation (min/avg/max) = 4.119 | 4.119 | 4.119 Mbytes
   Step          Temp          E_pair         E_mol          TotEng         Press          Volume    
         0   1550.08       -33726.198      0             -32123.49      -32922.219      181129.35    
     10000   1566.1525     -31997.293      0             -30377.966      505.15227      177143.4     
Loop time of 182.823 on 1 procs for 10000 steps with 8000 atoms

Performance: 4.726 ns/day, 5.078 hours/ns, 54.698 timesteps/s, 437.582 katom-step/s
99.6% CPU use with 1 MPI tasks x 1 OpenMP threads

MPI task timing breakdown:
Section |  min time  |  avg time  |  max time  |%varavg| %total
---------------------------------------------------------------
Pair    | 178.92     | 178.92     | 178.92     |   0.0 | 97.87
Neigh   | 1.3653     | 1.3653     | 1.3653     |   0.0 |  0.75
Comm    | 0.23021    | 0.23021    | 0.23021    |   0.0 |  0.13
Output  | 5.8359e-05 | 5.8359e-05 | 5.8359e-05 |   0.0 |  0.00
Modify  | 2.1263     | 2.1263     | 2.1263     |   0.0 |  1.16
Other   |            | 0.1805     |            |       |  0.10

Nlocal:           8000 ave        8000 max        8000 min
Histogram: 1 0 0 0 0 0 0 0 0 0
Nghost:           4995 ave        4995 max        4995 min
Histogram: 1 0 0 0 0 0 0 0 0 0
Neighs:              0 ave           0 max           0 min
Histogram: 1 0 0 0 0 0 0 0 0 0
FullNghs:       222518 ave      222518 max      222518 min
Histogram: 1 0 0 0 0 0 0 0 0 0

Total # of neighbors = 222518
Ave neighs/atom = 27.81475
Neighbor list builds = 141
Dangerous builds = 0

#----------------------------- Run simulation ---------------------------------#
dump             d1 all custom 10000 md/data/ge_cd/dump_1.28.gz id type x y z # snapshots
run              90000
Per MPI rank memory allocation (min/avg/max) = 4.119 | 4.119 | 4.119 Mbytes
   Step          Temp          E_pair         E_mol          TotEng         Press          Volume    
     10000   1566.1525     -31997.293      0             -30377.966      505.15227      177143.4     
    100000   1577.3401     -38063.037      0             -36432.143     -633.27492      118294.29    
Loop time of 4857.23 on 1 procs for 90000 steps with 8000 atoms

Performance: 1.601 ns/day, 14.991 hours/ns, 18.529 timesteps/s, 148.233 katom-step/s
99.6% CPU use with 1 MPI tasks x 1 OpenMP threads

MPI task timing breakdown:
Section |  min time  |  avg time  |  max time  |%varavg| %total
---------------------------------------------------------------
Pair    | 4821.5     | 4821.5     | 4821.5     |   0.0 | 99.26
Neigh   | 12.463     | 12.463     | 12.463     |   0.0 |  0.26
Comm    | 2.1636     | 2.1636     | 2.1636     |   0.0 |  0.04
Output  | 0.25025    | 0.25025    | 0.25025    |   0.0 |  0.01
Modify  | 19.245     | 19.245     | 19.245     |   0.0 |  0.40
Other   |            | 1.604      |            |       |  0.03

Nlocal:           8000 ave        8000 max        8000 min
Histogram: 1 0 0 0 0 0 0 0 0 0
Nghost:           6087 ave        6087 max        6087 min
Histogram: 1 0 0 0 0 0 0 0 0 0
Neighs:              0 ave           0 max           0 min
Histogram: 1 0 0 0 0 0 0 0 0 0
FullNghs:       305012 ave      305012 max      305012 min
Histogram: 1 0 0 0 0 0 0 0 0 0

Total # of neighbors = 305012
Ave neighs/atom = 38.1265
Neighbor list builds = 1178
Dangerous builds = 0
undump           d1
min_modify       line forcezero
minimize         0 0 100000 100000                                                                               # minimize energy
Per MPI rank memory allocation (min/avg/max) = 5.688 | 5.688 | 5.688 Mbytes
   Step          Temp          E_pair         E_mol          TotEng         Press          Volume    
    100000   1577.3401     -38063.037      0             -36432.143     -633.27492      118294.29    
    100458   1577.3401     -39748.891      0             -38117.997      55184.036      118294.29    
Loop time of 118.39 on 1 procs for 458 steps with 8000 atoms

99.7% CPU use with 1 MPI tasks x 1 OpenMP threads

Minimization stats:
  Stopping criterion = linesearch alpha is zero
  Energy initial, next-to-last, final = 
     -38063.0366623048  -39748.8907986715  -39748.8907986715
  Force two-norm initial, final = 278.62366 0.00012162964
  Force max component initial, final = 7.3070881 1.9133218e-05
  Final line search alpha, max atom move = 2.3492506e-06 4.4948724e-11
  Iterations, force evaluations = 458 1203

MPI task timing breakdown:
Section |  min time  |  avg time  |  max time  |%varavg| %total
---------------------------------------------------------------
Pair    | 118.26     | 118.26     | 118.26     |   0.0 | 99.89
Neigh   | 0          | 0          | 0          |   0.0 |  0.00
Comm    | 0.029038   | 0.029038   | 0.029038   |   0.0 |  0.02
Output  | 0          | 0          | 0          |   0.0 |  0.00
Modify  | 0          | 0          | 0          |   0.0 |  0.00
Other   |            | 0.1054     |            |       |  0.09

Nlocal:           8000 ave        8000 max        8000 min
Histogram: 1 0 0 0 0 0 0 0 0 0
Nghost:           6088 ave        6088 max        6088 min
Histogram: 1 0 0 0 0 0 0 0 0 0
Neighs:              0 ave           0 max           0 min
Histogram: 1 0 0 0 0 0 0 0 0 0
FullNghs:       304764 ave      304764 max      304764 min
Histogram: 1 0 0 0 0 0 0 0 0 0

Total # of neighbors = 304764
Ave neighs/atom = 38.0955
Neighbor list builds = 0
Dangerous builds = 0
write_dump       all custom md/data/ge_cd/dump_1.28_relaxed.gz id type x y z
#------------------------------------------------------------------------------#
Total wall time: 1:25:58
