LAMMPS (29 Aug 2024)
OMP_NUM_THREADS environment is not set. Defaulting to 1 thread. (src/comm.cpp:98)
  using 1 OpenMP thread(s) per MPI task

#---------------------------- Atomic setup ------------------------------------#
units            metal
timestep         0.001
boundary         p p p
lattice          diamond 5.658
Lattice spacing in x,y,z = 5.658 5.658 5.658
region           sim_box block 0 10 0 10 0 10
create_box       1 sim_box
Created orthogonal box = (0 0 0) to (56.58 56.58 56.58)
  1 by 1 by 1 MPI processor grid
create_atoms     1 box
Created 8000 atoms
  using lattice units in orthogonal box = (0 0 0) to (56.58 56.58 56.58)
  create_atoms CPU = 0.001 seconds

pair_style       tersoff                                             # interatomic potential (Lennard-Jones, EAM, etc.)
pair_coeff       * * ${potentials_dir}/ge.tersoff Ge # interatomic potential parameters (ex. eam.alloy ${potentials_dir}/Cu_u3.eam)
pair_coeff       * * md/potentials/ge.tersoff Ge 
Reading tersoff potential file md/potentials/ge.tersoff with DATE: 2016-12-21
pair_modify      tail yes
neigh_modify     delay 0                                                       # neighbor list update frequency (0 = every timestep)
mass             1 72.64                                                 # atomic mass
variable         rnd equal round(random(0,999999,42))

#----------------------------- Equilibriation ---------------------------------#
velocity         all create 678.1600000000001 ${rnd} dist gaussian              # initial velocities
velocity         all create 678.1600000000001 420940 dist gaussian              
fix              f2 all nph iso 0 0 1.0        # barostat
variable         rnd equal round(random(0,999999,0))
fix              f3 all temp/csvr 678.1600000000001 678.1600000000001 0.1 ${rnd} # thermostat
fix              f3 all temp/csvr 678.1600000000001 678.1600000000001 0.1 53464 
run              10000                                           # equilibriation run
Neighbor list info ...
  update: every = 1 steps, delay = 0 steps, check = yes
  max neighbors/atom: 2000, page size: 100000
  master list distance cutoff = 5.1
  ghost atom cutoff = 5.1
  binsize = 2.55, bins = 23 23 23
  1 neighbor lists, perpetual/occasional/extra = 1 0 0
  (1) pair tersoff, perpetual
      attributes: full, newton on
      pair build: full/bin/atomonly
      stencil: full/bin/3d
      bin: standard
Per MPI rank memory allocation (min/avg/max) = 4.119 | 4.119 | 4.119 Mbytes
   Step          Temp          E_pair         E_mol          TotEng         Press          Volume    
         0   678.16        -33726.198      0             -33025.013     -38238.491      181129.35    
     10000   675.91912     -33070.945      0             -32372.077      465.91669      173965.88    
Loop time of 176.769 on 1 procs for 10000 steps with 8000 atoms

Performance: 4.888 ns/day, 4.910 hours/ns, 56.571 timesteps/s, 452.568 katom-step/s
99.6% CPU use with 1 MPI tasks x 1 OpenMP threads

MPI task timing breakdown:
Section |  min time  |  avg time  |  max time  |%varavg| %total
---------------------------------------------------------------
Pair    | 174.25     | 174.25     | 174.25     |   0.0 | 98.57
Neigh   | 0.016561   | 0.016561   | 0.016561   |   0.0 |  0.01
Comm    | 0.20292    | 0.20292    | 0.20292    |   0.0 |  0.11
Output  | 0.00016996 | 0.00016996 | 0.00016996 |   0.0 |  0.00
Modify  | 2.1319     | 2.1319     | 2.1319     |   0.0 |  1.21
Other   |            | 0.1693     |            |       |  0.10

Nlocal:           8000 ave        8000 max        8000 min
Histogram: 1 0 0 0 0 0 0 0 0 0
Nghost:           4995 ave        4995 max        4995 min
Histogram: 1 0 0 0 0 0 0 0 0 0
Neighs:              0 ave           0 max           0 min
Histogram: 1 0 0 0 0 0 0 0 0 0
FullNghs:       223998 ave      223998 max      223998 min
Histogram: 1 0 0 0 0 0 0 0 0 0

Total # of neighbors = 223998
Ave neighs/atom = 27.99975
Neighbor list builds = 2
Dangerous builds = 0

#----------------------------- Run simulation ---------------------------------#
dump             d1 all custom 10000 md/data/ge_cd/dump_0.56.gz id type x y z # snapshots
run              90000
Per MPI rank memory allocation (min/avg/max) = 4.119 | 4.119 | 4.119 Mbytes
   Step          Temp          E_pair         E_mol          TotEng         Press          Volume    
     10000   675.91912     -33070.945      0             -32372.077      465.91669      173965.88    
    100000   688.50102     -33061.07       0             -32349.193      350.73241      174051.22    
Loop time of 1618.84 on 1 procs for 90000 steps with 8000 atoms

Performance: 4.803 ns/day, 4.996 hours/ns, 55.595 timesteps/s, 444.763 katom-step/s
99.6% CPU use with 1 MPI tasks x 1 OpenMP threads

MPI task timing breakdown:
Section |  min time  |  avg time  |  max time  |%varavg| %total
---------------------------------------------------------------
Pair    | 1595.7     | 1595.7     | 1595.7     |   0.0 | 98.57
Neigh   | 0          | 0          | 0          |   0.0 |  0.00
Comm    | 1.8353     | 1.8353     | 1.8353     |   0.0 |  0.11
Output  | 0.23916    | 0.23916    | 0.23916    |   0.0 |  0.01
Modify  | 19.456     | 19.456     | 19.456     |   0.0 |  1.20
Other   |            | 1.568      |            |       |  0.10

Nlocal:           8000 ave        8000 max        8000 min
Histogram: 1 0 0 0 0 0 0 0 0 0
Nghost:           4995 ave        4995 max        4995 min
Histogram: 1 0 0 0 0 0 0 0 0 0
Neighs:              0 ave           0 max           0 min
Histogram: 1 0 0 0 0 0 0 0 0 0
FullNghs:       223988 ave      223988 max      223988 min
Histogram: 1 0 0 0 0 0 0 0 0 0

Total # of neighbors = 223988
Ave neighs/atom = 27.9985
Neighbor list builds = 0
Dangerous builds = 0
undump           d1
min_modify       line forcezero
minimize         0 0 100000 100000                                                                               # minimize energy
Per MPI rank memory allocation (min/avg/max) = 5.244 | 5.244 | 5.244 Mbytes
   Step          Temp          E_pair         E_mol          TotEng         Press          Volume    
    100000   688.50102     -33061.07       0             -32349.193      350.73241      174051.22    
    100088   688.50102     -33851.954      0             -33140.077     -9119.7075      174051.22    
Loop time of 3.02656 on 1 procs for 88 steps with 8000 atoms

99.6% CPU use with 1 MPI tasks x 1 OpenMP threads

Minimization stats:
  Stopping criterion = linesearch alpha is zero
  Energy initial, next-to-last, final = 
     -33061.0697473961  -33851.9540919575  -33851.9540919575
  Force two-norm initial, final = 150.68378 5.7938661e-05
  Force max component initial, final = 3.7152016 1.5164217e-06
  Final line search alpha, max atom move = 7.6233906e-08 1.1560275e-13
  Iterations, force evaluations = 88 179

MPI task timing breakdown:
Section |  min time  |  avg time  |  max time  |%varavg| %total
---------------------------------------------------------------
Pair    | 3.0052     | 3.0052     | 3.0052     |   0.0 | 99.30
Neigh   | 0          | 0          | 0          |   0.0 |  0.00
Comm    | 0.0037137  | 0.0037137  | 0.0037137  |   0.0 |  0.12
Output  | 0          | 0          | 0          |   0.0 |  0.00
Modify  | 0          | 0          | 0          |   0.0 |  0.00
Other   |            | 0.0176     |            |       |  0.58

Nlocal:           8000 ave        8000 max        8000 min
Histogram: 1 0 0 0 0 0 0 0 0 0
Nghost:           4995 ave        4995 max        4995 min
Histogram: 1 0 0 0 0 0 0 0 0 0
Neighs:              0 ave           0 max           0 min
Histogram: 1 0 0 0 0 0 0 0 0 0
FullNghs:       224000 ave      224000 max      224000 min
Histogram: 1 0 0 0 0 0 0 0 0 0

Total # of neighbors = 224000
Ave neighs/atom = 28
Neighbor list builds = 0
Dangerous builds = 0
write_dump       all custom md/data/ge_cd/dump_0.56_relaxed.gz id type x y z
#------------------------------------------------------------------------------#
Total wall time: 0:29:58
