LAMMPS (29 Aug 2024)
OMP_NUM_THREADS environment is not set. Defaulting to 1 thread. (src/comm.cpp:98)
  using 1 OpenMP thread(s) per MPI task

#---------------------------- Atomic setup ------------------------------------#
units            metal
timestep         0.001
boundary         p p p
lattice          diamond 5.658
Lattice spacing in x,y,z = 5.658 5.658 5.658
region           sim_box block 0 10 0 10 0 10
create_box       1 sim_box
Created orthogonal box = (0 0 0) to (56.58 56.58 56.58)
  1 by 1 by 1 MPI processor grid
create_atoms     1 box
Created 8000 atoms
  using lattice units in orthogonal box = (0 0 0) to (56.58 56.58 56.58)
  create_atoms CPU = 0.001 seconds

pair_style       tersoff                                             # interatomic potential (Lennard-Jones, EAM, etc.)
pair_coeff       * * ${potentials_dir}/ge.tersoff Ge # interatomic potential parameters (ex. eam.alloy ${potentials_dir}/Cu_u3.eam)
pair_coeff       * * md/potentials/ge.tersoff Ge 
Reading tersoff potential file md/potentials/ge.tersoff with DATE: 2016-12-21
pair_modify      tail yes
neigh_modify     delay 0                                                       # neighbor list update frequency (0 = every timestep)
mass             1 72.64                                                 # atomic mass
variable         rnd equal round(random(0,999999,42))

#----------------------------- Equilibriation ---------------------------------#
velocity         all create 242.20000000000002 ${rnd} dist gaussian              # initial velocities
velocity         all create 242.20000000000002 420940 dist gaussian              
fix              f2 all nph iso 0 0 1.0        # barostat
variable         rnd equal round(random(0,999999,0))
fix              f3 all temp/csvr 242.20000000000002 242.20000000000002 0.1 ${rnd} # thermostat
fix              f3 all temp/csvr 242.20000000000002 242.20000000000002 0.1 53464 
run              10000                                           # equilibriation run
Neighbor list info ...
  update: every = 1 steps, delay = 0 steps, check = yes
  max neighbors/atom: 2000, page size: 100000
  master list distance cutoff = 5.1
  ghost atom cutoff = 5.1
  binsize = 2.55, bins = 23 23 23
  1 neighbor lists, perpetual/occasional/extra = 1 0 0
  (1) pair tersoff, perpetual
      attributes: full, newton on
      pair build: full/bin/atomonly
      stencil: full/bin/3d
      bin: standard
Per MPI rank memory allocation (min/avg/max) = 4.119 | 4.119 | 4.119 Mbytes
   Step          Temp          E_pair         E_mol          TotEng         Press          Volume    
         0   242.2         -33726.198      0             -33475.775     -40896.628      181129.35    
     10000   243.12043     -33597.398      0             -33346.023      1118.297       172015.96    
Loop time of 174.31 on 1 procs for 10000 steps with 8000 atoms

Performance: 4.957 ns/day, 4.842 hours/ns, 57.369 timesteps/s, 458.953 katom-step/s
99.6% CPU use with 1 MPI tasks x 1 OpenMP threads

MPI task timing breakdown:
Section |  min time  |  avg time  |  max time  |%varavg| %total
---------------------------------------------------------------
Pair    | 171.78     | 171.78     | 171.78     |   0.0 | 98.55
Neigh   | 0.014018   | 0.014018   | 0.014018   |   0.0 |  0.01
Comm    | 0.20808    | 0.20808    | 0.20808    |   0.0 |  0.12
Output  | 0.00018154 | 0.00018154 | 0.00018154 |   0.0 |  0.00
Modify  | 2.1354     | 2.1354     | 2.1354     |   0.0 |  1.23
Other   |            | 0.1739     |            |       |  0.10

Nlocal:           8000 ave        8000 max        8000 min
Histogram: 1 0 0 0 0 0 0 0 0 0
Nghost:           4995 ave        4995 max        4995 min
Histogram: 1 0 0 0 0 0 0 0 0 0
Neighs:              0 ave           0 max           0 min
Histogram: 1 0 0 0 0 0 0 0 0 0
FullNghs:       224000 ave      224000 max      224000 min
Histogram: 1 0 0 0 0 0 0 0 0 0

Total # of neighbors = 224000
Ave neighs/atom = 28
Neighbor list builds = 2
Dangerous builds = 0

#----------------------------- Run simulation ---------------------------------#
dump             d1 all custom 10000 md/data/ge_cd/dump_0.2.gz id type x y z # snapshots
run              90000
Per MPI rank memory allocation (min/avg/max) = 4.119 | 4.119 | 4.119 Mbytes
   Step          Temp          E_pair         E_mol          TotEng         Press          Volume    
     10000   243.12043     -33597.398      0             -33346.023      1118.297       172015.96    
    100000   242.50005     -33587.6        0             -33336.866     -13.526031      172265.65    
Loop time of 1595.77 on 1 procs for 90000 steps with 8000 atoms

Performance: 4.873 ns/day, 4.925 hours/ns, 56.399 timesteps/s, 451.194 katom-step/s
99.6% CPU use with 1 MPI tasks x 1 OpenMP threads

MPI task timing breakdown:
Section |  min time  |  avg time  |  max time  |%varavg| %total
---------------------------------------------------------------
Pair    | 1572.6     | 1572.6     | 1572.6     |   0.0 | 98.55
Neigh   | 0          | 0          | 0          |   0.0 |  0.00
Comm    | 1.8835     | 1.8835     | 1.8835     |   0.0 |  0.12
Output  | 0.23752    | 0.23752    | 0.23752    |   0.0 |  0.01
Modify  | 19.485     | 19.485     | 19.485     |   0.0 |  1.22
Other   |            | 1.592      |            |       |  0.10

Nlocal:           8000 ave        8000 max        8000 min
Histogram: 1 0 0 0 0 0 0 0 0 0
Nghost:           4995 ave        4995 max        4995 min
Histogram: 1 0 0 0 0 0 0 0 0 0
Neighs:              0 ave           0 max           0 min
Histogram: 1 0 0 0 0 0 0 0 0 0
FullNghs:       224000 ave      224000 max      224000 min
Histogram: 1 0 0 0 0 0 0 0 0 0

Total # of neighbors = 224000
Ave neighs/atom = 28
Neighbor list builds = 0
Dangerous builds = 0
undump           d1
min_modify       line forcezero
minimize         0 0 100000 100000                                                                               # minimize energy
Per MPI rank memory allocation (min/avg/max) = 5.244 | 5.244 | 5.244 Mbytes
   Step          Temp          E_pair         E_mol          TotEng         Press          Volume    
    100000   242.50005     -33587.6        0             -33336.866     -13.526031      172265.65    
    100084   242.50005     -33862.374      0             -33611.64      -3577.9643      172265.65    
Loop time of 2.99477 on 1 procs for 84 steps with 8000 atoms

99.6% CPU use with 1 MPI tasks x 1 OpenMP threads

Minimization stats:
  Stopping criterion = linesearch alpha is zero
  Energy initial, next-to-last, final = 
     -33587.5996667274  -33862.3735417942  -33862.3735417942
  Force two-norm initial, final = 95.514572 5.1154238e-05
  Force max component initial, final = 2.3446678 1.5986434e-06
  Final line search alpha, max atom move = 0 0
  Iterations, force evaluations = 84 179

MPI task timing breakdown:
Section |  min time  |  avg time  |  max time  |%varavg| %total
---------------------------------------------------------------
Pair    | 2.9725     | 2.9725     | 2.9725     |   0.0 | 99.26
Neigh   | 0          | 0          | 0          |   0.0 |  0.00
Comm    | 0.0037389  | 0.0037389  | 0.0037389  |   0.0 |  0.12
Output  | 0          | 0          | 0          |   0.0 |  0.00
Modify  | 0          | 0          | 0          |   0.0 |  0.00
Other   |            | 0.0185     |            |       |  0.62

Nlocal:           8000 ave        8000 max        8000 min
Histogram: 1 0 0 0 0 0 0 0 0 0
Nghost:           4995 ave        4995 max        4995 min
Histogram: 1 0 0 0 0 0 0 0 0 0
Neighs:              0 ave           0 max           0 min
Histogram: 1 0 0 0 0 0 0 0 0 0
FullNghs:       224000 ave      224000 max      224000 min
Histogram: 1 0 0 0 0 0 0 0 0 0

Total # of neighbors = 224000
Ave neighs/atom = 28
Neighbor list builds = 0
Dangerous builds = 0
write_dump       all custom md/data/ge_cd/dump_0.2_relaxed.gz id type x y z
#------------------------------------------------------------------------------#
Total wall time: 0:29:33
