LAMMPS (29 Aug 2024)
OMP_NUM_THREADS environment is not set. Defaulting to 1 thread. (src/comm.cpp:98)
  using 1 OpenMP thread(s) per MPI task

#---------------------------- Atomic setup ------------------------------------#
units            metal
timestep         0.001
boundary         p p p
lattice          diamond 5.658
Lattice spacing in x,y,z = 5.658 5.658 5.658
region           sim_box block 0 10 0 10 0 10
create_box       1 sim_box
Created orthogonal box = (0 0 0) to (56.58 56.58 56.58)
  1 by 1 by 1 MPI processor grid
create_atoms     1 box
Created 8000 atoms
  using lattice units in orthogonal box = (0 0 0) to (56.58 56.58 56.58)
  create_atoms CPU = 0.001 seconds

pair_style       tersoff                                             # interatomic potential (Lennard-Jones, EAM, etc.)
pair_coeff       * * ${potentials_dir}/ge.tersoff Ge # interatomic potential parameters (ex. eam.alloy ${potentials_dir}/Cu_u3.eam)
pair_coeff       * * md/potentials/ge.tersoff Ge 
Reading tersoff potential file md/potentials/ge.tersoff with DATE: 2016-12-21
pair_modify      tail yes
neigh_modify     delay 0                                                       # neighbor list update frequency (0 = every timestep)
mass             1 72.64                                                 # atomic mass
variable         rnd equal round(random(0,999999,42))

#----------------------------- Equilibriation ---------------------------------#
velocity         all create 968.8000000000001 ${rnd} dist gaussian              # initial velocities
velocity         all create 968.8000000000001 420940 dist gaussian              
fix              f2 all nph iso 0 0 1.0        # barostat
variable         rnd equal round(random(0,999999,0))
fix              f3 all temp/csvr 968.8000000000001 968.8000000000001 0.1 ${rnd} # thermostat
fix              f3 all temp/csvr 968.8000000000001 968.8000000000001 0.1 53464 
run              10000                                           # equilibriation run
Neighbor list info ...
  update: every = 1 steps, delay = 0 steps, check = yes
  max neighbors/atom: 2000, page size: 100000
  master list distance cutoff = 5.1
  ghost atom cutoff = 5.1
  binsize = 2.55, bins = 23 23 23
  1 neighbor lists, perpetual/occasional/extra = 1 0 0
  (1) pair tersoff, perpetual
      attributes: full, newton on
      pair build: full/bin/atomonly
      stencil: full/bin/3d
      bin: standard
Per MPI rank memory allocation (min/avg/max) = 4.119 | 4.119 | 4.119 Mbytes
   Step          Temp          E_pair         E_mol          TotEng         Press          Volume    
         0   968.8         -33726.198      0             -32724.505     -36466.401      181129.35    
     10000   959.58598     -32709.572      0             -31717.407      307.24457      175217.92    
Loop time of 178.412 on 1 procs for 10000 steps with 8000 atoms

Performance: 4.843 ns/day, 4.956 hours/ns, 56.050 timesteps/s, 448.401 katom-step/s
99.6% CPU use with 1 MPI tasks x 1 OpenMP threads

MPI task timing breakdown:
Section |  min time  |  avg time  |  max time  |%varavg| %total
---------------------------------------------------------------
Pair    | 175.52     | 175.52     | 175.52     |   0.0 | 98.38
Neigh   | 0.387      | 0.387      | 0.387      |   0.0 |  0.22
Comm    | 0.20697    | 0.20697    | 0.20697    |   0.0 |  0.12
Output  | 5.0825e-05 | 5.0825e-05 | 5.0825e-05 |   0.0 |  0.00
Modify  | 2.1224     | 2.1224     | 2.1224     |   0.0 |  1.19
Other   |            | 0.1739     |            |       |  0.10

Nlocal:           8000 ave        8000 max        8000 min
Histogram: 1 0 0 0 0 0 0 0 0 0
Nghost:           4995 ave        4995 max        4995 min
Histogram: 1 0 0 0 0 0 0 0 0 0
Neighs:              0 ave           0 max           0 min
Histogram: 1 0 0 0 0 0 0 0 0 0
FullNghs:       223850 ave      223850 max      223850 min
Histogram: 1 0 0 0 0 0 0 0 0 0

Total # of neighbors = 223850
Ave neighs/atom = 27.98125
Neighbor list builds = 46
Dangerous builds = 0

#----------------------------- Run simulation ---------------------------------#
dump             d1 all custom 10000 md/data/ge_cd/dump_0.8.gz id type x y z # snapshots
run              90000
Per MPI rank memory allocation (min/avg/max) = 4.119 | 4.119 | 4.119 Mbytes
   Step          Temp          E_pair         E_mol          TotEng         Press          Volume    
     10000   959.58598     -32709.572      0             -31717.407      307.24457      175217.92    
    100000   965.82082     -32673.224      0             -31674.612      1174.9516      175083.09    
Loop time of 1617.59 on 1 procs for 90000 steps with 8000 atoms

Performance: 4.807 ns/day, 4.993 hours/ns, 55.638 timesteps/s, 445.106 katom-step/s
99.6% CPU use with 1 MPI tasks x 1 OpenMP threads

MPI task timing breakdown:
Section |  min time  |  avg time  |  max time  |%varavg| %total
---------------------------------------------------------------
Pair    | 1592.6     | 1592.6     | 1592.6     |   0.0 | 98.45
Neigh   | 2.0298     | 2.0298     | 2.0298     |   0.0 |  0.13
Comm    | 1.9153     | 1.9153     | 1.9153     |   0.0 |  0.12
Output  | 0.24159    | 0.24159    | 0.24159    |   0.0 |  0.01
Modify  | 19.27      | 19.27      | 19.27      |   0.0 |  1.19
Other   |            | 1.58       |            |       |  0.10

Nlocal:           8000 ave        8000 max        8000 min
Histogram: 1 0 0 0 0 0 0 0 0 0
Nghost:           4995 ave        4995 max        4995 min
Histogram: 1 0 0 0 0 0 0 0 0 0
Neighs:              0 ave           0 max           0 min
Histogram: 1 0 0 0 0 0 0 0 0 0
FullNghs:       223890 ave      223890 max      223890 min
Histogram: 1 0 0 0 0 0 0 0 0 0

Total # of neighbors = 223890
Ave neighs/atom = 27.98625
Neighbor list builds = 240
Dangerous builds = 0
undump           d1
min_modify       line forcezero
minimize         0 0 100000 100000                                                                               # minimize energy
Per MPI rank memory allocation (min/avg/max) = 5.244 | 5.244 | 5.244 Mbytes
   Step          Temp          E_pair         E_mol          TotEng         Press          Volume    
    100000   965.82082     -32673.224      0             -31674.612      1174.9516      175083.09    
    100095   965.82082     -33841.771      0             -32843.159     -12016.677      175083.09    
Loop time of 3.23018 on 1 procs for 95 steps with 8000 atoms

99.6% CPU use with 1 MPI tasks x 1 OpenMP threads

Minimization stats:
  Stopping criterion = linesearch alpha is zero
  Energy initial, next-to-last, final = 
     -32673.2244476951  -33841.7712034146  -33841.7712034146
  Force two-norm initial, final = 176.97469 3.9679994e-05
  Force max component initial, final = 4.8506033 1.1510164e-06
  Final line search alpha, max atom move = 9.7753991e-09 1.1251644e-14
  Iterations, force evaluations = 95 190

MPI task timing breakdown:
Section |  min time  |  avg time  |  max time  |%varavg| %total
---------------------------------------------------------------
Pair    | 3.2074     | 3.2074     | 3.2074     |   0.0 | 99.29
Neigh   | 0          | 0          | 0          |   0.0 |  0.00
Comm    | 0.0039333  | 0.0039333  | 0.0039333  |   0.0 |  0.12
Output  | 0          | 0          | 0          |   0.0 |  0.00
Modify  | 0          | 0          | 0          |   0.0 |  0.00
Other   |            | 0.01885    |            |       |  0.58

Nlocal:           8000 ave        8000 max        8000 min
Histogram: 1 0 0 0 0 0 0 0 0 0
Nghost:           4995 ave        4995 max        4995 min
Histogram: 1 0 0 0 0 0 0 0 0 0
Neighs:              0 ave           0 max           0 min
Histogram: 1 0 0 0 0 0 0 0 0 0
FullNghs:       223886 ave      223886 max      223886 min
Histogram: 1 0 0 0 0 0 0 0 0 0

Total # of neighbors = 223886
Ave neighs/atom = 27.98575
Neighbor list builds = 0
Dangerous builds = 0
write_dump       all custom md/data/ge_cd/dump_0.8_relaxed.gz id type x y z
#------------------------------------------------------------------------------#
Total wall time: 0:29:59
