LAMMPS (29 Aug 2024)
OMP_NUM_THREADS environment is not set. Defaulting to 1 thread. (src/comm.cpp:98)
  using 1 OpenMP thread(s) per MPI task

#---------------------------- Atomic setup ------------------------------------#
units            metal
timestep         0.001
boundary         p p p
lattice          diamond 5.658
Lattice spacing in x,y,z = 5.658 5.658 5.658
region           sim_box block 0 10 0 10 0 10
create_box       1 sim_box
Created orthogonal box = (0 0 0) to (56.58 56.58 56.58)
  1 by 1 by 1 MPI processor grid
create_atoms     1 box
Created 8000 atoms
  using lattice units in orthogonal box = (0 0 0) to (56.58 56.58 56.58)
  create_atoms CPU = 0.001 seconds

pair_style       tersoff                                             # interatomic potential (Lennard-Jones, EAM, etc.)
pair_coeff       * * ${potentials_dir}/ge.tersoff Ge # interatomic potential parameters (ex. eam.alloy ${potentials_dir}/Cu_u3.eam)
pair_coeff       * * md/potentials/ge.tersoff Ge 
Reading tersoff potential file md/potentials/ge.tersoff with DATE: 2016-12-21
pair_modify      tail yes
neigh_modify     delay 0                                                       # neighbor list update frequency (0 = every timestep)
mass             1 72.64                                                 # atomic mass
variable         rnd equal round(random(0,999999,42))

#----------------------------- Equilibriation ---------------------------------#
velocity         all create 1162.56 ${rnd} dist gaussian              # initial velocities
velocity         all create 1162.56 420940 dist gaussian              
fix              f2 all nph iso 0 0 1.0        # barostat
variable         rnd equal round(random(0,999999,0))
fix              f3 all temp/csvr 1162.56 1162.56 0.1 ${rnd} # thermostat
fix              f3 all temp/csvr 1162.56 1162.56 0.1 53464 
run              10000                                           # equilibriation run
Neighbor list info ...
  update: every = 1 steps, delay = 0 steps, check = yes
  max neighbors/atom: 2000, page size: 100000
  master list distance cutoff = 5.1
  ghost atom cutoff = 5.1
  binsize = 2.55, bins = 23 23 23
  1 neighbor lists, perpetual/occasional/extra = 1 0 0
  (1) pair tersoff, perpetual
      attributes: full, newton on
      pair build: full/bin/atomonly
      stencil: full/bin/3d
      bin: standard
Per MPI rank memory allocation (min/avg/max) = 4.119 | 4.119 | 4.119 Mbytes
   Step          Temp          E_pair         E_mol          TotEng         Press          Volume    
         0   1162.56       -33726.198      0             -32524.167     -35285.007      181129.35    
     10000   1152.2788     -32454.824      0             -31263.423      851.82038      175801.34    
Loop time of 179.845 on 1 procs for 10000 steps with 8000 atoms

Performance: 4.804 ns/day, 4.996 hours/ns, 55.604 timesteps/s, 444.828 katom-step/s
99.6% CPU use with 1 MPI tasks x 1 OpenMP threads

MPI task timing breakdown:
Section |  min time  |  avg time  |  max time  |%varavg| %total
---------------------------------------------------------------
Pair    | 176.53     | 176.53     | 176.53     |   0.0 | 98.16
Neigh   | 0.78976    | 0.78976    | 0.78976    |   0.0 |  0.44
Comm    | 0.22169    | 0.22169    | 0.22169    |   0.0 |  0.12
Output  | 5.9422e-05 | 5.9422e-05 | 5.9422e-05 |   0.0 |  0.00
Modify  | 2.1276     | 2.1276     | 2.1276     |   0.0 |  1.18
Other   |            | 0.175      |            |       |  0.10

Nlocal:           8000 ave        8000 max        8000 min
Histogram: 1 0 0 0 0 0 0 0 0 0
Nghost:           4996 ave        4996 max        4996 min
Histogram: 1 0 0 0 0 0 0 0 0 0
Neighs:              0 ave           0 max           0 min
Histogram: 1 0 0 0 0 0 0 0 0 0
FullNghs:       223510 ave      223510 max      223510 min
Histogram: 1 0 0 0 0 0 0 0 0 0

Total # of neighbors = 223510
Ave neighs/atom = 27.93875
Neighbor list builds = 91
Dangerous builds = 0

#----------------------------- Run simulation ---------------------------------#
dump             d1 all custom 10000 md/data/ge_cd/dump_0.96.gz id type x y z # snapshots
run              90000
Per MPI rank memory allocation (min/avg/max) = 4.119 | 4.119 | 4.119 Mbytes
   Step          Temp          E_pair         E_mol          TotEng         Press          Volume    
     10000   1152.2788     -32454.824      0             -31263.423      851.82038      175801.34    
    100000   1171.1911     -32432.298      0             -31221.342      168.22829      176101.6     
Loop time of 1630.02 on 1 procs for 90000 steps with 8000 atoms

Performance: 4.771 ns/day, 5.031 hours/ns, 55.214 timesteps/s, 441.714 katom-step/s
99.6% CPU use with 1 MPI tasks x 1 OpenMP threads

MPI task timing breakdown:
Section |  min time  |  avg time  |  max time  |%varavg| %total
---------------------------------------------------------------
Pair    | 1599.8     | 1599.8     | 1599.8     |   0.0 | 98.15
Neigh   | 7.1467     | 7.1467     | 7.1467     |   0.0 |  0.44
Comm    | 1.9593     | 1.9593     | 1.9593     |   0.0 |  0.12
Output  | 0.2421     | 0.2421     | 0.2421     |   0.0 |  0.01
Modify  | 19.282     | 19.282     | 19.282     |   0.0 |  1.18
Other   |            | 1.58       |            |       |  0.10

Nlocal:           8000 ave        8000 max        8000 min
Histogram: 1 0 0 0 0 0 0 0 0 0
Nghost:           4995 ave        4995 max        4995 min
Histogram: 1 0 0 0 0 0 0 0 0 0
Neighs:              0 ave           0 max           0 min
Histogram: 1 0 0 0 0 0 0 0 0 0
FullNghs:       223604 ave      223604 max      223604 min
Histogram: 1 0 0 0 0 0 0 0 0 0

Total # of neighbors = 223604
Ave neighs/atom = 27.9505
Neighbor list builds = 818
Dangerous builds = 0
undump           d1
min_modify       line forcezero
minimize         0 0 100000 100000                                                                               # minimize energy
Per MPI rank memory allocation (min/avg/max) = 5.244 | 5.244 | 5.244 Mbytes
   Step          Temp          E_pair         E_mol          TotEng         Press          Volume    
    100000   1171.1911     -32432.298      0             -31221.342      168.22829      176101.6     
    100104   1171.1911     -33828.848      0             -32617.893     -15180.775      176101.6     
Loop time of 3.51061 on 1 procs for 104 steps with 8000 atoms

99.6% CPU use with 1 MPI tasks x 1 OpenMP threads

Minimization stats:
  Stopping criterion = linesearch alpha is zero
  Energy initial, next-to-last, final = 
     -32432.2976941829  -33828.8478800173  -33828.8478800173
  Force two-norm initial, final = 191.39202 3.7520404e-05
  Force max component initial, final = 5.6052387 9.9235073e-07
  Final line search alpha, max atom move = 0 0
  Iterations, force evaluations = 104 206

MPI task timing breakdown:
Section |  min time  |  avg time  |  max time  |%varavg| %total
---------------------------------------------------------------
Pair    | 3.486      | 3.486      | 3.486      |   0.0 | 99.30
Neigh   | 0          | 0          | 0          |   0.0 |  0.00
Comm    | 0.0042328  | 0.0042328  | 0.0042328  |   0.0 |  0.12
Output  | 0          | 0          | 0          |   0.0 |  0.00
Modify  | 0          | 0          | 0          |   0.0 |  0.00
Other   |            | 0.02039    |            |       |  0.58

Nlocal:           8000 ave        8000 max        8000 min
Histogram: 1 0 0 0 0 0 0 0 0 0
Nghost:           4996 ave        4996 max        4996 min
Histogram: 1 0 0 0 0 0 0 0 0 0
Neighs:              0 ave           0 max           0 min
Histogram: 1 0 0 0 0 0 0 0 0 0
FullNghs:       223524 ave      223524 max      223524 min
Histogram: 1 0 0 0 0 0 0 0 0 0

Total # of neighbors = 223524
Ave neighs/atom = 27.9405
Neighbor list builds = 0
Dangerous builds = 0
write_dump       all custom md/data/ge_cd/dump_0.96_relaxed.gz id type x y z
#------------------------------------------------------------------------------#
Total wall time: 0:30:13
