LAMMPS (29 Aug 2024)
OMP_NUM_THREADS environment is not set. Defaulting to 1 thread. (src/comm.cpp:98)
  using 1 OpenMP thread(s) per MPI task
Lattice spacing in x,y,z = 5.658 5.658 5.658
Created orthogonal box = (0 0 0) to (56.58 56.58 56.58)
  1 by 1 by 1 MPI processor grid
Created 8000 atoms
  using lattice units in orthogonal box = (0 0 0) to (56.58 56.58 56.58)
  create_atoms CPU = 0.001 seconds
Reading tersoff potential file md/potentials/ge.tersoff with DATE: 2016-12-21
Neighbor list info ...
  update: every = 1 steps, delay = 0 steps, check = yes
  max neighbors/atom: 2000, page size: 100000
  master list distance cutoff = 5.1
  ghost atom cutoff = 5.1
  binsize = 2.55, bins = 23 23 23
  1 neighbor lists, perpetual/occasional/extra = 1 0 0
  (1) pair tersoff, perpetual
      attributes: full, newton on
      pair build: full/bin/atomonly
      stencil: full/bin/3d
      bin: standard
Setting up Verlet run ...
  Unit style    : metal
  Current step  : 0
  Time step     : 0.001
Per MPI rank memory allocation (min/avg/max) = 4.119 | 4.119 | 4.119 Mbytes
   Step          Temp          E_pair         E_mol          TotEng         Press          Volume    
         0   1356.32       -33726.198      0             -32323.828     -34103.613      181129.35    
     10000   1360.6449     -32225          0             -30818.159      546.59576      176644.97    
Loop time of 182.006 on 1 procs for 10000 steps with 8000 atoms

Performance: 4.747 ns/day, 5.056 hours/ns, 54.943 timesteps/s, 439.545 katom-step/s
99.6% CPU use with 1 MPI tasks x 1 OpenMP threads

MPI task timing breakdown:
Section |  min time  |  avg time  |  max time  |%varavg| %total
---------------------------------------------------------------
Pair    | 178.37     | 178.37     | 178.37     |   0.0 | 98.00
Neigh   | 1.1155     | 1.1155     | 1.1155     |   0.0 |  0.61
Comm    | 0.2204     | 0.2204     | 0.2204     |   0.0 |  0.12
Output  | 5.3741e-05 | 5.3741e-05 | 5.3741e-05 |   0.0 |  0.00
Modify  | 2.1285     | 2.1285     | 2.1285     |   0.0 |  1.17
Other   |            | 0.1756     |            |       |  0.10

Nlocal:           8000 ave        8000 max        8000 min
Histogram: 1 0 0 0 0 0 0 0 0 0
Nghost:           4995 ave        4995 max        4995 min
Histogram: 1 0 0 0 0 0 0 0 0 0
Neighs:              0 ave           0 max           0 min
Histogram: 1 0 0 0 0 0 0 0 0 0
FullNghs:       223062 ave      223062 max      223062 min
Histogram: 1 0 0 0 0 0 0 0 0 0

Total # of neighbors = 223062
Ave neighs/atom = 27.88275
Neighbor list builds = 118
Dangerous builds = 0
Setting up Verlet run ...
  Unit style    : metal
  Current step  : 10000
  Time step     : 0.001
Per MPI rank memory allocation (min/avg/max) = 4.119 | 4.119 | 4.119 Mbytes
   Step          Temp          E_pair         E_mol          TotEng         Press          Volume    
     10000   1360.6449     -32225          0             -30818.159      546.59576      176644.97    
    100000   1379.0789     -32200.079      0             -30774.178      517.24464      176719.45    
Loop time of 1649.75 on 1 procs for 90000 steps with 8000 atoms

Performance: 4.713 ns/day, 5.092 hours/ns, 54.554 timesteps/s, 436.430 katom-step/s
99.6% CPU use with 1 MPI tasks x 1 OpenMP threads

MPI task timing breakdown:
Section |  min time  |  avg time  |  max time  |%varavg| %total
---------------------------------------------------------------
Pair    | 1616.6     | 1616.6     | 1616.6     |   0.0 | 97.99
Neigh   | 9.96       | 9.96       | 9.96       |   0.0 |  0.60
Comm    | 2.0649     | 2.0649     | 2.0649     |   0.0 |  0.13
Output  | 0.24106    | 0.24106    | 0.24106    |   0.0 |  0.01
Modify  | 19.318     | 19.318     | 19.318     |   0.0 |  1.17
Other   |            | 1.572      |            |       |  0.10

Nlocal:           8000 ave        8000 max        8000 min
Histogram: 1 0 0 0 0 0 0 0 0 0
Nghost:           4995 ave        4995 max        4995 min
Histogram: 1 0 0 0 0 0 0 0 0 0
Neighs:              0 ave           0 max           0 min
Histogram: 1 0 0 0 0 0 0 0 0 0
FullNghs:       222984 ave      222984 max      222984 min
Histogram: 1 0 0 0 0 0 0 0 0 0

Total # of neighbors = 222984
Ave neighs/atom = 27.873
Neighbor list builds = 1043
Dangerous builds = 0
Setting up cg style minimization ...
  Unit style    : metal
  Current step  : 100000
Per MPI rank memory allocation (min/avg/max) = 5.264 | 5.264 | 5.264 Mbytes
   Step          Temp          E_pair         E_mol          TotEng         Press          Volume    
    100000   1379.0789     -32200.079      0             -30774.178      517.24464      176719.45    
    100099   1379.0789     -33819.656      0             -32393.755     -16518.712      176719.45    
Loop time of 3.30214 on 1 procs for 99 steps with 8000 atoms

99.6% CPU use with 1 MPI tasks x 1 OpenMP threads

Minimization stats:
  Stopping criterion = linesearch alpha is zero
  Energy initial, next-to-last, final = 
     -32200.0793091069  -33819.6561734755  -33819.6561734755
  Force two-norm initial, final = 204.3207 3.4481578e-05
  Force max component initial, final = 6.45281 8.9364821e-07
  Final line search alpha, max atom move = 9.6671054e-07 8.6389914e-13
  Iterations, force evaluations = 99 192

MPI task timing breakdown:
Section |  min time  |  avg time  |  max time  |%varavg| %total
---------------------------------------------------------------
Pair    | 3.2792     | 3.2792     | 3.2792     |   0.0 | 99.30
Neigh   | 0          | 0          | 0          |   0.0 |  0.00
Comm    | 0.0039322  | 0.0039322  | 0.0039322  |   0.0 |  0.12
Output  | 0          | 0          | 0          |   0.0 |  0.00
Modify  | 0          | 0          | 0          |   0.0 |  0.00
Other   |            | 0.01905    |            |       |  0.58

Nlocal:           8000 ave        8000 max        8000 min
Histogram: 1 0 0 0 0 0 0 0 0 0
Nghost:           4995 ave        4995 max        4995 min
Histogram: 1 0 0 0 0 0 0 0 0 0
Neighs:              0 ave           0 max           0 min
Histogram: 1 0 0 0 0 0 0 0 0 0
FullNghs:       223046 ave      223046 max      223046 min
Histogram: 1 0 0 0 0 0 0 0 0 0

Total # of neighbors = 223046
Ave neighs/atom = 27.88075
Neighbor list builds = 0
Dangerous builds = 0
Total wall time: 0:30:35
