LAMMPS (29 Aug 2024)
OMP_NUM_THREADS environment is not set. Defaulting to 1 thread. (src/comm.cpp:98)
  using 1 OpenMP thread(s) per MPI task
Lattice spacing in x,y,z = 5.658 5.658 5.658
Created orthogonal box = (0 0 0) to (56.58 56.58 56.58)
  1 by 1 by 1 MPI processor grid
Created 8000 atoms
  using lattice units in orthogonal box = (0 0 0) to (56.58 56.58 56.58)
  create_atoms CPU = 0.001 seconds
Reading tersoff potential file md/potentials/ge.tersoff with DATE: 2016-12-21
Neighbor list info ...
  update: every = 1 steps, delay = 0 steps, check = yes
  max neighbors/atom: 2000, page size: 100000
  master list distance cutoff = 5.1
  ghost atom cutoff = 5.1
  binsize = 2.55, bins = 23 23 23
  1 neighbor lists, perpetual/occasional/extra = 1 0 0
  (1) pair tersoff, perpetual
      attributes: full, newton on
      pair build: full/bin/atomonly
      stencil: full/bin/3d
      bin: standard
Setting up Verlet run ...
  Unit style    : metal
  Current step  : 0
  Time step     : 0.001
Per MPI rank memory allocation (min/avg/max) = 4.119 | 4.119 | 4.119 Mbytes
   Step          Temp          E_pair         E_mol          TotEng         Press          Volume    
         0   1211          -33726.198      0             -32474.082     -34989.658      181129.35    
     10000   1203.0267     -32403.254      0             -31159.382     -1074.5652      176416.24    
Loop time of 180.265 on 1 procs for 10000 steps with 8000 atoms

Performance: 4.793 ns/day, 5.007 hours/ns, 55.474 timesteps/s, 443.790 katom-step/s
99.6% CPU use with 1 MPI tasks x 1 OpenMP threads

MPI task timing breakdown:
Section |  min time  |  avg time  |  max time  |%varavg| %total
---------------------------------------------------------------
Pair    | 176.92     | 176.92     | 176.92     |   0.0 | 98.14
Neigh   | 0.83526    | 0.83526    | 0.83526    |   0.0 |  0.46
Comm    | 0.21593    | 0.21593    | 0.21593    |   0.0 |  0.12
Output  | 5.7148e-05 | 5.7148e-05 | 5.7148e-05 |   0.0 |  0.00
Modify  | 2.1256     | 2.1256     | 2.1256     |   0.0 |  1.18
Other   |            | 0.1719     |            |       |  0.10

Nlocal:           8000 ave        8000 max        8000 min
Histogram: 1 0 0 0 0 0 0 0 0 0
Nghost:           4995 ave        4995 max        4995 min
Histogram: 1 0 0 0 0 0 0 0 0 0
Neighs:              0 ave           0 max           0 min
Histogram: 1 0 0 0 0 0 0 0 0 0
FullNghs:       223480 ave      223480 max      223480 min
Histogram: 1 0 0 0 0 0 0 0 0 0

Total # of neighbors = 223480
Ave neighs/atom = 27.935
Neighbor list builds = 96
Dangerous builds = 0
Setting up Verlet run ...
  Unit style    : metal
  Current step  : 10000
  Time step     : 0.001
Per MPI rank memory allocation (min/avg/max) = 4.119 | 4.119 | 4.119 Mbytes
   Step          Temp          E_pair         E_mol          TotEng         Press          Volume    
     10000   1203.0267     -32403.254      0             -31159.382     -1074.5652      176416.24    
    100000   1232.0724     -32384.32       0             -31110.416      1176.098       176042.51    
Loop time of 1635.76 on 1 procs for 90000 steps with 8000 atoms

Performance: 4.754 ns/day, 5.049 hours/ns, 55.020 timesteps/s, 440.162 katom-step/s
99.6% CPU use with 1 MPI tasks x 1 OpenMP threads

MPI task timing breakdown:
Section |  min time  |  avg time  |  max time  |%varavg| %total
---------------------------------------------------------------
Pair    | 1604.8     | 1604.8     | 1604.8     |   0.0 | 98.11
Neigh   | 7.8401     | 7.8401     | 7.8401     |   0.0 |  0.48
Comm    | 2.0175     | 2.0175     | 2.0175     |   0.0 |  0.12
Output  | 0.24304    | 0.24304    | 0.24304    |   0.0 |  0.01
Modify  | 19.259     | 19.259     | 19.259     |   0.0 |  1.18
Other   |            | 1.571      |            |       |  0.10

Nlocal:           8000 ave        8000 max        8000 min
Histogram: 1 0 0 0 0 0 0 0 0 0
Nghost:           4995 ave        4995 max        4995 min
Histogram: 1 0 0 0 0 0 0 0 0 0
Neighs:              0 ave           0 max           0 min
Histogram: 1 0 0 0 0 0 0 0 0 0
FullNghs:       223546 ave      223546 max      223546 min
Histogram: 1 0 0 0 0 0 0 0 0 0

Total # of neighbors = 223546
Ave neighs/atom = 27.94325
Neighbor list builds = 888
Dangerous builds = 0
Setting up cg style minimization ...
  Unit style    : metal
  Current step  : 100000
Per MPI rank memory allocation (min/avg/max) = 5.263 | 5.263 | 5.263 Mbytes
   Step          Temp          E_pair         E_mol          TotEng         Press          Volume    
    100000   1232.0724     -32384.32       0             -31110.416      1176.098       176042.51    
    100094   1232.0724     -33829.674      0             -32555.77      -14543.955      176042.51    
Loop time of 3.15721 on 1 procs for 94 steps with 8000 atoms

99.6% CPU use with 1 MPI tasks x 1 OpenMP threads

Minimization stats:
  Stopping criterion = linesearch alpha is zero
  Energy initial, next-to-last, final = 
     -32384.3197176982  -33829.6740338579  -33829.6740338579
  Force two-norm initial, final = 195.57268 4.8728593e-05
  Force max component initial, final = 6.7652545 1.2623431e-06
  Final line search alpha, max atom move = 8.8087537e-09 1.1119669e-14
  Iterations, force evaluations = 94 185

MPI task timing breakdown:
Section |  min time  |  avg time  |  max time  |%varavg| %total
---------------------------------------------------------------
Pair    | 3.135      | 3.135      | 3.135      |   0.0 | 99.30
Neigh   | 0          | 0          | 0          |   0.0 |  0.00
Comm    | 0.0038363  | 0.0038363  | 0.0038363  |   0.0 |  0.12
Output  | 0          | 0          | 0          |   0.0 |  0.00
Modify  | 0          | 0          | 0          |   0.0 |  0.00
Other   |            | 0.01837    |            |       |  0.58

Nlocal:           8000 ave        8000 max        8000 min
Histogram: 1 0 0 0 0 0 0 0 0 0
Nghost:           4995 ave        4995 max        4995 min
Histogram: 1 0 0 0 0 0 0 0 0 0
Neighs:              0 ave           0 max           0 min
Histogram: 1 0 0 0 0 0 0 0 0 0
FullNghs:       223524 ave      223524 max      223524 min
Histogram: 1 0 0 0 0 0 0 0 0 0

Total # of neighbors = 223524
Ave neighs/atom = 27.9405
Neighbor list builds = 0
Dangerous builds = 0
Total wall time: 0:30:19
