LAMMPS (29 Aug 2024)
OMP_NUM_THREADS environment is not set. Defaulting to 1 thread. (src/comm.cpp:98)
  using 1 OpenMP thread(s) per MPI task
Lattice spacing in x,y,z = 5.658 5.658 5.658
Created orthogonal box = (0 0 0) to (56.58 56.58 56.58)
  1 by 1 by 1 MPI processor grid
Created 8000 atoms
  using lattice units in orthogonal box = (0 0 0) to (56.58 56.58 56.58)
  create_atoms CPU = 0.001 seconds
Reading tersoff potential file md/potentials/ge.tersoff with DATE: 2016-12-21
Neighbor list info ...
  update: every = 1 steps, delay = 0 steps, check = yes
  max neighbors/atom: 2000, page size: 100000
  master list distance cutoff = 5.1
  ghost atom cutoff = 5.1
  binsize = 2.55, bins = 23 23 23
  1 neighbor lists, perpetual/occasional/extra = 1 0 0
  (1) pair tersoff, perpetual
      attributes: full, newton on
      pair build: full/bin/atomonly
      stencil: full/bin/3d
      bin: standard
Setting up Verlet run ...
  Unit style    : metal
  Current step  : 0
  Time step     : 0.001
Per MPI rank memory allocation (min/avg/max) = 4.119 | 4.119 | 4.119 Mbytes
   Step          Temp          E_pair         E_mol          TotEng         Press          Volume    
         0   1114.12       -33726.198      0             -32574.251     -35580.355      181129.35    
     10000   1115.9171     -32527.106      0             -31373.302     -772.94343      176022.63    
Loop time of 179.759 on 1 procs for 10000 steps with 8000 atoms

Performance: 4.806 ns/day, 4.993 hours/ns, 55.630 timesteps/s, 445.040 katom-step/s
99.6% CPU use with 1 MPI tasks x 1 OpenMP threads

MPI task timing breakdown:
Section |  min time  |  avg time  |  max time  |%varavg| %total
---------------------------------------------------------------
Pair    | 176.49     | 176.49     | 176.49     |   0.0 | 98.18
Neigh   | 0.73983    | 0.73983    | 0.73983    |   0.0 |  0.41
Comm    | 0.22316    | 0.22316    | 0.22316    |   0.0 |  0.12
Output  | 5.9141e-05 | 5.9141e-05 | 5.9141e-05 |   0.0 |  0.00
Modify  | 2.1298     | 2.1298     | 2.1298     |   0.0 |  1.18
Other   |            | 0.1738     |            |       |  0.10

Nlocal:           8000 ave        8000 max        8000 min
Histogram: 1 0 0 0 0 0 0 0 0 0
Nghost:           4996 ave        4996 max        4996 min
Histogram: 1 0 0 0 0 0 0 0 0 0
Neighs:              0 ave           0 max           0 min
Histogram: 1 0 0 0 0 0 0 0 0 0
FullNghs:       223614 ave      223614 max      223614 min
Histogram: 1 0 0 0 0 0 0 0 0 0

Total # of neighbors = 223614
Ave neighs/atom = 27.95175
Neighbor list builds = 86
Dangerous builds = 0
Setting up Verlet run ...
  Unit style    : metal
  Current step  : 10000
  Time step     : 0.001
Per MPI rank memory allocation (min/avg/max) = 4.119 | 4.119 | 4.119 Mbytes
   Step          Temp          E_pair         E_mol          TotEng         Press          Volume    
     10000   1115.9171     -32527.106      0             -31373.302     -772.94343      176022.63    
    100000   1114.4434     -32488.769      0             -31336.488      19.371294      175868.78    
Loop time of 1630.3 on 1 procs for 90000 steps with 8000 atoms

Performance: 4.770 ns/day, 5.032 hours/ns, 55.205 timesteps/s, 441.636 katom-step/s
99.6% CPU use with 1 MPI tasks x 1 OpenMP threads

MPI task timing breakdown:
Section |  min time  |  avg time  |  max time  |%varavg| %total
---------------------------------------------------------------
Pair    | 1600.7     | 1600.7     | 1600.7     |   0.0 | 98.19
Neigh   | 6.552      | 6.552      | 6.552      |   0.0 |  0.40
Comm    | 1.9465     | 1.9465     | 1.9465     |   0.0 |  0.12
Output  | 0.23824    | 0.23824    | 0.23824    |   0.0 |  0.01
Modify  | 19.249     | 19.249     | 19.249     |   0.0 |  1.18
Other   |            | 1.571      |            |       |  0.10

Nlocal:           8000 ave        8000 max        8000 min
Histogram: 1 0 0 0 0 0 0 0 0 0
Nghost:           4995 ave        4995 max        4995 min
Histogram: 1 0 0 0 0 0 0 0 0 0
Neighs:              0 ave           0 max           0 min
Histogram: 1 0 0 0 0 0 0 0 0 0
FullNghs:       223740 ave      223740 max      223740 min
Histogram: 1 0 0 0 0 0 0 0 0 0

Total # of neighbors = 223740
Ave neighs/atom = 27.9675
Neighbor list builds = 755
Dangerous builds = 0
Setting up cg style minimization ...
  Unit style    : metal
  Current step  : 100000
Per MPI rank memory allocation (min/avg/max) = 5.244 | 5.244 | 5.244 Mbytes
   Step          Temp          E_pair         E_mol          TotEng         Press          Volume    
    100000   1114.4434     -32488.769      0             -31336.488      19.371294      175868.78    
    100103   1114.4434     -33832.049      0             -32679.768     -14530.135      175868.78    
Loop time of 3.49455 on 1 procs for 103 steps with 8000 atoms

99.6% CPU use with 1 MPI tasks x 1 OpenMP threads

Minimization stats:
  Stopping criterion = linesearch alpha is zero
  Energy initial, next-to-last, final = 
     -32488.7690597068  -33832.0489122475  -33832.0489122475
  Force two-norm initial, final = 187.57072 5.1229796e-05
  Force max component initial, final = 6.5781748 1.4374016e-06
  Final line search alpha, max atom move = 8.2318615e-05 1.1832491e-10
  Iterations, force evaluations = 103 205

MPI task timing breakdown:
Section |  min time  |  avg time  |  max time  |%varavg| %total
---------------------------------------------------------------
Pair    | 3.4701     | 3.4701     | 3.4701     |   0.0 | 99.30
Neigh   | 0          | 0          | 0          |   0.0 |  0.00
Comm    | 0.0042051  | 0.0042051  | 0.0042051  |   0.0 |  0.12
Output  | 0          | 0          | 0          |   0.0 |  0.00
Modify  | 0          | 0          | 0          |   0.0 |  0.00
Other   |            | 0.02023    |            |       |  0.58

Nlocal:           8000 ave        8000 max        8000 min
Histogram: 1 0 0 0 0 0 0 0 0 0
Nghost:           4995 ave        4995 max        4995 min
Histogram: 1 0 0 0 0 0 0 0 0 0
Neighs:              0 ave           0 max           0 min
Histogram: 1 0 0 0 0 0 0 0 0 0
FullNghs:       223572 ave      223572 max      223572 min
Histogram: 1 0 0 0 0 0 0 0 0 0

Total # of neighbors = 223572
Ave neighs/atom = 27.9465
Neighbor list builds = 0
Dangerous builds = 0
Total wall time: 0:30:13
