LAMMPS (29 Aug 2024)
OMP_NUM_THREADS environment is not set. Defaulting to 1 thread. (src/comm.cpp:98)
  using 1 OpenMP thread(s) per MPI task

#---------------------------- Atomic setup ------------------------------------#
units            metal
timestep         0.001
boundary         p p p
lattice          diamond 5.658
Lattice spacing in x,y,z = 5.658 5.658 5.658
region           sim_box block 0 10 0 10 0 10
create_box       1 sim_box
Created orthogonal box = (0 0 0) to (56.58 56.58 56.58)
  1 by 1 by 1 MPI processor grid
create_atoms     1 box
Created 8000 atoms
  using lattice units in orthogonal box = (0 0 0) to (56.58 56.58 56.58)
  create_atoms CPU = 0.001 seconds

pair_style       tersoff                                             # interatomic potential (Lennard-Jones, EAM, etc.)
pair_coeff       * * ${potentials_dir}/ge.tersoff Ge # interatomic potential parameters (ex. eam.alloy ${potentials_dir}/Cu_u3.eam)
pair_coeff       * * md/potentials/ge.tersoff Ge 
Reading tersoff potential file md/potentials/ge.tersoff with DATE: 2016-12-21
pair_modify      tail yes
neigh_modify     delay 0                                                       # neighbor list update frequency (0 = every timestep)
mass             1 72.64                                                 # atomic mass
variable         rnd equal round(random(0,999999,42))

#----------------------------- Equilibriation ---------------------------------#
velocity         all create 96.88 ${rnd} dist gaussian              # initial velocities
velocity         all create 96.88 420940 dist gaussian              
fix              f2 all nph iso 0 0 1.0        # barostat
variable         rnd equal round(random(0,999999,0))
fix              f3 all temp/csvr 96.88 96.88 0.1 ${rnd} # thermostat
fix              f3 all temp/csvr 96.88 96.88 0.1 53464 
run              10000                                           # equilibriation run
Neighbor list info ...
  update: every = 1 steps, delay = 0 steps, check = yes
  max neighbors/atom: 2000, page size: 100000
  master list distance cutoff = 5.1
  ghost atom cutoff = 5.1
  binsize = 2.55, bins = 23 23 23
  1 neighbor lists, perpetual/occasional/extra = 1 0 0
  (1) pair tersoff, perpetual
      attributes: full, newton on
      pair build: full/bin/atomonly
      stencil: full/bin/3d
      bin: standard
Per MPI rank memory allocation (min/avg/max) = 4.119 | 4.119 | 4.119 Mbytes
   Step          Temp          E_pair         E_mol          TotEng         Press          Volume    
         0   96.88         -33726.198      0             -33626.029     -41782.673      181129.35    
     10000   94.6747       -33758.695      0             -33660.806      567.47049      171508.44    
Loop time of 172.121 on 1 procs for 10000 steps with 8000 atoms

Performance: 5.020 ns/day, 4.781 hours/ns, 58.099 timesteps/s, 464.789 katom-step/s
99.6% CPU use with 1 MPI tasks x 1 OpenMP threads

MPI task timing breakdown:
Section |  min time  |  avg time  |  max time  |%varavg| %total
---------------------------------------------------------------
Pair    | 169.6      | 169.6      | 169.6      |   0.0 | 98.53
Neigh   | 0.01316    | 0.01316    | 0.01316    |   0.0 |  0.01
Comm    | 0.20711    | 0.20711    | 0.20711    |   0.0 |  0.12
Output  | 0.00016735 | 0.00016735 | 0.00016735 |   0.0 |  0.00
Modify  | 2.1301     | 2.1301     | 2.1301     |   0.0 |  1.24
Other   |            | 0.1717     |            |       |  0.10

Nlocal:           8000 ave        8000 max        8000 min
Histogram: 1 0 0 0 0 0 0 0 0 0
Nghost:           4995 ave        4995 max        4995 min
Histogram: 1 0 0 0 0 0 0 0 0 0
Neighs:              0 ave           0 max           0 min
Histogram: 1 0 0 0 0 0 0 0 0 0
FullNghs:       224000 ave      224000 max      224000 min
Histogram: 1 0 0 0 0 0 0 0 0 0

Total # of neighbors = 224000
Ave neighs/atom = 28
Neighbor list builds = 2
Dangerous builds = 0

#----------------------------- Run simulation ---------------------------------#
dump             d1 all custom 10000 md/data/ge_cd/dump_0.08.gz id type x y z # snapshots
run              90000
Per MPI rank memory allocation (min/avg/max) = 4.119 | 4.119 | 4.119 Mbytes
   Step          Temp          E_pair         E_mol          TotEng         Press          Volume    
     10000   94.6747       -33758.695      0             -33660.806      567.47049      171508.44    
    100000   97.065062     -33757.575      0             -33657.214     -155.28994      171667.1     
Loop time of 1574.23 on 1 procs for 90000 steps with 8000 atoms

Performance: 4.940 ns/day, 4.859 hours/ns, 57.171 timesteps/s, 457.368 katom-step/s
99.6% CPU use with 1 MPI tasks x 1 OpenMP threads

MPI task timing breakdown:
Section |  min time  |  avg time  |  max time  |%varavg| %total
---------------------------------------------------------------
Pair    | 1551.1     | 1551.1     | 1551.1     |   0.0 | 98.53
Neigh   | 0          | 0          | 0          |   0.0 |  0.00
Comm    | 1.8251     | 1.8251     | 1.8251     |   0.0 |  0.12
Output  | 0.23756    | 0.23756    | 0.23756    |   0.0 |  0.02
Modify  | 19.476     | 19.476     | 19.476     |   0.0 |  1.24
Other   |            | 1.547      |            |       |  0.10

Nlocal:           8000 ave        8000 max        8000 min
Histogram: 1 0 0 0 0 0 0 0 0 0
Nghost:           4995 ave        4995 max        4995 min
Histogram: 1 0 0 0 0 0 0 0 0 0
Neighs:              0 ave           0 max           0 min
Histogram: 1 0 0 0 0 0 0 0 0 0
FullNghs:       224000 ave      224000 max      224000 min
Histogram: 1 0 0 0 0 0 0 0 0 0

Total # of neighbors = 224000
Ave neighs/atom = 28
Neighbor list builds = 0
Dangerous builds = 0
undump           d1
min_modify       line forcezero
minimize         0 0 100000 100000                                                                               # minimize energy
Per MPI rank memory allocation (min/avg/max) = 5.244 | 5.244 | 5.244 Mbytes
   Step          Temp          E_pair         E_mol          TotEng         Press          Volume    
    100000   97.065062     -33757.575      0             -33657.214     -155.28994      171667.1     
    100079   97.065062     -33863.75       0             -33763.389     -1601.4566      171667.1     
Loop time of 2.87555 on 1 procs for 79 steps with 8000 atoms

99.6% CPU use with 1 MPI tasks x 1 OpenMP threads

Minimization stats:
  Stopping criterion = linesearch alpha is zero
  Energy initial, next-to-last, final = 
     -33757.5746846755  -33863.7497504987  -33863.7497504987
  Force two-norm initial, final = 62.934666 7.2819254e-05
  Force max component initial, final = 1.6273368 1.8864235e-06
  Final line search alpha, max atom move = 2.2165053e-07 4.1812676e-13
  Iterations, force evaluations = 79 173

MPI task timing breakdown:
Section |  min time  |  avg time  |  max time  |%varavg| %total
---------------------------------------------------------------
Pair    | 2.8556     | 2.8556     | 2.8556     |   0.0 | 99.31
Neigh   | 0          | 0          | 0          |   0.0 |  0.00
Comm    | 0.0035737  | 0.0035737  | 0.0035737  |   0.0 |  0.12
Output  | 0          | 0          | 0          |   0.0 |  0.00
Modify  | 0          | 0          | 0          |   0.0 |  0.00
Other   |            | 0.01636    |            |       |  0.57

Nlocal:           8000 ave        8000 max        8000 min
Histogram: 1 0 0 0 0 0 0 0 0 0
Nghost:           4995 ave        4995 max        4995 min
Histogram: 1 0 0 0 0 0 0 0 0 0
Neighs:              0 ave           0 max           0 min
Histogram: 1 0 0 0 0 0 0 0 0 0
FullNghs:       224000 ave      224000 max      224000 min
Histogram: 1 0 0 0 0 0 0 0 0 0

Total # of neighbors = 224000
Ave neighs/atom = 28
Neighbor list builds = 0
Dangerous builds = 0
write_dump       all custom md/data/ge_cd/dump_0.08_relaxed.gz id type x y z
#------------------------------------------------------------------------------#
Total wall time: 0:29:09
