LAMMPS (29 Aug 2024)
OMP_NUM_THREADS environment is not set. Defaulting to 1 thread. (src/comm.cpp:98)
  using 1 OpenMP thread(s) per MPI task

#---------------------------- Atomic setup ------------------------------------#
units            metal
timestep         0.001
boundary         p p p
lattice          diamond 5.658
Lattice spacing in x,y,z = 5.658 5.658 5.658
region           sim_box block 0 10 0 10 0 10
create_box       1 sim_box
Created orthogonal box = (0 0 0) to (56.58 56.58 56.58)
  1 by 1 by 1 MPI processor grid
create_atoms     1 box
Created 8000 atoms
  using lattice units in orthogonal box = (0 0 0) to (56.58 56.58 56.58)
  create_atoms CPU = 0.001 seconds

pair_style       tersoff                                             # interatomic potential (Lennard-Jones, EAM, etc.)
pair_coeff       * * ${potentials_dir}/ge.tersoff Ge # interatomic potential parameters (ex. eam.alloy ${potentials_dir}/Cu_u3.eam)
pair_coeff       * * md/potentials/ge.tersoff Ge 
Reading tersoff potential file md/potentials/ge.tersoff with DATE: 2016-12-21
pair_modify      tail yes
neigh_modify     delay 0                                                       # neighbor list update frequency (0 = every timestep)
mass             1 72.64                                                 # atomic mass
variable         rnd equal round(random(0,999999,42))

#----------------------------- Equilibriation ---------------------------------#
velocity         all create 1598.52 ${rnd} dist gaussian              # initial velocities
velocity         all create 1598.52 420940 dist gaussian              
fix              f2 all nph iso 0 0 1.0        # barostat
variable         rnd equal round(random(0,999999,0))
fix              f3 all temp/csvr 1598.52 1598.52 0.1 ${rnd} # thermostat
fix              f3 all temp/csvr 1598.52 1598.52 0.1 53464 
run              10000                                           # equilibriation run
Neighbor list info ...
  update: every = 1 steps, delay = 0 steps, check = yes
  max neighbors/atom: 2000, page size: 100000
  master list distance cutoff = 5.1
  ghost atom cutoff = 5.1
  binsize = 2.55, bins = 23 23 23
  1 neighbor lists, perpetual/occasional/extra = 1 0 0
  (1) pair tersoff, perpetual
      attributes: full, newton on
      pair build: full/bin/atomonly
      stencil: full/bin/3d
      bin: standard
Per MPI rank memory allocation (min/avg/max) = 4.119 | 4.119 | 4.119 Mbytes
   Step          Temp          E_pair         E_mol          TotEng         Press          Volume    
         0   1598.52       -33726.198      0             -32073.405     -32626.87       181129.35    
     10000   1574.8039     -31883.863      0             -30255.591      1018.0012      177217.06    
Loop time of 183.11 on 1 procs for 10000 steps with 8000 atoms

Performance: 4.718 ns/day, 5.086 hours/ns, 54.612 timesteps/s, 436.897 katom-step/s
99.6% CPU use with 1 MPI tasks x 1 OpenMP threads

MPI task timing breakdown:
Section |  min time  |  avg time  |  max time  |%varavg| %total
---------------------------------------------------------------
Pair    | 179.17     | 179.17     | 179.17     |   0.0 | 97.85
Neigh   | 1.4148     | 1.4148     | 1.4148     |   0.0 |  0.77
Comm    | 0.22269    | 0.22269    | 0.22269    |   0.0 |  0.12
Output  | 5.6185e-05 | 5.6185e-05 | 5.6185e-05 |   0.0 |  0.00
Modify  | 2.1294     | 2.1294     | 2.1294     |   0.0 |  1.16
Other   |            | 0.1738     |            |       |  0.09

Nlocal:           8000 ave        8000 max        8000 min
Histogram: 1 0 0 0 0 0 0 0 0 0
Nghost:           4998 ave        4998 max        4998 min
Histogram: 1 0 0 0 0 0 0 0 0 0
Neighs:              0 ave           0 max           0 min
Histogram: 1 0 0 0 0 0 0 0 0 0
FullNghs:       221998 ave      221998 max      221998 min
Histogram: 1 0 0 0 0 0 0 0 0 0

Total # of neighbors = 221998
Ave neighs/atom = 27.74975
Neighbor list builds = 146
Dangerous builds = 0

#----------------------------- Run simulation ---------------------------------#
dump             d1 all custom 10000 md/data/ge_cd/dump_1.32.gz id type x y z # snapshots
run              90000
Per MPI rank memory allocation (min/avg/max) = 4.119 | 4.119 | 4.119 Mbytes
   Step          Temp          E_pair         E_mol          TotEng         Press          Volume    
     10000   1574.8039     -31883.863      0             -30255.591      1018.0012      177217.06    
    100000   1594.2429     -37935.787      0             -36287.417     -3131.7244      118470.04    
Loop time of 5042.59 on 1 procs for 90000 steps with 8000 atoms

Performance: 1.542 ns/day, 15.564 hours/ns, 17.848 timesteps/s, 142.784 katom-step/s
99.6% CPU use with 1 MPI tasks x 1 OpenMP threads

MPI task timing breakdown:
Section |  min time  |  avg time  |  max time  |%varavg| %total
---------------------------------------------------------------
Pair    | 5006.4     | 5006.4     | 5006.4     |   0.0 | 99.28
Neigh   | 12.902     | 12.902     | 12.902     |   0.0 |  0.26
Comm    | 2.138      | 2.138      | 2.138      |   0.0 |  0.04
Output  | 0.24814    | 0.24814    | 0.24814    |   0.0 |  0.00
Modify  | 19.299     | 19.299     | 19.299     |   0.0 |  0.38
Other   |            | 1.594      |            |       |  0.03

Nlocal:           8000 ave        8000 max        8000 min
Histogram: 1 0 0 0 0 0 0 0 0 0
Nghost:           6128 ave        6128 max        6128 min
Histogram: 1 0 0 0 0 0 0 0 0 0
Neighs:              0 ave           0 max           0 min
Histogram: 1 0 0 0 0 0 0 0 0 0
FullNghs:       303898 ave      303898 max      303898 min
Histogram: 1 0 0 0 0 0 0 0 0 0

Total # of neighbors = 303898
Ave neighs/atom = 37.98725
Neighbor list builds = 1212
Dangerous builds = 0
undump           d1
min_modify       line forcezero
minimize         0 0 100000 100000                                                                               # minimize energy
Per MPI rank memory allocation (min/avg/max) = 5.666 | 5.666 | 5.666 Mbytes
   Step          Temp          E_pair         E_mol          TotEng         Press          Volume    
    100000   1594.2429     -37935.787      0             -36287.417     -3131.7244      118470.04    
    100380   1594.2429     -39710.074      0             -38061.704      50945.44       118470.04    
Loop time of 93.5712 on 1 procs for 380 steps with 8000 atoms

99.6% CPU use with 1 MPI tasks x 1 OpenMP threads

Minimization stats:
  Stopping criterion = linesearch alpha is zero
  Energy initial, next-to-last, final = 
     -37935.7871202628  -39710.0741520535  -39710.0741520535
  Force two-norm initial, final = 282.10294 0.00017589051
  Force max component initial, final = 8.3866214 5.6763256e-05
  Final line search alpha, max atom move = 2.8259197e-08 1.6040841e-12
  Iterations, force evaluations = 380 957

MPI task timing breakdown:
Section |  min time  |  avg time  |  max time  |%varavg| %total
---------------------------------------------------------------
Pair    | 93.46      | 93.46      | 93.46      |   0.0 | 99.88
Neigh   | 0          | 0          | 0          |   0.0 |  0.00
Comm    | 0.023873   | 0.023873   | 0.023873   |   0.0 |  0.03
Output  | 0          | 0          | 0          |   0.0 |  0.00
Modify  | 0          | 0          | 0          |   0.0 |  0.00
Other   |            | 0.08739    |            |       |  0.09

Nlocal:           8000 ave        8000 max        8000 min
Histogram: 1 0 0 0 0 0 0 0 0 0
Nghost:           6122 ave        6122 max        6122 min
Histogram: 1 0 0 0 0 0 0 0 0 0
Neighs:              0 ave           0 max           0 min
Histogram: 1 0 0 0 0 0 0 0 0 0
FullNghs:       303590 ave      303590 max      303590 min
Histogram: 1 0 0 0 0 0 0 0 0 0

Total # of neighbors = 303590
Ave neighs/atom = 37.94875
Neighbor list builds = 0
Dangerous builds = 0
write_dump       all custom md/data/ge_cd/dump_1.32_relaxed.gz id type x y z
#------------------------------------------------------------------------------#
Total wall time: 1:28:39
