LAMMPS (29 Aug 2024)
OMP_NUM_THREADS environment is not set. Defaulting to 1 thread. (src/comm.cpp:98)
  using 1 OpenMP thread(s) per MPI task
Lattice spacing in x,y,z = 5.658 5.658 5.658
Created orthogonal box = (0 0 0) to (56.58 56.58 56.58)
  1 by 1 by 1 MPI processor grid
Created 8000 atoms
  using lattice units in orthogonal box = (0 0 0) to (56.58 56.58 56.58)
  create_atoms CPU = 0.001 seconds
Reading tersoff potential file md/potentials/ge.tersoff with DATE: 2016-12-21
Neighbor list info ...
  update: every = 1 steps, delay = 0 steps, check = yes
  max neighbors/atom: 2000, page size: 100000
  master list distance cutoff = 5.1
  ghost atom cutoff = 5.1
  binsize = 2.55, bins = 23 23 23
  1 neighbor lists, perpetual/occasional/extra = 1 0 0
  (1) pair tersoff, perpetual
      attributes: full, newton on
      pair build: full/bin/atomonly
      stencil: full/bin/3d
      bin: standard
Setting up Verlet run ...
  Unit style    : metal
  Current step  : 0
  Time step     : 0.001
Per MPI rank memory allocation (min/avg/max) = 4.119 | 4.119 | 4.119 Mbytes
   Step          Temp          E_pair         E_mol          TotEng         Press          Volume    
         0   1404.76       -33726.198      0             -32273.744     -33808.264      181129.35    
     10000   1389.157      -32144.426      0             -30708.104      312.69793      176806.11    
Loop time of 182.23 on 1 procs for 10000 steps with 8000 atoms

Performance: 4.741 ns/day, 5.062 hours/ns, 54.876 timesteps/s, 439.006 katom-step/s
99.6% CPU use with 1 MPI tasks x 1 OpenMP threads

MPI task timing breakdown:
Section |  min time  |  avg time  |  max time  |%varavg| %total
---------------------------------------------------------------
Pair    | 178.54     | 178.54     | 178.54     |   0.0 | 97.97
Neigh   | 1.1669     | 1.1669     | 1.1669     |   0.0 |  0.64
Comm    | 0.22857    | 0.22857    | 0.22857    |   0.0 |  0.13
Output  | 5.8981e-05 | 5.8981e-05 | 5.8981e-05 |   0.0 |  0.00
Modify  | 2.1239     | 2.1239     | 2.1239     |   0.0 |  1.17
Other   |            | 0.1707     |            |       |  0.09

Nlocal:           8000 ave        8000 max        8000 min
Histogram: 1 0 0 0 0 0 0 0 0 0
Nghost:           4996 ave        4996 max        4996 min
Histogram: 1 0 0 0 0 0 0 0 0 0
Neighs:              0 ave           0 max           0 min
Histogram: 1 0 0 0 0 0 0 0 0 0
FullNghs:       222930 ave      222930 max      222930 min
Histogram: 1 0 0 0 0 0 0 0 0 0

Total # of neighbors = 222930
Ave neighs/atom = 27.86625
Neighbor list builds = 122
Dangerous builds = 0
Setting up Verlet run ...
  Unit style    : metal
  Current step  : 10000
  Time step     : 0.001
Per MPI rank memory allocation (min/avg/max) = 4.119 | 4.119 | 4.119 Mbytes
   Step          Temp          E_pair         E_mol          TotEng         Press          Volume    
     10000   1389.157      -32144.426      0             -30708.104      312.69793      176806.11    
    100000   1421.7584     -32126.93       0             -30656.9        309.68007      176934.33    
Loop time of 1652.36 on 1 procs for 90000 steps with 8000 atoms

Performance: 4.706 ns/day, 5.100 hours/ns, 54.468 timesteps/s, 435.740 katom-step/s
99.6% CPU use with 1 MPI tasks x 1 OpenMP threads

MPI task timing breakdown:
Section |  min time  |  avg time  |  max time  |%varavg| %total
---------------------------------------------------------------
Pair    | 1618.5     | 1618.5     | 1618.5     |   0.0 | 97.95
Neigh   | 10.776     | 10.776     | 10.776     |   0.0 |  0.65
Comm    | 2.0089     | 2.0089     | 2.0089     |   0.0 |  0.12
Output  | 0.24218    | 0.24218    | 0.24218    |   0.0 |  0.01
Modify  | 19.269     | 19.269     | 19.269     |   0.0 |  1.17
Other   |            | 1.578      |            |       |  0.10

Nlocal:           8000 ave        8000 max        8000 min
Histogram: 1 0 0 0 0 0 0 0 0 0
Nghost:           5000 ave        5000 max        5000 min
Histogram: 1 0 0 0 0 0 0 0 0 0
Neighs:              0 ave           0 max           0 min
Histogram: 1 0 0 0 0 0 0 0 0 0
FullNghs:       222824 ave      222824 max      222824 min
Histogram: 1 0 0 0 0 0 0 0 0 0

Total # of neighbors = 222824
Ave neighs/atom = 27.853
Neighbor list builds = 1117
Dangerous builds = 0
Setting up cg style minimization ...
  Unit style    : metal
  Current step  : 100000
Per MPI rank memory allocation (min/avg/max) = 5.264 | 5.264 | 5.264 Mbytes
   Step          Temp          E_pair         E_mol          TotEng         Press          Volume    
    100000   1421.7584     -32126.93       0             -30656.9        309.68007      176934.33    
    100114   1421.7584     -33816.225      0             -32346.195     -17159.219      176934.33    
Loop time of 3.69308 on 1 procs for 114 steps with 8000 atoms

99.6% CPU use with 1 MPI tasks x 1 OpenMP threads

Minimization stats:
  Stopping criterion = linesearch alpha is zero
  Energy initial, next-to-last, final = 
     -32126.9295810956  -33816.2246485014  -33816.2246485014
  Force two-norm initial, final = 205.85566 5.5323539e-05
  Force max component initial, final = 7.1244312 1.7495017e-06
  Final line search alpha, max atom move = 7.6275864e-09 1.3344475e-14
  Iterations, force evaluations = 114 214

MPI task timing breakdown:
Section |  min time  |  avg time  |  max time  |%varavg| %total
---------------------------------------------------------------
Pair    | 3.6669     | 3.6669     | 3.6669     |   0.0 | 99.29
Neigh   | 0          | 0          | 0          |   0.0 |  0.00
Comm    | 0.0044488  | 0.0044488  | 0.0044488  |   0.0 |  0.12
Output  | 0          | 0          | 0          |   0.0 |  0.00
Modify  | 0          | 0          | 0          |   0.0 |  0.00
Other   |            | 0.02172    |            |       |  0.59

Nlocal:           8000 ave        8000 max        8000 min
Histogram: 1 0 0 0 0 0 0 0 0 0
Nghost:           4998 ave        4998 max        4998 min
Histogram: 1 0 0 0 0 0 0 0 0 0
Neighs:              0 ave           0 max           0 min
Histogram: 1 0 0 0 0 0 0 0 0 0
FullNghs:       222846 ave      222846 max      222846 min
Histogram: 1 0 0 0 0 0 0 0 0 0

Total # of neighbors = 222846
Ave neighs/atom = 27.85575
Neighbor list builds = 0
Dangerous builds = 0
Total wall time: 0:30:38
