LAMMPS (29 Aug 2024)
OMP_NUM_THREADS environment is not set. Defaulting to 1 thread. (src/comm.cpp:98)
  using 1 OpenMP thread(s) per MPI task
Lattice spacing in x,y,z = 5.658 5.658 5.658
Created orthogonal box = (0 0 0) to (56.58 56.58 56.58)
  1 by 1 by 1 MPI processor grid
Created 8000 atoms
  using lattice units in orthogonal box = (0 0 0) to (56.58 56.58 56.58)
  create_atoms CPU = 0.001 seconds
Reading tersoff potential file md/potentials/ge.tersoff with DATE: 2016-12-21
Neighbor list info ...
  update: every = 1 steps, delay = 0 steps, check = yes
  max neighbors/atom: 2000, page size: 100000
  master list distance cutoff = 5.1
  ghost atom cutoff = 5.1
  binsize = 2.55, bins = 23 23 23
  1 neighbor lists, perpetual/occasional/extra = 1 0 0
  (1) pair tersoff, perpetual
      attributes: full, newton on
      pair build: full/bin/atomonly
      stencil: full/bin/3d
      bin: standard
Setting up Verlet run ...
  Unit style    : metal
  Current step  : 0
  Time step     : 0.001
Per MPI rank memory allocation (min/avg/max) = 4.119 | 4.119 | 4.119 Mbytes
   Step          Temp          E_pair         E_mol          TotEng         Press          Volume    
         0   145.32        -33726.198      0             -33575.944     -41487.325      181129.35    
     10000   141.74299     -33703.527      0             -33556.971     -96.534648      171850.5     
Loop time of 173.262 on 1 procs for 10000 steps with 8000 atoms

Performance: 4.987 ns/day, 4.813 hours/ns, 57.716 timesteps/s, 461.729 katom-step/s
99.6% CPU use with 1 MPI tasks x 1 OpenMP threads

MPI task timing breakdown:
Section |  min time  |  avg time  |  max time  |%varavg| %total
---------------------------------------------------------------
Pair    | 170.74     | 170.74     | 170.74     |   0.0 | 98.54
Neigh   | 0.013346   | 0.013346   | 0.013346   |   0.0 |  0.01
Comm    | 0.20823    | 0.20823    | 0.20823    |   0.0 |  0.12
Output  | 0.00017825 | 0.00017825 | 0.00017825 |   0.0 |  0.00
Modify  | 2.1337     | 2.1337     | 2.1337     |   0.0 |  1.23
Other   |            | 0.1711     |            |       |  0.10

Nlocal:           8000 ave        8000 max        8000 min
Histogram: 1 0 0 0 0 0 0 0 0 0
Nghost:           4995 ave        4995 max        4995 min
Histogram: 1 0 0 0 0 0 0 0 0 0
Neighs:              0 ave           0 max           0 min
Histogram: 1 0 0 0 0 0 0 0 0 0
FullNghs:       224000 ave      224000 max      224000 min
Histogram: 1 0 0 0 0 0 0 0 0 0

Total # of neighbors = 224000
Ave neighs/atom = 28
Neighbor list builds = 2
Dangerous builds = 0
Setting up Verlet run ...
  Unit style    : metal
  Current step  : 10000
  Time step     : 0.001
Per MPI rank memory allocation (min/avg/max) = 4.119 | 4.119 | 4.119 Mbytes
   Step          Temp          E_pair         E_mol          TotEng         Press          Volume    
     10000   141.74299     -33703.527      0             -33556.971     -96.534648      171850.5     
    100000   146.54112     -33702.996      0             -33551.479      235.5441       171798.77    
Loop time of 1585.17 on 1 procs for 90000 steps with 8000 atoms

Performance: 4.905 ns/day, 4.892 hours/ns, 56.776 timesteps/s, 454.211 katom-step/s
99.6% CPU use with 1 MPI tasks x 1 OpenMP threads

MPI task timing breakdown:
Section |  min time  |  avg time  |  max time  |%varavg| %total
---------------------------------------------------------------
Pair    | 1562       | 1562       | 1562       |   0.0 | 98.54
Neigh   | 0          | 0          | 0          |   0.0 |  0.00
Comm    | 1.8175     | 1.8175     | 1.8175     |   0.0 |  0.11
Output  | 0.23919    | 0.23919    | 0.23919    |   0.0 |  0.02
Modify  | 19.471     | 19.471     | 19.471     |   0.0 |  1.23
Other   |            | 1.592      |            |       |  0.10

Nlocal:           8000 ave        8000 max        8000 min
Histogram: 1 0 0 0 0 0 0 0 0 0
Nghost:           4995 ave        4995 max        4995 min
Histogram: 1 0 0 0 0 0 0 0 0 0
Neighs:              0 ave           0 max           0 min
Histogram: 1 0 0 0 0 0 0 0 0 0
FullNghs:       224000 ave      224000 max      224000 min
Histogram: 1 0 0 0 0 0 0 0 0 0

Total # of neighbors = 224000
Ave neighs/atom = 28
Neighbor list builds = 0
Dangerous builds = 0
Setting up cg style minimization ...
  Unit style    : metal
  Current step  : 100000
Per MPI rank memory allocation (min/avg/max) = 5.244 | 5.244 | 5.244 Mbytes
   Step          Temp          E_pair         E_mol          TotEng         Press          Volume    
    100000   146.54112     -33702.996      0             -33551.479      235.5441       171798.77    
    100083   146.54112     -33863.54       0             -33712.024     -1927.9444      171798.77    
Loop time of 2.91965 on 1 procs for 83 steps with 8000 atoms

99.6% CPU use with 1 MPI tasks x 1 OpenMP threads

Minimization stats:
  Stopping criterion = linesearch alpha is zero
  Energy initial, next-to-last, final = 
     -33702.9956011603  -33863.5403452404  -33863.5403452404
  Force two-norm initial, final = 75.896667 4.7179217e-05
  Force max component initial, final = 2.0244678 1.2544508e-06
  Final line search alpha, max atom move = 7.4615906e-08 9.3601984e-14
  Iterations, force evaluations = 83 176

MPI task timing breakdown:
Section |  min time  |  avg time  |  max time  |%varavg| %total
---------------------------------------------------------------
Pair    | 2.8992     | 2.8992     | 2.8992     |   0.0 | 99.30
Neigh   | 0          | 0          | 0          |   0.0 |  0.00
Comm    | 0.0035906  | 0.0035906  | 0.0035906  |   0.0 |  0.12
Output  | 0          | 0          | 0          |   0.0 |  0.00
Modify  | 0          | 0          | 0          |   0.0 |  0.00
Other   |            | 0.01689    |            |       |  0.58

Nlocal:           8000 ave        8000 max        8000 min
Histogram: 1 0 0 0 0 0 0 0 0 0
Nghost:           4995 ave        4995 max        4995 min
Histogram: 1 0 0 0 0 0 0 0 0 0
Neighs:              0 ave           0 max           0 min
Histogram: 1 0 0 0 0 0 0 0 0 0
FullNghs:       224000 ave      224000 max      224000 min
Histogram: 1 0 0 0 0 0 0 0 0 0

Total # of neighbors = 224000
Ave neighs/atom = 28
Neighbor list builds = 0
Dangerous builds = 0
Total wall time: 0:29:21
