LAMMPS (29 Aug 2024)
OMP_NUM_THREADS environment is not set. Defaulting to 1 thread. (src/comm.cpp:98)
  using 1 OpenMP thread(s) per MPI task

#---------------------------- Atomic setup ------------------------------------#
units            metal
timestep         0.001
boundary         p p p
lattice          diamond 5.658
Lattice spacing in x,y,z = 5.658 5.658 5.658
region           sim_box block 0 10 0 10 0 10
create_box       1 sim_box
Created orthogonal box = (0 0 0) to (56.58 56.58 56.58)
  1 by 1 by 1 MPI processor grid
create_atoms     1 box
Created 8000 atoms
  using lattice units in orthogonal box = (0 0 0) to (56.58 56.58 56.58)
  create_atoms CPU = 0.001 seconds

pair_style       tersoff                                             # interatomic potential (Lennard-Jones, EAM, etc.)
pair_coeff       * * ${potentials_dir}/ge.tersoff Ge # interatomic potential parameters (ex. eam.alloy ${potentials_dir}/Cu_u3.eam)
pair_coeff       * * md/potentials/ge.tersoff Ge 
Reading tersoff potential file md/potentials/ge.tersoff with DATE: 2016-12-21
pair_modify      tail yes
neigh_modify     delay 0                                                       # neighbor list update frequency (0 = every timestep)
mass             1 72.64                                                 # atomic mass
variable         rnd equal round(random(0,999999,42))

#----------------------------- Equilibriation ---------------------------------#
velocity         all create 290.64 ${rnd} dist gaussian              # initial velocities
velocity         all create 290.64 420940 dist gaussian              
fix              f2 all nph iso 0 0 1.0        # barostat
variable         rnd equal round(random(0,999999,0))
fix              f3 all temp/csvr 290.64 290.64 0.1 ${rnd} # thermostat
fix              f3 all temp/csvr 290.64 290.64 0.1 53464 
run              10000                                           # equilibriation run
Neighbor list info ...
  update: every = 1 steps, delay = 0 steps, check = yes
  max neighbors/atom: 2000, page size: 100000
  master list distance cutoff = 5.1
  ghost atom cutoff = 5.1
  binsize = 2.55, bins = 23 23 23
  1 neighbor lists, perpetual/occasional/extra = 1 0 0
  (1) pair tersoff, perpetual
      attributes: full, newton on
      pair build: full/bin/atomonly
      stencil: full/bin/3d
      bin: standard
Per MPI rank memory allocation (min/avg/max) = 4.119 | 4.119 | 4.119 Mbytes
   Step          Temp          E_pair         E_mol          TotEng         Press          Volume    
         0   290.64        -33726.198      0             -33425.69      -40601.279      181129.35    
     10000   287.16295     -33537.422      0             -33240.51       596.46662      172320.11    
Loop time of 174.818 on 1 procs for 10000 steps with 8000 atoms

Performance: 4.942 ns/day, 4.856 hours/ns, 57.202 timesteps/s, 457.619 katom-step/s
99.6% CPU use with 1 MPI tasks x 1 OpenMP threads

MPI task timing breakdown:
Section |  min time  |  avg time  |  max time  |%varavg| %total
---------------------------------------------------------------
Pair    | 172.29     | 172.29     | 172.29     |   0.0 | 98.55
Neigh   | 0.014255   | 0.014255   | 0.014255   |   0.0 |  0.01
Comm    | 0.20809    | 0.20809    | 0.20809    |   0.0 |  0.12
Output  | 0.00019796 | 0.00019796 | 0.00019796 |   0.0 |  0.00
Modify  | 2.1308     | 2.1308     | 2.1308     |   0.0 |  1.22
Other   |            | 0.1761     |            |       |  0.10

Nlocal:           8000 ave        8000 max        8000 min
Histogram: 1 0 0 0 0 0 0 0 0 0
Nghost:           4995 ave        4995 max        4995 min
Histogram: 1 0 0 0 0 0 0 0 0 0
Neighs:              0 ave           0 max           0 min
Histogram: 1 0 0 0 0 0 0 0 0 0
FullNghs:       224000 ave      224000 max      224000 min
Histogram: 1 0 0 0 0 0 0 0 0 0

Total # of neighbors = 224000
Ave neighs/atom = 28
Neighbor list builds = 2
Dangerous builds = 0

#----------------------------- Run simulation ---------------------------------#
dump             d1 all custom 10000 md/data/ge_cd/dump_0.24.gz id type x y z # snapshots
run              90000
Per MPI rank memory allocation (min/avg/max) = 4.119 | 4.119 | 4.119 Mbytes
   Step          Temp          E_pair         E_mol          TotEng         Press          Volume    
     10000   287.16295     -33537.422      0             -33240.51       596.46662      172320.11    
    100000   290.64987     -33529.022      0             -33228.504     -497.08919      172591.93    
Loop time of 1599.84 on 1 procs for 90000 steps with 8000 atoms

Performance: 4.860 ns/day, 4.938 hours/ns, 56.256 timesteps/s, 450.045 katom-step/s
99.6% CPU use with 1 MPI tasks x 1 OpenMP threads

MPI task timing breakdown:
Section |  min time  |  avg time  |  max time  |%varavg| %total
---------------------------------------------------------------
Pair    | 1576.6     | 1576.6     | 1576.6     |   0.0 | 98.55
Neigh   | 0          | 0          | 0          |   0.0 |  0.00
Comm    | 1.8973     | 1.8973     | 1.8973     |   0.0 |  0.12
Output  | 0.23779    | 0.23779    | 0.23779    |   0.0 |  0.01
Modify  | 19.466     | 19.466     | 19.466     |   0.0 |  1.22
Other   |            | 1.591      |            |       |  0.10

Nlocal:           8000 ave        8000 max        8000 min
Histogram: 1 0 0 0 0 0 0 0 0 0
Nghost:           4995 ave        4995 max        4995 min
Histogram: 1 0 0 0 0 0 0 0 0 0
Neighs:              0 ave           0 max           0 min
Histogram: 1 0 0 0 0 0 0 0 0 0
FullNghs:       224000 ave      224000 max      224000 min
Histogram: 1 0 0 0 0 0 0 0 0 0

Total # of neighbors = 224000
Ave neighs/atom = 28
Neighbor list builds = 0
Dangerous builds = 0
undump           d1
min_modify       line forcezero
minimize         0 0 100000 100000                                                                               # minimize energy
Per MPI rank memory allocation (min/avg/max) = 5.244 | 5.244 | 5.244 Mbytes
   Step          Temp          E_pair         E_mol          TotEng         Press          Volume    
    100000   290.64987     -33529.022      0             -33228.504     -497.08919      172591.93    
    100085   290.64987     -33861.169      0             -33560.651     -4834.5915      172591.93    
Loop time of 3.05564 on 1 procs for 85 steps with 8000 atoms

99.6% CPU use with 1 MPI tasks x 1 OpenMP threads

Minimization stats:
  Stopping criterion = linesearch alpha is zero
  Energy initial, next-to-last, final = 
     -33529.0217930721  -33861.1690135685  -33861.1690135685
  Force two-norm initial, final = 104.51562 5.1400604e-05
  Force max component initial, final = 2.4279915 1.643266e-06
  Final line search alpha, max atom move = 0.0079133893 1.3003804e-08
  Iterations, force evaluations = 85 183

MPI task timing breakdown:
Section |  min time  |  avg time  |  max time  |%varavg| %total
---------------------------------------------------------------
Pair    | 3.0343     | 3.0343     | 3.0343     |   0.0 | 99.30
Neigh   | 0          | 0          | 0          |   0.0 |  0.00
Comm    | 0.0037974  | 0.0037974  | 0.0037974  |   0.0 |  0.12
Output  | 0          | 0          | 0          |   0.0 |  0.00
Modify  | 0          | 0          | 0          |   0.0 |  0.00
Other   |            | 0.01753    |            |       |  0.57

Nlocal:           8000 ave        8000 max        8000 min
Histogram: 1 0 0 0 0 0 0 0 0 0
Nghost:           4995 ave        4995 max        4995 min
Histogram: 1 0 0 0 0 0 0 0 0 0
Neighs:              0 ave           0 max           0 min
Histogram: 1 0 0 0 0 0 0 0 0 0
FullNghs:       224000 ave      224000 max      224000 min
Histogram: 1 0 0 0 0 0 0 0 0 0

Total # of neighbors = 224000
Ave neighs/atom = 28
Neighbor list builds = 0
Dangerous builds = 0
write_dump       all custom md/data/ge_cd/dump_0.24_relaxed.gz id type x y z
#------------------------------------------------------------------------------#
Total wall time: 0:29:37
