LAMMPS (29 Aug 2024)
OMP_NUM_THREADS environment is not set. Defaulting to 1 thread. (src/comm.cpp:98)
  using 1 OpenMP thread(s) per MPI task
Lattice spacing in x,y,z = 5.658 5.658 5.658
Created orthogonal box = (0 0 0) to (56.58 56.58 56.58)
  1 by 1 by 1 MPI processor grid
Created 8000 atoms
  using lattice units in orthogonal box = (0 0 0) to (56.58 56.58 56.58)
  create_atoms CPU = 0.001 seconds
Reading tersoff potential file md/potentials/ge.tersoff with DATE: 2016-12-21
Neighbor list info ...
  update: every = 1 steps, delay = 0 steps, check = yes
  max neighbors/atom: 2000, page size: 100000
  master list distance cutoff = 5.1
  ghost atom cutoff = 5.1
  binsize = 2.55, bins = 23 23 23
  1 neighbor lists, perpetual/occasional/extra = 1 0 0
  (1) pair tersoff, perpetual
      attributes: full, newton on
      pair build: full/bin/atomonly
      stencil: full/bin/3d
      bin: standard
Setting up Verlet run ...
  Unit style    : metal
  Current step  : 0
  Time step     : 0.001
Per MPI rank memory allocation (min/avg/max) = 4.119 | 4.119 | 4.119 Mbytes
   Step          Temp          E_pair         E_mol          TotEng         Press          Volume    
         0   193.76        -33726.198      0             -33525.859     -41191.976      181129.35    
     10000   194.23974     -33653.228      0             -33452.393      603.40248      171914.06    
Loop time of 174.568 on 1 procs for 10000 steps with 8000 atoms

Performance: 4.949 ns/day, 4.849 hours/ns, 57.284 timesteps/s, 458.275 katom-step/s
99.6% CPU use with 1 MPI tasks x 1 OpenMP threads

MPI task timing breakdown:
Section |  min time  |  avg time  |  max time  |%varavg| %total
---------------------------------------------------------------
Pair    | 172.04     | 172.04     | 172.04     |   0.0 | 98.55
Neigh   | 0.013805   | 0.013805   | 0.013805   |   0.0 |  0.01
Comm    | 0.20652    | 0.20652    | 0.20652    |   0.0 |  0.12
Output  | 0.00016508 | 0.00016508 | 0.00016508 |   0.0 |  0.00
Modify  | 2.1381     | 2.1381     | 2.1381     |   0.0 |  1.22
Other   |            | 0.1719     |            |       |  0.10

Nlocal:           8000 ave        8000 max        8000 min
Histogram: 1 0 0 0 0 0 0 0 0 0
Nghost:           4995 ave        4995 max        4995 min
Histogram: 1 0 0 0 0 0 0 0 0 0
Neighs:              0 ave           0 max           0 min
Histogram: 1 0 0 0 0 0 0 0 0 0
FullNghs:       224000 ave      224000 max      224000 min
Histogram: 1 0 0 0 0 0 0 0 0 0

Total # of neighbors = 224000
Ave neighs/atom = 28
Neighbor list builds = 2
Dangerous builds = 0
Setting up Verlet run ...
  Unit style    : metal
  Current step  : 10000
  Time step     : 0.001
Per MPI rank memory allocation (min/avg/max) = 4.119 | 4.119 | 4.119 Mbytes
   Step          Temp          E_pair         E_mol          TotEng         Press          Volume    
     10000   194.23974     -33653.228      0             -33452.393      603.40248      171914.06    
    100000   195.80713     -33646.604      0             -33444.149      931.28129      171860.55    
Loop time of 1597.53 on 1 procs for 90000 steps with 8000 atoms

Performance: 4.867 ns/day, 4.931 hours/ns, 56.337 timesteps/s, 450.694 katom-step/s
99.6% CPU use with 1 MPI tasks x 1 OpenMP threads

MPI task timing breakdown:
Section |  min time  |  avg time  |  max time  |%varavg| %total
---------------------------------------------------------------
Pair    | 1574.4     | 1574.4     | 1574.4     |   0.0 | 98.55
Neigh   | 0          | 0          | 0          |   0.0 |  0.00
Comm    | 1.8228     | 1.8228     | 1.8228     |   0.0 |  0.11
Output  | 0.23664    | 0.23664    | 0.23664    |   0.0 |  0.01
Modify  | 19.46      | 19.46      | 19.46      |   0.0 |  1.22
Other   |            | 1.578      |            |       |  0.10

Nlocal:           8000 ave        8000 max        8000 min
Histogram: 1 0 0 0 0 0 0 0 0 0
Nghost:           4995 ave        4995 max        4995 min
Histogram: 1 0 0 0 0 0 0 0 0 0
Neighs:              0 ave           0 max           0 min
Histogram: 1 0 0 0 0 0 0 0 0 0
FullNghs:       224000 ave      224000 max      224000 min
Histogram: 1 0 0 0 0 0 0 0 0 0

Total # of neighbors = 224000
Ave neighs/atom = 28
Neighbor list builds = 0
Dangerous builds = 0
Setting up cg style minimization ...
  Unit style    : metal
  Current step  : 100000
Per MPI rank memory allocation (min/avg/max) = 5.244 | 5.244 | 5.244 Mbytes
   Step          Temp          E_pair         E_mol          TotEng         Press          Volume    
    100000   195.80713     -33646.604      0             -33444.149      931.28129      171860.55    
    100084   195.80713     -33863.424      0             -33660.969     -1913.0339      171860.55    
Loop time of 3.03955 on 1 procs for 84 steps with 8000 atoms

99.6% CPU use with 1 MPI tasks x 1 OpenMP threads

Minimization stats:
  Stopping criterion = linesearch alpha is zero
  Energy initial, next-to-last, final = 
     -33646.6042690134  -33863.4238519304  -33863.4238519304
  Force two-norm initial, final = 86.258858 4.0716448e-05
  Force max component initial, final = 2.3057654 1.1315438e-06
  Final line search alpha, max atom move = 0.0074373737 8.4157138e-09
  Iterations, force evaluations = 84 182

MPI task timing breakdown:
Section |  min time  |  avg time  |  max time  |%varavg| %total
---------------------------------------------------------------
Pair    | 3.0184     | 3.0184     | 3.0184     |   0.0 | 99.31
Neigh   | 0          | 0          | 0          |   0.0 |  0.00
Comm    | 0.0037404  | 0.0037404  | 0.0037404  |   0.0 |  0.12
Output  | 0          | 0          | 0          |   0.0 |  0.00
Modify  | 0          | 0          | 0          |   0.0 |  0.00
Other   |            | 0.01737    |            |       |  0.57

Nlocal:           8000 ave        8000 max        8000 min
Histogram: 1 0 0 0 0 0 0 0 0 0
Nghost:           4995 ave        4995 max        4995 min
Histogram: 1 0 0 0 0 0 0 0 0 0
Neighs:              0 ave           0 max           0 min
Histogram: 1 0 0 0 0 0 0 0 0 0
FullNghs:       224000 ave      224000 max      224000 min
Histogram: 1 0 0 0 0 0 0 0 0 0

Total # of neighbors = 224000
Ave neighs/atom = 28
Neighbor list builds = 0
Dangerous builds = 0
Total wall time: 0:29:35
