LAMMPS (29 Aug 2024)
OMP_NUM_THREADS environment is not set. Defaulting to 1 thread. (src/comm.cpp:98)
  using 1 OpenMP thread(s) per MPI task

#---------------------------- Atomic setup ------------------------------------#
units            metal
timestep         0.001
boundary         p p p
lattice          diamond 5.658
Lattice spacing in x,y,z = 5.658 5.658 5.658
region           sim_box block 0 10 0 10 0 10
create_box       1 sim_box
Created orthogonal box = (0 0 0) to (56.58 56.58 56.58)
  2 by 2 by 4 MPI processor grid
create_atoms     1 box
Created 8000 atoms
  using lattice units in orthogonal box = (0 0 0) to (56.58 56.58 56.58)
  create_atoms CPU = 0.012 seconds

pair_style       tersoff                                             # interatomic potential (Lennard-Jones, EAM, etc.)
pair_coeff       * * ${potentials_dir}/ge.tersoff Ge # interatomic potential parameters (ex. eam.alloy ${potentials_dir}/Cu_u3.eam)
pair_coeff       * * md/potentials/ge.tersoff Ge 
Reading tersoff potential file md/potentials/ge.tersoff with DATE: 2016-12-21
pair_modify      tail yes
neigh_modify     delay 0                                                       # neighbor list update frequency (0 = every timestep)
mass             1 72.64                                                 # atomic mass
variable         rnd equal round(random(0,999999,42))

#----------------------------- Equilibriation ---------------------------------#
velocity         all create 1889.16 ${rnd} dist gaussian              # initial velocities
velocity         all create 1889.16 420940 dist gaussian              
fix              f2 all nph iso 0 0 1.0        # barostat
variable         rnd equal round(random(0,999999,0))
fix              f3 all temp/csvr 1889.16 1889.16 0.1 ${rnd} # thermostat
fix              f3 all temp/csvr 1889.16 1889.16 0.1 53464 
run              10000                                           # equilibriation run
Neighbor list info ...
  update: every = 1 steps, delay = 0 steps, check = yes
  max neighbors/atom: 2000, page size: 100000
  master list distance cutoff = 5.1
  ghost atom cutoff = 5.1
  binsize = 2.55, bins = 23 23 23
  1 neighbor lists, perpetual/occasional/extra = 1 0 0
  (1) pair tersoff, perpetual
      attributes: full, newton on
      pair build: full/bin/atomonly
      stencil: full/bin/3d
      bin: standard
Per MPI rank memory allocation (min/avg/max) = 3.116 | 3.116 | 3.116 Mbytes
   Step          Temp          E_pair         E_mol          TotEng         Press          Volume    
         0   1889.16       -33726.198      0             -31772.897     -30854.779      181129.35    
     10000   1895.6277     -31530.664      0             -29570.676     -773.41593      177386.08    
Loop time of 13.3039 on 16 procs for 10000 steps with 8000 atoms

Performance: 64.943 ns/day, 0.370 hours/ns, 751.657 timesteps/s, 6.013 Matom-step/s
99.4% CPU use with 16 MPI tasks x 1 OpenMP threads

MPI task timing breakdown:
Section |  min time  |  avg time  |  max time  |%varavg| %total
---------------------------------------------------------------
Pair    | 11.335     | 11.518     | 12.054     |   5.2 | 86.58
Neigh   | 0.10548    | 0.10656    | 0.10882    |   0.3 |  0.80
Comm    | 0.75691    | 1.1817     | 1.5124     |  20.7 |  8.88
Output  | 3.3172e-05 | 4.1069e-05 | 0.00015311 |   0.0 |  0.00
Modify  | 0.30449    | 0.45019    | 0.68245    |  22.1 |  3.38
Other   |            | 0.04718    |            |       |  0.35

Nlocal:            500 ave         521 max         487 min
Histogram: 2 3 1 2 5 0 1 1 0 1
Nghost:        1062.25 ave        1078 max        1042 min
Histogram: 1 0 1 2 4 1 2 2 1 2
Neighs:              0 ave           0 max           0 min
Histogram: 16 0 0 0 0 0 0 0 0 0
FullNghs:      13786.5 ave       14330 max       13389 min
Histogram: 2 2 1 1 6 1 1 0 1 1

Total # of neighbors = 220584
Ave neighs/atom = 27.573
Neighbor list builds = 167
Dangerous builds = 0

#----------------------------- Run simulation ---------------------------------#
dump             d1 all custom 10000 md/data/ge_cd/dump_1.56.gz id type x y z # snapshots
run              90000
Per MPI rank memory allocation (min/avg/max) = 3.116 | 3.116 | 3.116 Mbytes
   Step          Temp          E_pair         E_mol          TotEng         Press          Volume    
     10000   1895.6277     -31530.664      0             -29570.676     -773.41593      177386.08    
    100000   1902.5387     -37209.436      0             -35242.302     -592.64101      119532.34    
Loop time of 550.092 on 16 procs for 90000 steps with 8000 atoms

Performance: 14.136 ns/day, 1.698 hours/ns, 163.609 timesteps/s, 1.309 Matom-step/s
99.6% CPU use with 16 MPI tasks x 1 OpenMP threads

MPI task timing breakdown:
Section |  min time  |  avg time  |  max time  |%varavg| %total
---------------------------------------------------------------
Pair    | 493.53     | 510.76     | 527.06     |  41.0 | 92.85
Neigh   | 1.0397     | 1.0647     | 1.0898     |   1.3 |  0.19
Comm    | 17.825     | 32.543     | 50.824     | 149.7 |  5.92
Output  | 0.017381   | 0.095498   | 0.18528    |  14.9 |  0.02
Modify  | 3.5952     | 5.2179     | 9.132      |  98.1 |  0.95
Other   |            | 0.4083     |            |       |  0.07

Nlocal:            500 ave         506 max         491 min
Histogram: 1 1 2 1 2 1 0 2 0 6
Nghost:        1330.31 ave        1347 max        1317 min
Histogram: 2 1 1 5 2 0 1 0 2 2
Neighs:              0 ave           0 max           0 min
Histogram: 16 0 0 0 0 0 0 0 0 0
FullNghs:      18788.4 ave       19029 max       18368 min
Histogram: 1 1 2 1 0 1 2 0 3 5

Total # of neighbors = 300614
Ave neighs/atom = 37.57675
Neighbor list builds = 1384
Dangerous builds = 0
undump           d1
min_modify       line forcezero
minimize         0 0 100000 100000                                                                               # minimize energy
Per MPI rank memory allocation (min/avg/max) = 4.243 | 4.243 | 4.243 Mbytes
   Step          Temp          E_pair         E_mol          TotEng         Press          Volume    
    100000   1902.5387     -37209.436      0             -35242.302     -592.64101      119532.34    
    100463   1902.5387     -39317.927      0             -37350.793      52830.301      119532.34    
Loop time of 7.33476 on 16 procs for 463 steps with 8000 atoms

99.6% CPU use with 16 MPI tasks x 1 OpenMP threads

Minimization stats:
  Stopping criterion = linesearch alpha is zero
  Energy initial, next-to-last, final = 
      -37209.435678868   -39317.926570622   -39317.926570622
  Force two-norm initial, final = 304.53377 3.7779334e-05
  Force max component initial, final = 9.6494347 4.2591514e-06
  Final line search alpha, max atom move = 2.3478137e-08 9.999694e-14
  Iterations, force evaluations = 463 1160

MPI task timing breakdown:
Section |  min time  |  avg time  |  max time  |%varavg| %total
---------------------------------------------------------------
Pair    | 6.8496     | 7.055      | 7.2631     |   5.1 | 96.19
Neigh   | 0          | 0          | 0          |   0.0 |  0.00
Comm    | 0.052001   | 0.24903    | 0.46551    |  25.8 |  3.40
Output  | 0          | 0          | 0          |   0.0 |  0.00
Modify  | 0          | 0          | 0          |   0.0 |  0.00
Other   |            | 0.03069    |            |       |  0.42

Nlocal:            500 ave         507 max         492 min
Histogram: 3 1 1 1 2 0 1 1 2 4
Nghost:        1326.19 ave        1342 max        1311 min
Histogram: 2 1 0 4 1 2 0 5 0 1
Neighs:              0 ave           0 max           0 min
Histogram: 16 0 0 0 0 0 0 0 0 0
FullNghs:      18766.6 ave       19153 max       18352 min
Histogram: 2 1 1 2 1 2 0 4 1 2

Total # of neighbors = 300266
Ave neighs/atom = 37.53325
Neighbor list builds = 0
Dangerous builds = 0
write_dump       all custom md/data/ge_cd/dump_1.56_relaxed.gz id type x y z
#------------------------------------------------------------------------------#
Total wall time: 0:09:31
