LAMMPS (29 Aug 2024)
OMP_NUM_THREADS environment is not set. Defaulting to 1 thread. (src/comm.cpp:98)
  using 1 OpenMP thread(s) per MPI task
Lattice spacing in x,y,z = 5.658 5.658 5.658
Created orthogonal box = (0 0 0) to (56.58 56.58 56.58)
  2 by 2 by 4 MPI processor grid
Created 8000 atoms
  using lattice units in orthogonal box = (0 0 0) to (56.58 56.58 56.58)
  create_atoms CPU = 0.001 seconds
Reading tersoff potential file md/potentials/ge.tersoff with DATE: 2016-12-21
Neighbor list info ...
  update: every = 1 steps, delay = 0 steps, check = yes
  max neighbors/atom: 2000, page size: 100000
  master list distance cutoff = 5.1
  ghost atom cutoff = 5.1
  binsize = 2.55, bins = 23 23 23
  1 neighbor lists, perpetual/occasional/extra = 1 0 0
  (1) pair tersoff, perpetual
      attributes: full, newton on
      pair build: full/bin/atomonly
      stencil: full/bin/3d
      bin: standard
Setting up Verlet run ...
  Unit style    : metal
  Current step  : 0
  Time step     : 0.001
Per MPI rank memory allocation (min/avg/max) = 3.116 | 3.116 | 3.116 Mbytes
   Step          Temp          E_pair         E_mol          TotEng         Press          Volume    
         0   1937.6        -33726.198      0             -31722.813     -30559.431      181129.35    
     10000   1938.2253     -31440.673      0             -29436.641      869.16741      174945.49    
Loop time of 13.3977 on 16 procs for 10000 steps with 8000 atoms

Performance: 64.489 ns/day, 0.372 hours/ns, 746.398 timesteps/s, 5.971 Matom-step/s
99.5% CPU use with 16 MPI tasks x 1 OpenMP threads

MPI task timing breakdown:
Section |  min time  |  avg time  |  max time  |%varavg| %total
---------------------------------------------------------------
Pair    | 11.419     | 11.748     | 12.417     |   7.8 | 87.69
Neigh   | 0.10791    | 0.10957    | 0.11142    |   0.3 |  0.82
Comm    | 0.5439     | 1.0988     | 1.5199     |  24.2 |  8.20
Output  | 3.2812e-05 | 4.4014e-05 | 0.00020691 |   0.0 |  0.00
Modify  | 0.28523    | 0.40119    | 0.69918    |  27.1 |  2.99
Other   |            | 0.03968    |            |       |  0.30

Nlocal:            500 ave         519 max         478 min
Histogram: 1 1 1 1 1 6 1 2 0 2
Nghost:        1067.06 ave        1090 max        1041 min
Histogram: 1 1 1 2 2 4 0 2 2 1
Neighs:              0 ave           0 max           0 min
Histogram: 16 0 0 0 0 0 0 0 0 0
FullNghs:      13824.4 ave       14484 max       13179 min
Histogram: 1 2 0 2 4 2 1 2 0 2

Total # of neighbors = 221190
Ave neighs/atom = 27.64875
Neighbor list builds = 171
Dangerous builds = 0
Setting up Verlet run ...
  Unit style    : metal
  Current step  : 10000
  Time step     : 0.001
Per MPI rank memory allocation (min/avg/max) = 3.116 | 3.116 | 3.116 Mbytes
   Step          Temp          E_pair         E_mol          TotEng         Press          Volume    
     10000   1938.2253     -31440.673      0             -29436.641      869.16741      174945.49    
    100000   1950.8823     -37224.403      0             -35207.285     -1849.8746      119567.49    
Loop time of 569.842 on 16 procs for 90000 steps with 8000 atoms

Performance: 13.646 ns/day, 1.759 hours/ns, 157.938 timesteps/s, 1.264 Matom-step/s
99.6% CPU use with 16 MPI tasks x 1 OpenMP threads

MPI task timing breakdown:
Section |  min time  |  avg time  |  max time  |%varavg| %total
---------------------------------------------------------------
Pair    | 511.35     | 526.58     | 536.64     |  29.4 | 92.41
Neigh   | 1.074      | 1.0892     | 1.1074     |   0.8 |  0.19
Comm    | 21.799     | 36.006     | 52.22      | 127.1 |  6.32
Output  | 0.017225   | 0.096423   | 0.18583    |  15.2 |  0.02
Modify  | 2.9804     | 5.6521     | 9.8412     | 105.8 |  0.99
Other   |            | 0.4156     |            |       |  0.07

Nlocal:            500 ave         511 max         487 min
Histogram: 1 0 3 2 3 0 2 1 1 3
Nghost:        1326.44 ave        1353 max        1301 min
Histogram: 1 0 1 4 2 5 0 2 0 1
Neighs:              0 ave           0 max           0 min
Histogram: 16 0 0 0 0 0 0 0 0 0
FullNghs:      18822.5 ave       19468 max       18172 min
Histogram: 1 0 4 2 2 2 0 2 2 1

Total # of neighbors = 301160
Ave neighs/atom = 37.645
Neighbor list builds = 1408
Dangerous builds = 0
Setting up cg style minimization ...
  Unit style    : metal
  Current step  : 100000
Per MPI rank memory allocation (min/avg/max) = 4.243 | 4.243 | 4.243 Mbytes
   Step          Temp          E_pair         E_mol          TotEng         Press          Volume    
    100000   1950.8823     -37224.403      0             -35207.285     -1849.8746      119567.49    
    100426   1950.8823     -39372.587      0             -37355.469      52128.041      119567.49    
Loop time of 7.02623 on 16 procs for 426 steps with 8000 atoms

99.6% CPU use with 16 MPI tasks x 1 OpenMP threads

Minimization stats:
  Stopping criterion = linesearch alpha is zero
  Energy initial, next-to-last, final = 
     -37224.4031830173  -39372.5874967668  -39372.5874967668
  Force two-norm initial, final = 306.30764 4.4584624e-05
  Force max component initial, final = 8.3443446 5.7656972e-06
  Final line search alpha, max atom move = 2.3890718e-08 1.3774665e-13
  Iterations, force evaluations = 426 1096

MPI task timing breakdown:
Section |  min time  |  avg time  |  max time  |%varavg| %total
---------------------------------------------------------------
Pair    | 6.1725     | 6.4194     | 6.9652     |   8.2 | 91.36
Neigh   | 0          | 0          | 0          |   0.0 |  0.00
Comm    | 0.043259   | 0.50527    | 0.82414    |  30.5 |  7.19
Output  | 0          | 0          | 0          |   0.0 |  0.00
Modify  | 0          | 0          | 0          |   0.0 |  0.00
Other   |            | 0.1016     |            |       |  1.45

Nlocal:            500 ave         512 max         485 min
Histogram: 1 0 1 3 4 0 2 1 1 3
Nghost:        1324.81 ave        1354 max        1301 min
Histogram: 1 0 2 4 3 3 1 1 0 1
Neighs:              0 ave           0 max           0 min
Histogram: 16 0 0 0 0 0 0 0 0 0
FullNghs:      18821.2 ave       19565 max       18080 min
Histogram: 1 0 3 2 2 2 3 1 1 1

Total # of neighbors = 301140
Ave neighs/atom = 37.6425
Neighbor list builds = 0
Dangerous builds = 0
Total wall time: 0:09:50
