LAMMPS (29 Aug 2024)
OMP_NUM_THREADS environment is not set. Defaulting to 1 thread. (src/comm.cpp:98)
  using 1 OpenMP thread(s) per MPI task
Lattice spacing in x,y,z = 5.658 5.658 5.658
Created orthogonal box = (0 0 0) to (56.58 56.58 56.58)
  1 by 1 by 1 MPI processor grid
Created 8000 atoms
  using lattice units in orthogonal box = (0 0 0) to (56.58 56.58 56.58)
  create_atoms CPU = 0.001 seconds
Reading tersoff potential file md/potentials/ge.tersoff with DATE: 2016-12-21
Neighbor list info ...
  update: every = 1 steps, delay = 0 steps, check = yes
  max neighbors/atom: 2000, page size: 100000
  master list distance cutoff = 5.1
  ghost atom cutoff = 5.1
  binsize = 2.55, bins = 23 23 23
  1 neighbor lists, perpetual/occasional/extra = 1 0 0
  (1) pair tersoff, perpetual
      attributes: full, newton on
      pair build: full/bin/atomonly
      stencil: full/bin/3d
      bin: standard
Setting up Verlet run ...
  Unit style    : metal
  Current step  : 0
  Time step     : 0.001
Per MPI rank memory allocation (min/avg/max) = 4.119 | 4.119 | 4.119 Mbytes
   Step          Temp          E_pair         E_mol          TotEng         Press          Volume    
         0   726.6         -33726.198      0             -32974.929     -37943.143      181129.35    
     10000   721.1722      -33013.934      0             -32268.277      235.09246      174222.17    
Loop time of 177.188 on 1 procs for 10000 steps with 8000 atoms

Performance: 4.876 ns/day, 4.922 hours/ns, 56.437 timesteps/s, 451.499 katom-step/s
99.6% CPU use with 1 MPI tasks x 1 OpenMP threads

MPI task timing breakdown:
Section |  min time  |  avg time  |  max time  |%varavg| %total
---------------------------------------------------------------
Pair    | 174.66     | 174.66     | 174.66     |   0.0 | 98.57
Neigh   | 0.032946   | 0.032946   | 0.032946   |   0.0 |  0.02
Comm    | 0.19968    | 0.19968    | 0.19968    |   0.0 |  0.11
Output  | 0.00017523 | 0.00017523 | 0.00017523 |   0.0 |  0.00
Modify  | 2.1218     | 2.1218     | 2.1218     |   0.0 |  1.20
Other   |            | 0.1723     |            |       |  0.10

Nlocal:           8000 ave        8000 max        8000 min
Histogram: 1 0 0 0 0 0 0 0 0 0
Nghost:           4995 ave        4995 max        4995 min
Histogram: 1 0 0 0 0 0 0 0 0 0
Neighs:              0 ave           0 max           0 min
Histogram: 1 0 0 0 0 0 0 0 0 0
FullNghs:       223984 ave      223984 max      223984 min
Histogram: 1 0 0 0 0 0 0 0 0 0

Total # of neighbors = 223984
Ave neighs/atom = 27.998
Neighbor list builds = 4
Dangerous builds = 0
Setting up Verlet run ...
  Unit style    : metal
  Current step  : 10000
  Time step     : 0.001
Per MPI rank memory allocation (min/avg/max) = 4.119 | 4.119 | 4.119 Mbytes
   Step          Temp          E_pair         E_mol          TotEng         Press          Volume    
     10000   721.1722      -33013.934      0             -32268.277      235.09246      174222.17    
    100000   736.25144     -32998.135      0             -32236.887      664.91865      174201.74    
Loop time of 1624.38 on 1 procs for 90000 steps with 8000 atoms

Performance: 4.787 ns/day, 5.014 hours/ns, 55.406 timesteps/s, 443.247 katom-step/s
99.6% CPU use with 1 MPI tasks x 1 OpenMP threads

MPI task timing breakdown:
Section |  min time  |  avg time  |  max time  |%varavg| %total
---------------------------------------------------------------
Pair    | 1601.3     | 1601.3     | 1601.3     |   0.0 | 98.58
Neigh   | 0.016472   | 0.016472   | 0.016472   |   0.0 |  0.00
Comm    | 1.8088     | 1.8088     | 1.8088     |   0.0 |  0.11
Output  | 0.23863    | 0.23863    | 0.23863    |   0.0 |  0.01
Modify  | 19.446     | 19.446     | 19.446     |   0.0 |  1.20
Other   |            | 1.568      |            |       |  0.10

Nlocal:           8000 ave        8000 max        8000 min
Histogram: 1 0 0 0 0 0 0 0 0 0
Nghost:           4995 ave        4995 max        4995 min
Histogram: 1 0 0 0 0 0 0 0 0 0
Neighs:              0 ave           0 max           0 min
Histogram: 1 0 0 0 0 0 0 0 0 0
FullNghs:       223990 ave      223990 max      223990 min
Histogram: 1 0 0 0 0 0 0 0 0 0

Total # of neighbors = 223990
Ave neighs/atom = 27.99875
Neighbor list builds = 2
Dangerous builds = 0
Setting up cg style minimization ...
  Unit style    : metal
  Current step  : 100000
Per MPI rank memory allocation (min/avg/max) = 5.244 | 5.244 | 5.244 Mbytes
   Step          Temp          E_pair         E_mol          TotEng         Press          Volume    
    100000   736.25144     -32998.135      0             -32236.887      664.91865      174201.74    
    100091   736.25144     -33850.655      0             -33089.406     -9504.0399      174201.74    
Loop time of 3.09451 on 1 procs for 91 steps with 8000 atoms

99.6% CPU use with 1 MPI tasks x 1 OpenMP threads

Minimization stats:
  Stopping criterion = linesearch alpha is zero
  Energy initial, next-to-last, final = 
     -32998.1351790621  -33850.6548516527  -33850.6548516527
  Force two-norm initial, final = 155.50587 3.2603549e-05
  Force max component initial, final = 4.2708868 8.1993153e-07
  Final line search alpha, max atom move = 0.0082889037 6.7963335e-09
  Iterations, force evaluations = 91 184

MPI task timing breakdown:
Section |  min time  |  avg time  |  max time  |%varavg| %total
---------------------------------------------------------------
Pair    | 3.0728     | 3.0728     | 3.0728     |   0.0 | 99.30
Neigh   | 0          | 0          | 0          |   0.0 |  0.00
Comm    | 0.0037629  | 0.0037629  | 0.0037629  |   0.0 |  0.12
Output  | 0          | 0          | 0          |   0.0 |  0.00
Modify  | 0          | 0          | 0          |   0.0 |  0.00
Other   |            | 0.018      |            |       |  0.58

Nlocal:           8000 ave        8000 max        8000 min
Histogram: 1 0 0 0 0 0 0 0 0 0
Nghost:           4995 ave        4995 max        4995 min
Histogram: 1 0 0 0 0 0 0 0 0 0
Neighs:              0 ave           0 max           0 min
Histogram: 1 0 0 0 0 0 0 0 0 0
FullNghs:       223998 ave      223998 max      223998 min
Histogram: 1 0 0 0 0 0 0 0 0 0

Total # of neighbors = 223998
Ave neighs/atom = 27.99975
Neighbor list builds = 0
Dangerous builds = 0
Total wall time: 0:30:04
