LAMMPS (29 Aug 2024)
OMP_NUM_THREADS environment is not set. Defaulting to 1 thread. (src/comm.cpp:98)
  using 1 OpenMP thread(s) per MPI task

#---------------------------- Atomic setup ------------------------------------#
units            metal
timestep         0.001
boundary         p p p
lattice          diamond 5.658
Lattice spacing in x,y,z = 5.658 5.658 5.658
region           sim_box block 0 10 0 10 0 10
create_box       1 sim_box
Created orthogonal box = (0 0 0) to (56.58 56.58 56.58)
  1 by 1 by 1 MPI processor grid
create_atoms     1 box
Created 8000 atoms
  using lattice units in orthogonal box = (0 0 0) to (56.58 56.58 56.58)
  create_atoms CPU = 0.001 seconds

pair_style       tersoff                                             # interatomic potential (Lennard-Jones, EAM, etc.)
pair_coeff       * * ${potentials_dir}/ge.tersoff Ge # interatomic potential parameters (ex. eam.alloy ${potentials_dir}/Cu_u3.eam)
pair_coeff       * * md/potentials/ge.tersoff Ge 
Reading tersoff potential file md/potentials/ge.tersoff with DATE: 2016-12-21
pair_modify      tail yes
neigh_modify     delay 0                                                       # neighbor list update frequency (0 = every timestep)
mass             1 72.64                                                 # atomic mass
variable         rnd equal round(random(0,999999,42))

#----------------------------- Equilibriation ---------------------------------#
velocity         all create 581.28 ${rnd} dist gaussian              # initial velocities
velocity         all create 581.28 420940 dist gaussian              
fix              f2 all nph iso 0 0 1.0        # barostat
variable         rnd equal round(random(0,999999,0))
fix              f3 all temp/csvr 581.28 581.28 0.1 ${rnd} # thermostat
fix              f3 all temp/csvr 581.28 581.28 0.1 53464 
run              10000                                           # equilibriation run
Neighbor list info ...
  update: every = 1 steps, delay = 0 steps, check = yes
  max neighbors/atom: 2000, page size: 100000
  master list distance cutoff = 5.1
  ghost atom cutoff = 5.1
  binsize = 2.55, bins = 23 23 23
  1 neighbor lists, perpetual/occasional/extra = 1 0 0
  (1) pair tersoff, perpetual
      attributes: full, newton on
      pair build: full/bin/atomonly
      stencil: full/bin/3d
      bin: standard
Per MPI rank memory allocation (min/avg/max) = 4.119 | 4.119 | 4.119 Mbytes
   Step          Temp          E_pair         E_mol          TotEng         Press          Volume    
         0   581.28        -33726.198      0             -33125.182     -38829.188      181129.35    
     10000   579.15851     -33190.534      0             -32591.712     -323.81636      173730.62    
Loop time of 176.237 on 1 procs for 10000 steps with 8000 atoms

Performance: 4.902 ns/day, 4.895 hours/ns, 56.742 timesteps/s, 453.935 katom-step/s
99.6% CPU use with 1 MPI tasks x 1 OpenMP threads

MPI task timing breakdown:
Section |  min time  |  avg time  |  max time  |%varavg| %total
---------------------------------------------------------------
Pair    | 173.71     | 173.71     | 173.71     |   0.0 | 98.57
Neigh   | 0.016366   | 0.016366   | 0.016366   |   0.0 |  0.01
Comm    | 0.20426    | 0.20426    | 0.20426    |   0.0 |  0.12
Output  | 0.00015843 | 0.00015843 | 0.00015843 |   0.0 |  0.00
Modify  | 2.1333     | 2.1333     | 2.1333     |   0.0 |  1.21
Other   |            | 0.1712     |            |       |  0.10

Nlocal:           8000 ave        8000 max        8000 min
Histogram: 1 0 0 0 0 0 0 0 0 0
Nghost:           4995 ave        4995 max        4995 min
Histogram: 1 0 0 0 0 0 0 0 0 0
Neighs:              0 ave           0 max           0 min
Histogram: 1 0 0 0 0 0 0 0 0 0
FullNghs:       224000 ave      224000 max      224000 min
Histogram: 1 0 0 0 0 0 0 0 0 0

Total # of neighbors = 224000
Ave neighs/atom = 28
Neighbor list builds = 2
Dangerous builds = 0

#----------------------------- Run simulation ---------------------------------#
dump             d1 all custom 10000 md/data/ge_cd/dump_0.48.gz id type x y z # snapshots
run              90000
Per MPI rank memory allocation (min/avg/max) = 4.119 | 4.119 | 4.119 Mbytes
   Step          Temp          E_pair         E_mol          TotEng         Press          Volume    
     10000   579.15851     -33190.534      0             -32591.712     -323.81636      173730.62    
    100000   587.33311     -33178.213      0             -32570.939      242.0694       173660.21    
Loop time of 1616.26 on 1 procs for 90000 steps with 8000 atoms

Performance: 4.811 ns/day, 4.988 hours/ns, 55.684 timesteps/s, 445.473 katom-step/s
99.6% CPU use with 1 MPI tasks x 1 OpenMP threads

MPI task timing breakdown:
Section |  min time  |  avg time  |  max time  |%varavg| %total
---------------------------------------------------------------
Pair    | 1593.2     | 1593.2     | 1593.2     |   0.0 | 98.57
Neigh   | 0          | 0          | 0          |   0.0 |  0.00
Comm    | 1.8333     | 1.8333     | 1.8333     |   0.0 |  0.11
Output  | 0.24143    | 0.24143    | 0.24143    |   0.0 |  0.01
Modify  | 19.475     | 19.475     | 19.475     |   0.0 |  1.20
Other   |            | 1.542      |            |       |  0.10

Nlocal:           8000 ave        8000 max        8000 min
Histogram: 1 0 0 0 0 0 0 0 0 0
Nghost:           4995 ave        4995 max        4995 min
Histogram: 1 0 0 0 0 0 0 0 0 0
Neighs:              0 ave           0 max           0 min
Histogram: 1 0 0 0 0 0 0 0 0 0
FullNghs:       224004 ave      224004 max      224004 min
Histogram: 1 0 0 0 0 0 0 0 0 0

Total # of neighbors = 224004
Ave neighs/atom = 28.0005
Neighbor list builds = 0
Dangerous builds = 0
undump           d1
min_modify       line forcezero
minimize         0 0 100000 100000                                                                               # minimize energy
Per MPI rank memory allocation (min/avg/max) = 5.244 | 5.244 | 5.244 Mbytes
   Step          Temp          E_pair         E_mol          TotEng         Press          Volume    
    100000   587.33311     -33178.213      0             -32570.939      242.0694       173660.21    
    100096   587.33311     -33855.028      0             -33247.754     -7963.042       173660.21    
Loop time of 3.4147 on 1 procs for 96 steps with 8000 atoms

99.5% CPU use with 1 MPI tasks x 1 OpenMP threads

Minimization stats:
  Stopping criterion = linesearch alpha is zero
  Energy initial, next-to-last, final = 
     -33178.2131614549   -33855.027978856   -33855.027978856
  Force two-norm initial, final = 141.0605 6.1071126e-05
  Force max component initial, final = 3.5338335 1.646617e-06
  Final line search alpha, max atom move = 1.2571734e-07 2.070083e-13
  Iterations, force evaluations = 96 202

MPI task timing breakdown:
Section |  min time  |  avg time  |  max time  |%varavg| %total
---------------------------------------------------------------
Pair    | 3.391      | 3.391      | 3.391      |   0.0 | 99.31
Neigh   | 0          | 0          | 0          |   0.0 |  0.00
Comm    | 0.0041405  | 0.0041405  | 0.0041405  |   0.0 |  0.12
Output  | 0          | 0          | 0          |   0.0 |  0.00
Modify  | 0          | 0          | 0          |   0.0 |  0.00
Other   |            | 0.01958    |            |       |  0.57

Nlocal:           8000 ave        8000 max        8000 min
Histogram: 1 0 0 0 0 0 0 0 0 0
Nghost:           4995 ave        4995 max        4995 min
Histogram: 1 0 0 0 0 0 0 0 0 0
Neighs:              0 ave           0 max           0 min
Histogram: 1 0 0 0 0 0 0 0 0 0
FullNghs:       223998 ave      223998 max      223998 min
Histogram: 1 0 0 0 0 0 0 0 0 0

Total # of neighbors = 223998
Ave neighs/atom = 27.99975
Neighbor list builds = 0
Dangerous builds = 0
write_dump       all custom md/data/ge_cd/dump_0.48_relaxed.gz id type x y z
#------------------------------------------------------------------------------#
Total wall time: 0:29:56
