LAMMPS (29 Aug 2024)
OMP_NUM_THREADS environment is not set. Defaulting to 1 thread. (src/comm.cpp:98)
  using 1 OpenMP thread(s) per MPI task

#---------------------------- Atomic setup ------------------------------------#
units            metal
timestep         0.001
boundary         p p p
lattice          bcc 3.51
Lattice spacing in x,y,z = 3.51 3.51 3.51
region           sim_box block 0 10 0 10 0 10
create_box       1 sim_box
Created orthogonal box = (0 0 0) to (35.1 35.1 35.1)
  2 by 2 by 4 MPI processor grid
create_atoms     1 box
Created 2000 atoms
  using lattice units in orthogonal box = (0 0 0) to (35.1 35.1 35.1)
  create_atoms CPU = 0.000 seconds

pair_style       snap                                             # interatomic potential (Lennard-Jones, EAM, etc.)
pair_coeff       * * ${potentials_dir}/li_snap.snapcoeff ${potentials_dir}/li_snap.snapparam Li # interatomic potential parameters (ex. eam.alloy ${potentials_dir}/Cu_u3.eam)
pair_coeff       * * md/potentials/li_snap.snapcoeff ${potentials_dir}/li_snap.snapparam Li 
pair_coeff       * * md/potentials/li_snap.snapcoeff md/potentials/li_snap.snapparam Li 
Reading potential file md/potentials/li_snap.snapcoeff with DATE: 2020-01-31
SNAP Element = Li, Radius 0.5, Weight 1
Reading potential file md/potentials/li_snap.snapparam with DATE: 2020-01-31
SNAP keyword rcutfac 5.1
SNAP keyword twojmax 8
SNAP keyword rfac0 0.99363
SNAP keyword rmin0 0
SNAP keyword quadraticflag 0
SNAP keyword bzeroflag 0
pair_modify      tail yes
neigh_modify     delay 0                                                       # neighbor list update frequency (0 = every timestep)
mass             1 6.941                                                 # atomic mass
variable         rnd equal round(random(0,999999,42))

#----------------------------- Equilibriation ---------------------------------#
velocity         all create 254.07200000000003 ${rnd} dist gaussian              # initial velocities
velocity         all create 254.07200000000003 420940 dist gaussian              
fix              f2 all nph iso 0 0 1.0        # barostat
variable         rnd equal round(random(0,999999,0))
fix              f3 all temp/csvr 254.07200000000003 254.07200000000003 0.1 ${rnd} # thermostat
fix              f3 all temp/csvr 254.07200000000003 254.07200000000003 0.1 53464 
run              10000                                           # equilibriation run
Neighbor list info ...
  update: every = 1 steps, delay = 0 steps, check = yes
  max neighbors/atom: 2000, page size: 100000
  master list distance cutoff = 7.1
  ghost atom cutoff = 7.1
  binsize = 3.55, bins = 10 10 10
  1 neighbor lists, perpetual/occasional/extra = 1 0 0
  (1) pair snap, perpetual
      attributes: full, newton on
      pair build: full/bin/atomonly
      stencil: full/bin/3d
      bin: standard
Per MPI rank memory allocation (min/avg/max) = 3.695 | 3.695 | 3.695 Mbytes
   Step          Temp          E_pair         E_mol          TotEng         Press          Volume    
         0   254.072       -3799.9487      0             -3734.2988      1293.7019      43243.551    
     10000   243.50475     -3734.2352      0             -3671.3158      374.34215      42411.651    
Loop time of 273.461 on 16 procs for 10000 steps with 2000 atoms

Performance: 3.160 ns/day, 7.596 hours/ns, 36.568 timesteps/s, 73.137 katom-step/s
99.6% CPU use with 16 MPI tasks x 1 OpenMP threads

MPI task timing breakdown:
Section |  min time  |  avg time  |  max time  |%varavg| %total
---------------------------------------------------------------
Pair    | 248.82     | 250.69     | 268.32     |  28.9 | 91.67
Neigh   | 0.060879   | 0.061393   | 0.061741   |   0.1 |  0.02
Comm    | 4.1717     | 20.266     | 23.682     | 109.7 |  7.41
Output  | 3.3584e-05 | 3.4777e-05 | 4.5736e-05 |   0.0 |  0.00
Modify  | 0.68206    | 2.4122     | 7.2301     | 179.1 |  0.88
Other   |            | 0.03463    |            |       |  0.01

Nlocal:            125 ave         133 max         114 min
Histogram: 1 0 1 1 2 4 1 3 2 1
Nghost:         1022.5 ave        1041 max        1005 min
Histogram: 2 1 0 4 2 2 1 0 2 2
Neighs:              0 ave           0 max           0 min
Histogram: 16 0 0 0 0 0 0 0 0 0
FullNghs:      7841.88 ave        8370 max        7147 min
Histogram: 1 0 1 1 4 2 2 2 1 2

Total # of neighbors = 125470
Ave neighs/atom = 62.735
Neighbor list builds = 197
Dangerous builds = 0

#----------------------------- Run simulation ---------------------------------#
dump             d1 all custom 10000 md/data/li_bcc/dump_0.56.gz id type x y z # snapshots
run              90000
Per MPI rank memory allocation (min/avg/max) = 3.733 | 3.738 | 3.746 Mbytes
   Step          Temp          E_pair         E_mol          TotEng         Press          Volume    
     10000   243.50475     -3734.2352      0             -3671.3158      374.34215      42411.651    
    100000   252.83697     -3733.8867      0             -3668.5559      149.42427      42592.438    
Loop time of 2427.28 on 16 procs for 90000 steps with 2000 atoms

Performance: 3.204 ns/day, 7.492 hours/ns, 37.079 timesteps/s, 74.157 katom-step/s
99.6% CPU use with 16 MPI tasks x 1 OpenMP threads

MPI task timing breakdown:
Section |  min time  |  avg time  |  max time  |%varavg| %total
---------------------------------------------------------------
Pair    | 2244       | 2250.4     | 2272.3     |  12.8 | 92.71
Neigh   | 0.56365    | 0.56803    | 0.57053    |   0.3 |  0.02
Comm    | 140.15     | 160.95     | 166.75     |  49.6 |  6.63
Output  | 0.0024934  | 0.028345   | 0.053802   |   9.0 |  0.00
Modify  | 12.651     | 15.014     | 20         |  75.0 |  0.62
Other   |            | 0.3166     |            |       |  0.01

Nlocal:            125 ave         132 max         116 min
Histogram: 1 2 0 2 0 2 4 1 2 2
Nghost:        1014.94 ave        1029 max         996 min
Histogram: 3 0 1 0 1 1 3 3 1 3
Neighs:              0 ave           0 max           0 min
Histogram: 16 0 0 0 0 0 0 0 0 0
FullNghs:         7831 ave        8283 max        7248 min
Histogram: 1 2 0 2 0 2 4 2 1 2

Total # of neighbors = 125296
Ave neighs/atom = 62.648
Neighbor list builds = 1818
Dangerous builds = 0
undump           d1
min_modify       line forcezero
minimize         0 0 100000 100000                                                                               # minimize energy
Per MPI rank memory allocation (min/avg/max) = 4.868 | 4.874 | 4.883 Mbytes
   Step          Temp          E_pair         E_mol          TotEng         Press          Volume    
    100000   252.83697     -3733.8867      0             -3668.5559      149.42427      42592.438    
    100122   252.83697     -3799.7805      0             -3734.4497      2769.4987      42592.438    
Loop time of 10.2373 on 16 procs for 122 steps with 2000 atoms

99.7% CPU use with 16 MPI tasks x 1 OpenMP threads

Minimization stats:
  Stopping criterion = linesearch alpha is zero
  Energy initial, next-to-last, final = 
     -3733.88673565958    -3799.780516883    -3799.780516883
  Force two-norm initial, final = 13.042292 2.059249e-13
  Force max component initial, final = 0.71193138 1.0867826e-14
  Final line search alpha, max atom move = 0 0
  Iterations, force evaluations = 122 235

MPI task timing breakdown:
Section |  min time  |  avg time  |  max time  |%varavg| %total
---------------------------------------------------------------
Pair    | 8.9603     | 9.8121     | 10.222     |  10.0 | 95.85
Neigh   | 0          | 0          | 0          |   0.0 |  0.00
Comm    | 0.01005    | 0.39668    | 1.2732     |  50.7 |  3.87
Output  | 0          | 0          | 0          |   0.0 |  0.00
Modify  | 0          | 0          | 0          |   0.0 |  0.00
Other   |            | 0.02851    |            |       |  0.28

Nlocal:            125 ave         130 max         114 min
Histogram: 1 0 0 0 0 5 1 2 3 4
Nghost:        1022.12 ave        1042 max        1002 min
Histogram: 1 1 0 1 3 6 2 1 0 1
Neighs:              0 ave           0 max           0 min
Histogram: 16 0 0 0 0 0 0 0 0 0
FullNghs:         7833 ave        8190 max        7149 min
Histogram: 1 0 0 0 5 1 0 3 3 3

Total # of neighbors = 125328
Ave neighs/atom = 62.664
Neighbor list builds = 0
Dangerous builds = 0
write_dump       all custom md/data/li_bcc/dump_0.56_relaxed.gz id type x y z
#------------------------------------------------------------------------------#
Total wall time: 0:45:11
