LAMMPS (29 Aug 2024)
OMP_NUM_THREADS environment is not set. Defaulting to 1 thread. (src/comm.cpp:98)
  using 1 OpenMP thread(s) per MPI task
Lattice spacing in x,y,z = 3.51 3.51 3.51
Created orthogonal box = (0 0 0) to (35.1 35.1 35.1)
  2 by 2 by 4 MPI processor grid
Created 2000 atoms
  using lattice units in orthogonal box = (0 0 0) to (35.1 35.1 35.1)
  create_atoms CPU = 0.000 seconds
Reading potential file md/potentials/li_snap.snapcoeff with DATE: 2020-01-31
SNAP Element = Li, Radius 0.5, Weight 1
Reading potential file md/potentials/li_snap.snapparam with DATE: 2020-01-31
SNAP keyword rcutfac 5.1
SNAP keyword twojmax 8
SNAP keyword rfac0 0.99363
SNAP keyword rmin0 0
SNAP keyword quadraticflag 0
SNAP keyword bzeroflag 0
Neighbor list info ...
  update: every = 1 steps, delay = 0 steps, check = yes
  max neighbors/atom: 2000, page size: 100000
  master list distance cutoff = 7.1
  ghost atom cutoff = 7.1
  binsize = 3.55, bins = 10 10 10
  1 neighbor lists, perpetual/occasional/extra = 1 0 0
  (1) pair snap, perpetual
      attributes: full, newton on
      pair build: full/bin/atomonly
      stencil: full/bin/3d
      bin: standard
Setting up Verlet run ...
  Unit style    : metal
  Current step  : 0
  Time step     : 0.001
Per MPI rank memory allocation (min/avg/max) = 3.695 | 3.695 | 3.695 Mbytes
   Step          Temp          E_pair         E_mol          TotEng         Press          Volume    
         0   635.18        -3799.9487      0             -3635.8239      3726.0361      43243.551    
     10000   627.75343     -3544.9103      0             -3382.7044     -213.40128      44839.588    
Loop time of 263.344 on 16 procs for 10000 steps with 2000 atoms

Performance: 3.281 ns/day, 7.315 hours/ns, 37.973 timesteps/s, 75.946 katom-step/s
99.6% CPU use with 16 MPI tasks x 1 OpenMP threads

MPI task timing breakdown:
Section |  min time  |  avg time  |  max time  |%varavg| %total
---------------------------------------------------------------
Pair    | 244.36     | 246.23     | 248.66     |   6.4 | 93.50
Neigh   | 0.10629    | 0.10737    | 0.11222    |   0.4 |  0.04
Comm    | 13.315     | 15.518     | 17.618     |  25.5 |  5.89
Output  | 4.5565e-05 | 4.7442e-05 | 6.2747e-05 |   0.0 |  0.00
Modify  | 1.1943     | 1.4497     | 1.8565     |  21.9 |  0.55
Other   |            | 0.03857    |            |       |  0.01

Nlocal:            125 ave         135 max         118 min
Histogram: 2 2 3 1 1 4 0 1 1 1
Nghost:        925.562 ave         938 max         913 min
Histogram: 1 0 1 2 3 5 2 0 0 2
Neighs:              0 ave           0 max           0 min
Histogram: 16 0 0 0 0 0 0 0 0 0
FullNghs:      8187.75 ave        8838 max        7581 min
Histogram: 2 1 1 1 3 2 3 1 0 2

Total # of neighbors = 131004
Ave neighs/atom = 65.502
Neighbor list builds = 351
Dangerous builds = 0
Setting up Verlet run ...
  Unit style    : metal
  Current step  : 10000
  Time step     : 0.001
Per MPI rank memory allocation (min/avg/max) = 3.753 | 3.761 | 3.771 Mbytes
   Step          Temp          E_pair         E_mol          TotEng         Press          Volume    
     10000   627.75343     -3544.9103      0             -3382.7044     -213.40128      44839.588    
    100000   631.35005     -3535.3318      0             -3372.1966      282.76417      44775.49     
Loop time of 2375.5 on 16 procs for 90000 steps with 2000 atoms

Performance: 3.273 ns/day, 7.332 hours/ns, 37.887 timesteps/s, 75.774 katom-step/s
99.6% CPU use with 16 MPI tasks x 1 OpenMP threads

MPI task timing breakdown:
Section |  min time  |  avg time  |  max time  |%varavg| %total
---------------------------------------------------------------
Pair    | 2212.4     | 2223.4     | 2230.4     |   9.3 | 93.60
Neigh   | 0.96709    | 0.97424    | 1.0118     |   1.0 |  0.04
Comm    | 132.12     | 137.31     | 148.01     |  36.4 |  5.78
Output  | 0.002561   | 0.031329   | 0.060043   |   9.6 |  0.00
Modify  | 11.574     | 13.471     | 14.439     |  30.0 |  0.57
Other   |            | 0.3465     |            |       |  0.01

Nlocal:            125 ave         136 max         117 min
Histogram: 1 2 2 3 2 1 4 0 0 1
Nghost:        928.062 ave         939 max         907 min
Histogram: 1 0 0 1 1 3 2 4 2 2
Neighs:              0 ave           0 max           0 min
Histogram: 16 0 0 0 0 0 0 0 0 0
FullNghs:       8203.5 ave        8922 max        7597 min
Histogram: 2 1 1 4 2 0 2 2 1 1

Total # of neighbors = 131256
Ave neighs/atom = 65.628
Neighbor list builds = 3199
Dangerous builds = 0
Setting up cg style minimization ...
  Unit style    : metal
  Current step  : 100000
Per MPI rank memory allocation (min/avg/max) = 4.891 | 4.896 | 4.904 Mbytes
   Step          Temp          E_pair         E_mol          TotEng         Press          Volume    
    100000   631.35005     -3535.3318      0             -3372.1966      282.76417      44775.49     
    102713   631.35005     -3778.4847      0             -3615.3495     -2606.7224      44775.49     
Loop time of 183.223 on 16 procs for 2713 steps with 2000 atoms

99.6% CPU use with 16 MPI tasks x 1 OpenMP threads

Minimization stats:
  Stopping criterion = linesearch alpha is zero
  Energy initial, next-to-last, final = 
     -3535.33178181091  -3778.48467121269  -3778.48467121269
  Force two-norm initial, final = 20.30723 1.7878131e-13
  Force max component initial, final = 1.4234851 1.2207249e-14
  Final line search alpha, max atom move = 0 0
  Iterations, force evaluations = 2713 4486

MPI task timing breakdown:
Section |  min time  |  avg time  |  max time  |%varavg| %total
---------------------------------------------------------------
Pair    | 166.57     | 173.5      | 178.99     |  28.0 | 94.69
Neigh   | 0.022049   | 0.022703   | 0.023341   |   0.2 |  0.01
Comm    | 2.8134     | 8.9919     | 15.239     | 122.2 |  4.91
Output  | 0          | 0          | 0          |   0.0 |  0.00
Modify  | 0          | 0          | 0          |   0.0 |  0.00
Other   |            | 0.7067     |            |       |  0.39

Nlocal:            125 ave         132 max         121 min
Histogram: 5 4 0 2 0 0 2 0 0 3
Nghost:        928.188 ave         942 max         923 min
Histogram: 2 5 4 1 2 1 0 0 0 1
Neighs:              0 ave           0 max           0 min
Histogram: 16 0 0 0 0 0 0 0 0 0
FullNghs:      7688.88 ave        8386 max        7400 min
Histogram: 8 2 1 0 1 1 0 1 1 1

Total # of neighbors = 123022
Ave neighs/atom = 61.511
Neighbor list builds = 80
Dangerous builds = 0
Total wall time: 0:47:02
