LAMMPS (29 Aug 2024)
OMP_NUM_THREADS environment is not set. Defaulting to 1 thread. (src/comm.cpp:98)
  using 1 OpenMP thread(s) per MPI task

#---------------------------- Atomic setup ------------------------------------#
units            metal
timestep         0.001
boundary         p p p
lattice          bcc 3.51
Lattice spacing in x,y,z = 3.51 3.51 3.51
region           sim_box block 0 10 0 10 0 10
create_box       1 sim_box
Created orthogonal box = (0 0 0) to (35.1 35.1 35.1)
  2 by 2 by 4 MPI processor grid
create_atoms     1 box
Created 2000 atoms
  using lattice units in orthogonal box = (0 0 0) to (35.1 35.1 35.1)
  create_atoms CPU = 0.000 seconds

pair_style       snap                                             # interatomic potential (Lennard-Jones, EAM, etc.)
pair_coeff       * * ${potentials_dir}/li_snap.snapcoeff ${potentials_dir}/li_snap.snapparam Li # interatomic potential parameters (ex. eam.alloy ${potentials_dir}/Cu_u3.eam)
pair_coeff       * * md/potentials/li_snap.snapcoeff ${potentials_dir}/li_snap.snapparam Li 
pair_coeff       * * md/potentials/li_snap.snapcoeff md/potentials/li_snap.snapparam Li 
Reading potential file md/potentials/li_snap.snapcoeff with DATE: 2020-01-31
SNAP Element = Li, Radius 0.5, Weight 1
Reading potential file md/potentials/li_snap.snapparam with DATE: 2020-01-31
SNAP keyword rcutfac 5.1
SNAP keyword twojmax 8
SNAP keyword rfac0 0.99363
SNAP keyword rmin0 0
SNAP keyword quadraticflag 0
SNAP keyword bzeroflag 0
pair_modify      tail yes
neigh_modify     delay 0                                                       # neighbor list update frequency (0 = every timestep)
mass             1 6.941                                                 # atomic mass
variable         rnd equal round(random(0,999999,42))

#----------------------------- Equilibriation ---------------------------------#
velocity         all create 562.588 ${rnd} dist gaussian              # initial velocities
velocity         all create 562.588 420940 dist gaussian              
fix              f2 all nph iso 0 0 1.0        # barostat
variable         rnd equal round(random(0,999999,0))
fix              f3 all temp/csvr 562.588 562.588 0.1 ${rnd} # thermostat
fix              f3 all temp/csvr 562.588 562.588 0.1 53464 
run              10000                                           # equilibriation run
Neighbor list info ...
  update: every = 1 steps, delay = 0 steps, check = yes
  max neighbors/atom: 2000, page size: 100000
  master list distance cutoff = 7.1
  ghost atom cutoff = 7.1
  binsize = 3.55, bins = 10 10 10
  1 neighbor lists, perpetual/occasional/extra = 1 0 0
  (1) pair snap, perpetual
      attributes: full, newton on
      pair build: full/bin/atomonly
      stencil: full/bin/3d
      bin: standard
Per MPI rank memory allocation (min/avg/max) = 3.695 | 3.695 | 3.695 Mbytes
   Step          Temp          E_pair         E_mol          TotEng         Press          Volume    
         0   562.588       -3799.9487      0             -3654.581       3262.7343      43243.551    
     10000   561.74371     -3623.0029      0             -3477.8533      252.89301      44004.191    
Loop time of 280.732 on 16 procs for 10000 steps with 2000 atoms

Performance: 3.078 ns/day, 7.798 hours/ns, 35.621 timesteps/s, 71.242 katom-step/s
99.6% CPU use with 16 MPI tasks x 1 OpenMP threads

MPI task timing breakdown:
Section |  min time  |  avg time  |  max time  |%varavg| %total
---------------------------------------------------------------
Pair    | 259.55     | 260.82     | 262.14     |   3.9 | 92.91
Neigh   | 0.10995    | 0.11067    | 0.11121    |   0.1 |  0.04
Comm    | 16.52      | 18.132     | 19.684     |  17.2 |  6.46
Output  | 3.6328e-05 | 4.8317e-05 | 0.00022333 |   0.0 |  0.00
Modify  | 1.3268     | 1.6346     | 1.9405     |  23.1 |  0.58
Other   |            | 0.03687    |            |       |  0.01

Nlocal:            125 ave         132 max         115 min
Histogram: 1 2 0 0 1 3 3 3 1 2
Nghost:        941.312 ave         951 max         933 min
Histogram: 3 2 0 2 0 3 3 1 1 1
Neighs:              0 ave           0 max           0 min
Histogram: 16 0 0 0 0 0 0 0 0 0
FullNghs:      8025.25 ave        8465 max        7274 min
Histogram: 1 1 1 0 1 0 4 5 0 3

Total # of neighbors = 128404
Ave neighs/atom = 64.202
Neighbor list builds = 327
Dangerous builds = 0

#----------------------------- Run simulation ---------------------------------#
dump             d1 all custom 10000 md/data/li_bcc/dump_1.24.gz id type x y z # snapshots
run              90000
Per MPI rank memory allocation (min/avg/max) = 3.75 | 3.758 | 3.768 Mbytes
   Step          Temp          E_pair         E_mol          TotEng         Press          Volume    
     10000   561.74371     -3623.0029      0             -3477.8533      252.89301      44004.191    
    100000   556.62675     -3560.9708      0             -3417.1434     -465.12816      44446.92     
Loop time of 2560.92 on 16 procs for 90000 steps with 2000 atoms

Performance: 3.036 ns/day, 7.904 hours/ns, 35.144 timesteps/s, 70.287 katom-step/s
99.6% CPU use with 16 MPI tasks x 1 OpenMP threads

MPI task timing breakdown:
Section |  min time  |  avg time  |  max time  |%varavg| %total
---------------------------------------------------------------
Pair    | 2398       | 2404.9     | 2414.4     |   8.8 | 93.91
Neigh   | 1.0398     | 1.0439     | 1.0495     |   0.3 |  0.04
Comm    | 132.97     | 141.25     | 146.83     |  29.9 |  5.52
Output  | 0.0032889  | 0.03372    | 0.063782   |   9.8 |  0.00
Modify  | 12.121     | 13.31      | 15.08      |  30.0 |  0.52
Other   |            | 0.3365     |            |       |  0.01

Nlocal:            125 ave         134 max         119 min
Histogram: 5 1 1 0 2 2 1 2 1 1
Nghost:        940.875 ave         959 max         930 min
Histogram: 1 6 1 1 2 0 4 0 0 1
Neighs:              0 ave           0 max           0 min
Histogram: 16 0 0 0 0 0 0 0 0 0
FullNghs:      8262.38 ave        8941 max        7803 min
Histogram: 5 1 1 0 3 0 3 2 0 1

Total # of neighbors = 132198
Ave neighs/atom = 66.099
Neighbor list builds = 2990
Dangerous builds = 0
undump           d1
min_modify       line forcezero
minimize         0 0 100000 100000                                                                               # minimize energy
Per MPI rank memory allocation (min/avg/max) = 4.889 | 4.894 | 4.903 Mbytes
   Step          Temp          E_pair         E_mol          TotEng         Press          Volume    
    100000   556.62675     -3560.9708      0             -3417.1434     -465.12816      44446.92     
    101659   556.62675     -3747.4619      0             -3603.6346     -5060.4499      44446.92     
Loop time of 124.736 on 16 procs for 1659 steps with 2000 atoms

99.6% CPU use with 16 MPI tasks x 1 OpenMP threads

Minimization stats:
  Stopping criterion = linesearch alpha is zero
  Energy initial, next-to-last, final = 
     -3560.97076872866  -3747.46192943879  -3747.46192943879
  Force two-norm initial, final = 18.686554 1.5117067e-13
  Force max component initial, final = 1.2497672 1.0262624e-14
  Final line search alpha, max atom move = 0.47267066 4.8508413e-15
  Iterations, force evaluations = 1659 2894

MPI task timing breakdown:
Section |  min time  |  avg time  |  max time  |%varavg| %total
---------------------------------------------------------------
Pair    | 115.41     | 119.37     | 121.18     |  14.8 | 95.70
Neigh   | 0.013073   | 0.013395   | 0.013928   |   0.2 |  0.01
Comm    | 2.6111     | 4.9252     | 8.9721     |  76.8 |  3.95
Output  | 0          | 0          | 0          |   0.0 |  0.00
Modify  | 0          | 0          | 0          |   0.0 |  0.00
Other   |            | 0.4239     |            |       |  0.34

Nlocal:            125 ave         128 max         119 min
Histogram: 1 0 1 1 1 2 1 4 2 3
Nghost:        927.688 ave         939 max         912 min
Histogram: 1 0 2 0 3 3 2 1 2 2
Neighs:              0 ave           0 max           0 min
Histogram: 16 0 0 0 0 0 0 0 0 0
FullNghs:      8043.62 ave        8291 max        7619 min
Histogram: 1 0 2 0 2 1 1 4 2 3

Total # of neighbors = 128698
Ave neighs/atom = 64.349
Neighbor list builds = 39
Dangerous builds = 0
write_dump       all custom md/data/li_bcc/dump_1.24_relaxed.gz id type x y z
#------------------------------------------------------------------------------#
Total wall time: 0:49:26
