LAMMPS (29 Aug 2024)
OMP_NUM_THREADS environment is not set. Defaulting to 1 thread. (src/comm.cpp:98)
  using 1 OpenMP thread(s) per MPI task
Lattice spacing in x,y,z = 3.51 3.51 3.51
Created orthogonal box = (0 0 0) to (35.1 35.1 35.1)
  2 by 2 by 4 MPI processor grid
Created 2000 atoms
  using lattice units in orthogonal box = (0 0 0) to (35.1 35.1 35.1)
  create_atoms CPU = 0.001 seconds
Reading potential file md/potentials/li_snap.snapcoeff with DATE: 2020-01-31
SNAP Element = Li, Radius 0.5, Weight 1
Reading potential file md/potentials/li_snap.snapparam with DATE: 2020-01-31
SNAP keyword rcutfac 5.1
SNAP keyword twojmax 8
SNAP keyword rfac0 0.99363
SNAP keyword rmin0 0
SNAP keyword quadraticflag 0
SNAP keyword bzeroflag 0
Neighbor list info ...
  update: every = 1 steps, delay = 0 steps, check = yes
  max neighbors/atom: 2000, page size: 100000
  master list distance cutoff = 7.1
  ghost atom cutoff = 7.1
  binsize = 3.55, bins = 10 10 10
  1 neighbor lists, perpetual/occasional/extra = 1 0 0
  (1) pair snap, perpetual
      attributes: full, newton on
      pair build: full/bin/atomonly
      stencil: full/bin/3d
      bin: standard
Setting up Verlet run ...
  Unit style    : metal
  Current step  : 0
  Time step     : 0.001
Per MPI rank memory allocation (min/avg/max) = 3.695 | 3.695 | 3.695 Mbytes
   Step          Temp          E_pair         E_mol          TotEng         Press          Volume    
         0   399.256       -3799.9487      0             -3696.7845      2220.3054      43243.551    
     10000   390.57117     -3693.8039      0             -3592.8838      199.39219      43027.407    
Loop time of 284.577 on 16 procs for 10000 steps with 2000 atoms

Performance: 3.036 ns/day, 7.905 hours/ns, 35.140 timesteps/s, 70.280 katom-step/s
99.6% CPU use with 16 MPI tasks x 1 OpenMP threads

MPI task timing breakdown:
Section |  min time  |  avg time  |  max time  |%varavg| %total
---------------------------------------------------------------
Pair    | 263.02     | 264.32     | 265.07     |   3.9 | 92.88
Neigh   | 0.089901   | 0.090767   | 0.091634   |   0.1 |  0.03
Comm    | 17.692     | 18.503     | 19.736     |  12.4 |  6.50
Output  | 4.3842e-05 | 5.3914e-05 | 0.00019752 |   0.0 |  0.00
Modify  | 1.2324     | 1.6295     | 1.9735     |  20.7 |  0.57
Other   |            | 0.03575    |            |       |  0.01

Nlocal:            125 ave         131 max         118 min
Histogram: 2 1 1 1 1 3 0 4 1 2
Nghost:        980.188 ave         996 max         963 min
Histogram: 1 1 0 4 2 1 4 1 0 2
Neighs:              0 ave           0 max           0 min
Histogram: 16 0 0 0 0 0 0 0 0 0
FullNghs:      7894.12 ave        8292 max        7382 min
Histogram: 2 0 1 2 0 4 0 4 1 2

Total # of neighbors = 126306
Ave neighs/atom = 63.153
Neighbor list builds = 268
Dangerous builds = 0
Setting up Verlet run ...
  Unit style    : metal
  Current step  : 10000
  Time step     : 0.001
Per MPI rank memory allocation (min/avg/max) = 3.742 | 3.749 | 3.754 Mbytes
   Step          Temp          E_pair         E_mol          TotEng         Press          Volume    
     10000   390.57117     -3693.8039      0             -3592.8838      199.39219      43027.407    
    100000   398.7617      -3691.688       0             -3588.6516      217.60618      43013.048    
Loop time of 2567.14 on 16 procs for 90000 steps with 2000 atoms

Performance: 3.029 ns/day, 7.923 hours/ns, 35.058 timesteps/s, 70.117 katom-step/s
99.6% CPU use with 16 MPI tasks x 1 OpenMP threads

MPI task timing breakdown:
Section |  min time  |  avg time  |  max time  |%varavg| %total
---------------------------------------------------------------
Pair    | 2369.5     | 2375.9     | 2385.9     |   8.9 | 92.55
Neigh   | 0.82024    | 0.82479    | 0.83141    |   0.3 |  0.03
Comm    | 163.13     | 173.37     | 179.51     |  33.0 |  6.75
Output  | 0.0027287  | 0.030636   | 0.057822   |   9.4 |  0.00
Modify  | 15.071     | 16.738     | 18.082     |  26.0 |  0.65
Other   |            | 0.3239     |            |       |  0.01

Nlocal:            125 ave         134 max         116 min
Histogram: 1 2 2 1 1 2 2 3 1 1
Nghost:        987.438 ave         999 max         976 min
Histogram: 2 1 0 4 1 1 3 2 1 1
Neighs:              0 ave           0 max           0 min
Histogram: 16 0 0 0 0 0 0 0 0 0
FullNghs:      7920.12 ave        8476 max        7350 min
Histogram: 1 2 2 1 3 0 2 2 1 2

Total # of neighbors = 126722
Ave neighs/atom = 63.361
Neighbor list builds = 2439
Dangerous builds = 0
Setting up cg style minimization ...
  Unit style    : metal
  Current step  : 100000
Per MPI rank memory allocation (min/avg/max) = 4.879 | 4.883 | 4.892 Mbytes
   Step          Temp          E_pair         E_mol          TotEng         Press          Volume    
    100000   398.7617      -3691.688       0             -3588.6516      217.60618      43013.048    
    100131   398.7617      -3799.9573      0             -3696.9209      2764.043       43013.048    
Loop time of 11.2412 on 16 procs for 131 steps with 2000 atoms

99.5% CPU use with 16 MPI tasks x 1 OpenMP threads

Minimization stats:
  Stopping criterion = linesearch alpha is zero
  Energy initial, next-to-last, final = 
     -3691.68801390209  -3799.95731211243  -3799.95731211243
  Force two-norm initial, final = 16.46288 1.9711628e-13
  Force max component initial, final = 0.82468152 1.0715387e-14
  Final line search alpha, max atom move = 0 0
  Iterations, force evaluations = 131 236

MPI task timing breakdown:
Section |  min time  |  avg time  |  max time  |%varavg| %total
---------------------------------------------------------------
Pair    | 10.089     | 10.598     | 11.152     |   8.1 | 94.28
Neigh   | 0.00030697 | 0.00032103 | 0.00034048 |   0.0 |  0.00
Comm    | 0.085706   | 0.5912     | 1.1421     |  35.6 |  5.26
Output  | 0          | 0          | 0          |   0.0 |  0.00
Modify  | 0          | 0          | 0          |   0.0 |  0.00
Other   |            | 0.05189    |            |       |  0.46

Nlocal:            125 ave         132 max         118 min
Histogram: 1 0 2 2 3 4 0 2 1 1
Nghost:        1056.38 ave        1066 max        1045 min
Histogram: 3 1 2 0 1 0 1 4 2 2
Neighs:              0 ave           0 max           0 min
Histogram: 16 0 0 0 0 0 0 0 0 0
FullNghs:      7814.62 ave        8261 max        7394 min
Histogram: 1 1 1 3 3 3 1 1 1 1

Total # of neighbors = 125034
Ave neighs/atom = 62.517
Neighbor list builds = 1
Dangerous builds = 0
Total wall time: 0:47:43
