LAMMPS (29 Aug 2024)
OMP_NUM_THREADS environment is not set. Defaulting to 1 thread. (src/comm.cpp:98)
  using 1 OpenMP thread(s) per MPI task

#---------------------------- Atomic setup ------------------------------------#
units            metal
timestep         0.001
boundary         p p p
lattice          bcc 3.51
Lattice spacing in x,y,z = 3.51 3.51 3.51
region           sim_box block 0 10 0 10 0 10
create_box       1 sim_box
Created orthogonal box = (0 0 0) to (35.1 35.1 35.1)
  2 by 2 by 4 MPI processor grid
create_atoms     1 box
Created 2000 atoms
  using lattice units in orthogonal box = (0 0 0) to (35.1 35.1 35.1)
  create_atoms CPU = 0.001 seconds

pair_style       snap                                             # interatomic potential (Lennard-Jones, EAM, etc.)
pair_coeff       * * ${potentials_dir}/li_snap.snapcoeff ${potentials_dir}/li_snap.snapparam Li # interatomic potential parameters (ex. eam.alloy ${potentials_dir}/Cu_u3.eam)
pair_coeff       * * md/potentials/li_snap.snapcoeff ${potentials_dir}/li_snap.snapparam Li 
pair_coeff       * * md/potentials/li_snap.snapcoeff md/potentials/li_snap.snapparam Li 
Reading potential file md/potentials/li_snap.snapcoeff with DATE: 2020-01-31
SNAP Element = Li, Radius 0.5, Weight 1
Reading potential file md/potentials/li_snap.snapparam with DATE: 2020-01-31
SNAP keyword rcutfac 5.1
SNAP keyword twojmax 8
SNAP keyword rfac0 0.99363
SNAP keyword rmin0 0
SNAP keyword quadraticflag 0
SNAP keyword bzeroflag 0
pair_modify      tail yes
neigh_modify     delay 0                                                       # neighbor list update frequency (0 = every timestep)
mass             1 6.941                                                 # atomic mass
variable         rnd equal round(random(0,999999,42))

#----------------------------- Equilibriation ---------------------------------#
velocity         all create 181.48000000000002 ${rnd} dist gaussian              # initial velocities
velocity         all create 181.48000000000002 420940 dist gaussian              
fix              f2 all nph iso 0 0 1.0        # barostat
variable         rnd equal round(random(0,999999,0))
fix              f3 all temp/csvr 181.48000000000002 181.48000000000002 0.1 ${rnd} # thermostat
fix              f3 all temp/csvr 181.48000000000002 181.48000000000002 0.1 53464 
run              10000                                           # equilibriation run
Neighbor list info ...
  update: every = 1 steps, delay = 0 steps, check = yes
  max neighbors/atom: 2000, page size: 100000
  master list distance cutoff = 7.1
  ghost atom cutoff = 7.1
  binsize = 3.55, bins = 10 10 10
  1 neighbor lists, perpetual/occasional/extra = 1 0 0
  (1) pair snap, perpetual
      attributes: full, newton on
      pair build: full/bin/atomonly
      stencil: full/bin/3d
      bin: standard
Per MPI rank memory allocation (min/avg/max) = 3.695 | 3.695 | 3.695 Mbytes
   Step          Temp          E_pair         E_mol          TotEng         Press          Volume    
         0   181.48        -3799.9487      0             -3753.0559      830.4001       43243.551    
     10000   178.09643     -3754.3818      0             -3708.3633     -393.94438      42584.517    
Loop time of 271.409 on 16 procs for 10000 steps with 2000 atoms

Performance: 3.183 ns/day, 7.539 hours/ns, 36.845 timesteps/s, 73.690 katom-step/s
99.6% CPU use with 16 MPI tasks x 1 OpenMP threads

MPI task timing breakdown:
Section |  min time  |  avg time  |  max time  |%varavg| %total
---------------------------------------------------------------
Pair    | 250.76     | 252.07     | 253.64     |   5.1 | 92.87
Neigh   | 0.043655   | 0.04407    | 0.04455    |   0.1 |  0.02
Comm    | 15.978     | 17.574     | 19.087     |  20.9 |  6.48
Output  | 4.3151e-05 | 4.4828e-05 | 5.907e-05  |   0.0 |  0.00
Modify  | 1.2857     | 1.6831     | 2.1402     |  25.2 |  0.62
Other   |            | 0.03923    |            |       |  0.01

Nlocal:            125 ave         132 max         119 min
Histogram: 2 0 3 4 2 0 0 2 2 1
Nghost:        1047.88 ave        1058 max        1039 min
Histogram: 1 2 0 2 6 1 1 1 0 2
Neighs:              0 ave           0 max           0 min
Histogram: 16 0 0 0 0 0 0 0 0 0
FullNghs:      7821.25 ave        8271 max        7447 min
Histogram: 2 1 2 4 2 0 0 2 2 1

Total # of neighbors = 125140
Ave neighs/atom = 62.57
Neighbor list builds = 142
Dangerous builds = 0

#----------------------------- Run simulation ---------------------------------#
dump             d1 all custom 10000 md/data/li_bcc/dump_0.4.gz id type x y z # snapshots
run              90000
Per MPI rank memory allocation (min/avg/max) = 3.719 | 3.728 | 3.737 Mbytes
   Step          Temp          E_pair         E_mol          TotEng         Press          Volume    
     10000   178.09643     -3754.3818      0             -3708.3633     -393.94438      42584.517    
    100000   181.30113     -3753.5691      0             -3706.7225      74.873407      42411.508    
Loop time of 2455.85 on 16 procs for 90000 steps with 2000 atoms

Performance: 3.166 ns/day, 7.580 hours/ns, 36.647 timesteps/s, 73.294 katom-step/s
99.6% CPU use with 16 MPI tasks x 1 OpenMP threads

MPI task timing breakdown:
Section |  min time  |  avg time  |  max time  |%varavg| %total
---------------------------------------------------------------
Pair    | 2264.3     | 2274.2     | 2280.9     |   7.2 | 92.60
Neigh   | 0.41183    | 0.41561    | 0.42021    |   0.3 |  0.02
Comm    | 160.14     | 164.98     | 174.39     |  27.4 |  6.72
Output  | 0.0021485  | 0.028685   | 0.054523   |   9.1 |  0.00
Modify  | 13.982     | 15.846     | 17.335     |  30.4 |  0.65
Other   |            | 0.3568     |            |       |  0.01

Nlocal:            125 ave         130 max         119 min
Histogram: 3 1 1 1 0 0 1 5 1 3
Nghost:        1049.44 ave        1068 max        1034 min
Histogram: 1 0 3 3 5 0 0 2 1 1
Neighs:              0 ave           0 max           0 min
Histogram: 16 0 0 0 0 0 0 0 0 0
FullNghs:       7809.5 ave        8132 max        7417 min
Histogram: 3 1 1 1 0 0 2 4 2 2

Total # of neighbors = 124952
Ave neighs/atom = 62.476
Neighbor list builds = 1334
Dangerous builds = 0
undump           d1
min_modify       line forcezero
minimize         0 0 100000 100000                                                                               # minimize energy
Per MPI rank memory allocation (min/avg/max) = 4.856 | 4.863 | 4.874 Mbytes
   Step          Temp          E_pair         E_mol          TotEng         Press          Volume    
    100000   181.30113     -3753.5691      0             -3706.7225      74.873407      42411.508    
    100120   181.30113     -3799.6313      0             -3752.7847      2690.0697      42411.508    
Loop time of 11.0162 on 16 procs for 120 steps with 2000 atoms

99.6% CPU use with 16 MPI tasks x 1 OpenMP threads

Minimization stats:
  Stopping criterion = linesearch alpha is zero
  Energy initial, next-to-last, final = 
      -3753.5690991702  -3799.63126414096  -3799.63126414096
  Force two-norm initial, final = 10.874411 2.0018439e-13
  Force max component initial, final = 0.48034279 1.1944438e-14
  Final line search alpha, max atom move = 0 0
  Iterations, force evaluations = 120 244

MPI task timing breakdown:
Section |  min time  |  avg time  |  max time  |%varavg| %total
---------------------------------------------------------------
Pair    | 9.3785     | 10.182     | 10.994     |  11.2 | 92.43
Neigh   | 0          | 0          | 0          |   0.0 |  0.00
Comm    | 0.017733   | 0.77981    | 1.6332     |  41.4 |  7.08
Output  | 0          | 0          | 0          |   0.0 |  0.00
Modify  | 0          | 0          | 0          |   0.0 |  0.00
Other   |            | 0.05415    |            |       |  0.49

Nlocal:            125 ave         136 max         115 min
Histogram: 1 0 2 2 5 4 0 0 1 1
Nghost:        1054.56 ave        1069 max        1043 min
Histogram: 1 1 5 1 2 1 1 1 2 1
Neighs:              0 ave           0 max           0 min
Histogram: 16 0 0 0 0 0 0 0 0 0
FullNghs:      7812.12 ave        8483 max        7174 min
Histogram: 1 0 2 2 5 4 0 0 1 1

Total # of neighbors = 124994
Ave neighs/atom = 62.497
Neighbor list builds = 0
Dangerous builds = 0
write_dump       all custom md/data/li_bcc/dump_0.4_relaxed.gz id type x y z
#------------------------------------------------------------------------------#
Total wall time: 0:45:38
