LAMMPS (29 Aug 2024)
OMP_NUM_THREADS environment is not set. Defaulting to 1 thread. (src/comm.cpp:98)
  using 1 OpenMP thread(s) per MPI task

#---------------------------- Atomic setup ------------------------------------#
units            metal
timestep         0.001
boundary         p p p
lattice          bcc 3.51
Lattice spacing in x,y,z = 3.51 3.51 3.51
region           sim_box block 0 10 0 10 0 10
create_box       1 sim_box
Created orthogonal box = (0 0 0) to (35.1 35.1 35.1)
  2 by 2 by 4 MPI processor grid
create_atoms     1 box
Created 2000 atoms
  using lattice units in orthogonal box = (0 0 0) to (35.1 35.1 35.1)
  create_atoms CPU = 0.001 seconds

pair_style       snap                                             # interatomic potential (Lennard-Jones, EAM, etc.)
pair_coeff       * * ${potentials_dir}/li_snap.snapcoeff ${potentials_dir}/li_snap.snapparam Li # interatomic potential parameters (ex. eam.alloy ${potentials_dir}/Cu_u3.eam)
pair_coeff       * * md/potentials/li_snap.snapcoeff ${potentials_dir}/li_snap.snapparam Li 
pair_coeff       * * md/potentials/li_snap.snapcoeff md/potentials/li_snap.snapparam Li 
Reading potential file md/potentials/li_snap.snapcoeff with DATE: 2020-01-31
SNAP Element = Li, Radius 0.5, Weight 1
Reading potential file md/potentials/li_snap.snapparam with DATE: 2020-01-31
SNAP keyword rcutfac 5.1
SNAP keyword twojmax 8
SNAP keyword rfac0 0.99363
SNAP keyword rmin0 0
SNAP keyword quadraticflag 0
SNAP keyword bzeroflag 0
pair_modify      tail yes
neigh_modify     delay 0                                                       # neighbor list update frequency (0 = every timestep)
mass             1 6.941                                                 # atomic mass
variable         rnd equal round(random(0,999999,42))

#----------------------------- Equilibriation ---------------------------------#
velocity         all create 235.924 ${rnd} dist gaussian              # initial velocities
velocity         all create 235.924 420940 dist gaussian              
fix              f2 all nph iso 0 0 1.0        # barostat
variable         rnd equal round(random(0,999999,0))
fix              f3 all temp/csvr 235.924 235.924 0.1 ${rnd} # thermostat
fix              f3 all temp/csvr 235.924 235.924 0.1 53464 
run              10000                                           # equilibriation run
Neighbor list info ...
  update: every = 1 steps, delay = 0 steps, check = yes
  max neighbors/atom: 2000, page size: 100000
  master list distance cutoff = 7.1
  ghost atom cutoff = 7.1
  binsize = 3.55, bins = 10 10 10
  1 neighbor lists, perpetual/occasional/extra = 1 0 0
  (1) pair snap, perpetual
      attributes: full, newton on
      pair build: full/bin/atomonly
      stencil: full/bin/3d
      bin: standard
Per MPI rank memory allocation (min/avg/max) = 3.695 | 3.695 | 3.695 Mbytes
   Step          Temp          E_pair         E_mol          TotEng         Press          Volume    
         0   235.924       -3799.9487      0             -3738.9881      1177.8764      43243.551    
     10000   235.84885     -3741.6382      0             -3680.6969      46.788201      42506.376    
Loop time of 267.356 on 16 procs for 10000 steps with 2000 atoms

Performance: 3.232 ns/day, 7.427 hours/ns, 37.403 timesteps/s, 74.807 katom-step/s
99.6% CPU use with 16 MPI tasks x 1 OpenMP threads

MPI task timing breakdown:
Section |  min time  |  avg time  |  max time  |%varavg| %total
---------------------------------------------------------------
Pair    | 247.92     | 249.13     | 250.88     |   5.2 | 93.18
Neigh   | 0.057699   | 0.058279   | 0.058967   |   0.1 |  0.02
Comm    | 15.056     | 16.609     | 18.003     |  20.1 |  6.21
Output  | 3.8683e-05 | 4.0235e-05 | 5.5304e-05 |   0.0 |  0.00
Modify  | 1.3106     | 1.5229     | 1.7513     |  15.8 |  0.57
Other   |            | 0.03508    |            |       |  0.01

Nlocal:            125 ave         131 max         118 min
Histogram: 1 0 1 2 2 4 3 1 0 2
Nghost:        1025.56 ave        1038 max        1008 min
Histogram: 1 0 1 1 3 2 2 2 2 2
Neighs:              0 ave           0 max           0 min
Histogram: 16 0 0 0 0 0 0 0 0 0
FullNghs:      7820.75 ave        8193 max        7377 min
Histogram: 1 1 0 1 3 4 3 0 1 2

Total # of neighbors = 125132
Ave neighs/atom = 62.566
Neighbor list builds = 187
Dangerous builds = 0

#----------------------------- Run simulation ---------------------------------#
dump             d1 all custom 10000 md/data/li_bcc/dump_0.52.gz id type x y z # snapshots
run              90000
Per MPI rank memory allocation (min/avg/max) = 3.727 | 3.735 | 3.743 Mbytes
   Step          Temp          E_pair         E_mol          TotEng         Press          Volume    
     10000   235.84885     -3741.6382      0             -3680.6969      46.788201      42506.376    
    100000   234.64176     -3738.7865      0             -3678.1572     -117.5908       42597.159    
Loop time of 2481.74 on 16 procs for 90000 steps with 2000 atoms

Performance: 3.133 ns/day, 7.660 hours/ns, 36.265 timesteps/s, 72.530 katom-step/s
99.6% CPU use with 16 MPI tasks x 1 OpenMP threads

MPI task timing breakdown:
Section |  min time  |  avg time  |  max time  |%varavg| %total
---------------------------------------------------------------
Pair    | 2235.1     | 2257.4     | 2385.8     |  96.9 | 90.96
Neigh   | 0.52641    | 0.5316     | 0.5377     |   0.4 |  0.02
Comm    | 63.846     | 202.4      | 239.33     | 370.7 |  8.16
Output  | 0.0025592  | 0.028328   | 0.053915   |   9.1 |  0.00
Modify  | 6.4774     | 21.09      | 38.833     | 308.8 |  0.85
Other   |            | 0.3164     |            |       |  0.01

Nlocal:            125 ave         136 max         116 min
Histogram: 1 1 1 4 3 0 3 2 0 1
Nghost:        1018.44 ave        1027 max        1000 min
Histogram: 1 0 0 1 0 4 3 1 2 4
Neighs:              0 ave           0 max           0 min
Histogram: 16 0 0 0 0 0 0 0 0 0
FullNghs:         7818 ave        8535 max        7240 min
Histogram: 2 1 2 3 2 0 3 2 0 1

Total # of neighbors = 125088
Ave neighs/atom = 62.544
Neighbor list builds = 1708
Dangerous builds = 0
undump           d1
min_modify       line forcezero
minimize         0 0 100000 100000                                                                               # minimize energy
Per MPI rank memory allocation (min/avg/max) = 4.864 | 4.871 | 4.876 Mbytes
   Step          Temp          E_pair         E_mol          TotEng         Press          Volume    
    100000   234.64176     -3738.7865      0             -3678.1572     -117.5908       42597.159    
    100123   234.64176     -3799.7838      0             -3739.1545      2641.3838      42597.159    
Loop time of 11.5414 on 16 procs for 123 steps with 2000 atoms

99.5% CPU use with 16 MPI tasks x 1 OpenMP threads

Minimization stats:
  Stopping criterion = linesearch alpha is zero
  Energy initial, next-to-last, final = 
      -3738.7864836978  -3799.78383470457  -3799.78383470457
  Force two-norm initial, final = 12.561673 2.1265738e-13
  Force max component initial, final = 0.64993177 1.1244655e-14
  Final line search alpha, max atom move = 0 0
  Iterations, force evaluations = 123 247

MPI task timing breakdown:
Section |  min time  |  avg time  |  max time  |%varavg| %total
---------------------------------------------------------------
Pair    | 9.6145     | 10.377     | 11.527     |  16.1 | 89.91
Neigh   | 0          | 0          | 0          |   0.0 |  0.00
Comm    | 0.01108    | 1.0303     | 1.9233     |  56.9 |  8.93
Output  | 0          | 0          | 0          |   0.0 |  0.00
Modify  | 0          | 0          | 0          |   0.0 |  0.00
Other   |            | 0.1338     |            |       |  1.16

Nlocal:            125 ave         134 max         117 min
Histogram: 1 3 2 0 3 3 0 1 1 2
Nghost:        1024.12 ave        1047 max         998 min
Histogram: 1 0 1 2 1 8 1 0 0 2
Neighs:              0 ave           0 max           0 min
Histogram: 16 0 0 0 0 0 0 0 0 0
FullNghs:      7813.88 ave        8430 max        7333 min
Histogram: 1 3 2 3 1 2 1 0 2 1

Total # of neighbors = 125022
Ave neighs/atom = 62.511
Neighbor list builds = 0
Dangerous builds = 0
write_dump       all custom md/data/li_bcc/dump_0.52_relaxed.gz id type x y z
#------------------------------------------------------------------------------#
Total wall time: 0:46:00
