LAMMPS (29 Aug 2024)
OMP_NUM_THREADS environment is not set. Defaulting to 1 thread. (src/comm.cpp:98)
  using 1 OpenMP thread(s) per MPI task

#---------------------------- Atomic setup ------------------------------------#
units            metal
timestep         0.001
boundary         p p p
lattice          bcc 3.51
Lattice spacing in x,y,z = 3.51 3.51 3.51
region           sim_box block 0 10 0 10 0 10
create_box       1 sim_box
Created orthogonal box = (0 0 0) to (35.1 35.1 35.1)
  2 by 2 by 4 MPI processor grid
create_atoms     1 box
Created 2000 atoms
  using lattice units in orthogonal box = (0 0 0) to (35.1 35.1 35.1)
  create_atoms CPU = 0.001 seconds

pair_style       snap                                             # interatomic potential (Lennard-Jones, EAM, etc.)
pair_coeff       * * ${potentials_dir}/li_snap.snapcoeff ${potentials_dir}/li_snap.snapparam Li # interatomic potential parameters (ex. eam.alloy ${potentials_dir}/Cu_u3.eam)
pair_coeff       * * md/potentials/li_snap.snapcoeff ${potentials_dir}/li_snap.snapparam Li 
pair_coeff       * * md/potentials/li_snap.snapcoeff md/potentials/li_snap.snapparam Li 
Reading potential file md/potentials/li_snap.snapcoeff with DATE: 2020-01-31
SNAP Element = Li, Radius 0.5, Weight 1
Reading potential file md/potentials/li_snap.snapparam with DATE: 2020-01-31
SNAP keyword rcutfac 5.1
SNAP keyword twojmax 8
SNAP keyword rfac0 0.99363
SNAP keyword rmin0 0
SNAP keyword quadraticflag 0
SNAP keyword bzeroflag 0
pair_modify      tail yes
neigh_modify     delay 0                                                       # neighbor list update frequency (0 = every timestep)
mass             1 6.941                                                 # atomic mass
variable         rnd equal round(random(0,999999,42))

#----------------------------- Equilibriation ---------------------------------#
velocity         all create 163.332 ${rnd} dist gaussian              # initial velocities
velocity         all create 163.332 420940 dist gaussian              
fix              f2 all nph iso 0 0 1.0        # barostat
variable         rnd equal round(random(0,999999,0))
fix              f3 all temp/csvr 163.332 163.332 0.1 ${rnd} # thermostat
fix              f3 all temp/csvr 163.332 163.332 0.1 53464 
run              10000                                           # equilibriation run
Neighbor list info ...
  update: every = 1 steps, delay = 0 steps, check = yes
  max neighbors/atom: 2000, page size: 100000
  master list distance cutoff = 7.1
  ghost atom cutoff = 7.1
  binsize = 3.55, bins = 10 10 10
  1 neighbor lists, perpetual/occasional/extra = 1 0 0
  (1) pair snap, perpetual
      attributes: full, newton on
      pair build: full/bin/atomonly
      stencil: full/bin/3d
      bin: standard
Per MPI rank memory allocation (min/avg/max) = 3.695 | 3.695 | 3.695 Mbytes
   Step          Temp          E_pair         E_mol          TotEng         Press          Volume    
         0   163.332       -3799.9487      0             -3757.7452      714.57466      43243.551    
     10000   158.71771     -3758.4525      0             -3717.4413     -262.67615      42549.799    
Loop time of 273.118 on 16 procs for 10000 steps with 2000 atoms

Performance: 3.163 ns/day, 7.587 hours/ns, 36.614 timesteps/s, 73.228 katom-step/s
99.6% CPU use with 16 MPI tasks x 1 OpenMP threads

MPI task timing breakdown:
Section |  min time  |  avg time  |  max time  |%varavg| %total
---------------------------------------------------------------
Pair    | 251.32     | 253.08     | 254.07     |   4.7 | 92.66
Neigh   | 0.036987   | 0.037424   | 0.037707   |   0.1 |  0.01
Comm    | 15.75      | 18.098     | 19.729     |  26.1 |  6.63
Output  | 3.3743e-05 | 3.5228e-05 | 4.823e-05  |   0.0 |  0.00
Modify  | 1.02       | 1.8703     | 3.2302     |  60.0 |  0.68
Other   |            | 0.03468    |            |       |  0.01

Nlocal:            125 ave         135 max         119 min
Histogram: 6 2 0 2 0 1 1 0 3 1
Nghost:        1038.75 ave        1055 max        1015 min
Histogram: 2 0 1 1 2 1 2 1 1 5
Neighs:              0 ave           0 max           0 min
Histogram: 16 0 0 0 0 0 0 0 0 0
FullNghs:         7787 ave        8430 max        7404 min
Histogram: 6 2 0 2 0 1 0 1 3 1

Total # of neighbors = 124592
Ave neighs/atom = 62.296
Neighbor list builds = 121
Dangerous builds = 0

#----------------------------- Run simulation ---------------------------------#
dump             d1 all custom 10000 md/data/li_bcc/dump_0.36.gz id type x y z # snapshots
run              90000
Per MPI rank memory allocation (min/avg/max) = 3.718 | 3.724 | 3.74 Mbytes
   Step          Temp          E_pair         E_mol          TotEng         Press          Volume    
     10000   158.71771     -3758.4525      0             -3717.4413     -262.67615      42549.799    
    100000   161.52075     -3757.516       0             -3715.7805      283.15964      42319.627    
Loop time of 2468.42 on 16 procs for 90000 steps with 2000 atoms

Performance: 3.150 ns/day, 7.619 hours/ns, 36.461 timesteps/s, 72.921 katom-step/s
99.6% CPU use with 16 MPI tasks x 1 OpenMP threads

MPI task timing breakdown:
Section |  min time  |  avg time  |  max time  |%varavg| %total
---------------------------------------------------------------
Pair    | 2277.7     | 2285.2     | 2301.3     |  11.6 | 92.58
Neigh   | 0.35167    | 0.35466    | 0.35715    |   0.3 |  0.01
Comm    | 152.56     | 167.1      | 173.94     |  40.6 |  6.77
Output  | 0.0024946  | 0.028247   | 0.053862   |   9.0 |  0.00
Modify  | 13.856     | 15.454     | 16.535     |  25.2 |  0.63
Other   |            | 0.3171     |            |       |  0.01

Nlocal:            125 ave         134 max         119 min
Histogram: 2 2 2 3 2 1 1 1 1 1
Nghost:        1049.38 ave        1067 max        1032 min
Histogram: 2 2 0 3 2 1 0 2 2 2
Neighs:              0 ave           0 max           0 min
Histogram: 16 0 0 0 0 0 0 0 0 0
FullNghs:      7816.38 ave        8389 max        7424 min
Histogram: 2 2 2 3 2 1 1 1 1 1

Total # of neighbors = 125062
Ave neighs/atom = 62.531
Neighbor list builds = 1142
Dangerous builds = 0
undump           d1
min_modify       line forcezero
minimize         0 0 100000 100000                                                                               # minimize energy
Per MPI rank memory allocation (min/avg/max) = 4.851 | 4.86 | 4.871 Mbytes
   Step          Temp          E_pair         E_mol          TotEng         Press          Volume    
    100000   161.52075     -3757.516       0             -3715.7805      283.15964      42319.627    
    100127   161.52075     -3799.5392      0             -3757.8037      2751.7725      42319.627    
Loop time of 10.9287 on 16 procs for 127 steps with 2000 atoms

99.6% CPU use with 16 MPI tasks x 1 OpenMP threads

Minimization stats:
  Stopping criterion = linesearch alpha is zero
  Energy initial, next-to-last, final = 
     -3757.51603429894  -3799.53924598669  -3799.53924598669
  Force two-norm initial, final = 10.472019 1.9965943e-13
  Force max component initial, final = 0.51097062 1.1918418e-14
  Final line search alpha, max atom move = 0 0
  Iterations, force evaluations = 127 242

MPI task timing breakdown:
Section |  min time  |  avg time  |  max time  |%varavg| %total
---------------------------------------------------------------
Pair    | 9.2218     | 10.135     | 10.912     |  12.9 | 92.73
Neigh   | 0          | 0          | 0          |   0.0 |  0.00
Comm    | 0.0096024  | 0.71613    | 1.7027     |  52.5 |  6.55
Output  | 0          | 0          | 0          |   0.0 |  0.00
Modify  | 0          | 0          | 0          |   0.0 |  0.00
Other   |            | 0.07803    |            |       |  0.71

Nlocal:            125 ave         135 max         114 min
Histogram: 1 1 1 0 5 3 0 3 1 1
Nghost:        1053.12 ave        1059 max        1033 min
Histogram: 1 0 0 0 0 0 3 3 2 7
Neighs:              0 ave           0 max           0 min
Histogram: 16 0 0 0 0 0 0 0 0 0
FullNghs:      7818.88 ave        8470 max        7107 min
Histogram: 1 0 2 0 5 3 1 2 1 1

Total # of neighbors = 125102
Ave neighs/atom = 62.551
Neighbor list builds = 0
Dangerous builds = 0
write_dump       all custom md/data/li_bcc/dump_0.36_relaxed.gz id type x y z
#------------------------------------------------------------------------------#
Total wall time: 0:45:52
