LAMMPS (29 Aug 2024)
OMP_NUM_THREADS environment is not set. Defaulting to 1 thread. (src/comm.cpp:98)
  using 1 OpenMP thread(s) per MPI task

#---------------------------- Atomic setup ------------------------------------#
units            metal
timestep         0.001
boundary         p p p
lattice          bcc 3.51
Lattice spacing in x,y,z = 3.51 3.51 3.51
region           sim_box block 0 10 0 10 0 10
create_box       1 sim_box
Created orthogonal box = (0 0 0) to (35.1 35.1 35.1)
  2 by 2 by 4 MPI processor grid
create_atoms     1 box
Created 2000 atoms
  using lattice units in orthogonal box = (0 0 0) to (35.1 35.1 35.1)
  create_atoms CPU = 0.001 seconds

pair_style       snap                                             # interatomic potential (Lennard-Jones, EAM, etc.)
pair_coeff       * * ${potentials_dir}/li_snap.snapcoeff ${potentials_dir}/li_snap.snapparam Li # interatomic potential parameters (ex. eam.alloy ${potentials_dir}/Cu_u3.eam)
pair_coeff       * * md/potentials/li_snap.snapcoeff ${potentials_dir}/li_snap.snapparam Li 
pair_coeff       * * md/potentials/li_snap.snapcoeff md/potentials/li_snap.snapparam Li 
Reading potential file md/potentials/li_snap.snapcoeff with DATE: 2020-01-31
SNAP Element = Li, Radius 0.5, Weight 1
Reading potential file md/potentials/li_snap.snapparam with DATE: 2020-01-31
SNAP keyword rcutfac 5.1
SNAP keyword twojmax 8
SNAP keyword rfac0 0.99363
SNAP keyword rmin0 0
SNAP keyword quadraticflag 0
SNAP keyword bzeroflag 0
pair_modify      tail yes
neigh_modify     delay 0                                                       # neighbor list update frequency (0 = every timestep)
mass             1 6.941                                                 # atomic mass
variable         rnd equal round(random(0,999999,42))

#----------------------------- Equilibriation ---------------------------------#
velocity         all create 707.772 ${rnd} dist gaussian              # initial velocities
velocity         all create 707.772 420940 dist gaussian              
fix              f2 all nph iso 0 0 1.0        # barostat
variable         rnd equal round(random(0,999999,0))
fix              f3 all temp/csvr 707.772 707.772 0.1 ${rnd} # thermostat
fix              f3 all temp/csvr 707.772 707.772 0.1 53464 
run              10000                                           # equilibriation run
Neighbor list info ...
  update: every = 1 steps, delay = 0 steps, check = yes
  max neighbors/atom: 2000, page size: 100000
  master list distance cutoff = 7.1
  ghost atom cutoff = 7.1
  binsize = 3.55, bins = 10 10 10
  1 neighbor lists, perpetual/occasional/extra = 1 0 0
  (1) pair snap, perpetual
      attributes: full, newton on
      pair build: full/bin/atomonly
      stencil: full/bin/3d
      bin: standard
Per MPI rank memory allocation (min/avg/max) = 3.695 | 3.695 | 3.695 Mbytes
   Step          Temp          E_pair         E_mol          TotEng         Press          Volume    
         0   707.772       -3799.9487      0             -3617.0668      4189.3378      43243.551    
     10000   690.38729     -3516.6177      0             -3338.2278      195.26673      45305.501    
Loop time of 278.184 on 16 procs for 10000 steps with 2000 atoms

Performance: 3.106 ns/day, 7.727 hours/ns, 35.947 timesteps/s, 71.895 katom-step/s
99.6% CPU use with 16 MPI tasks x 1 OpenMP threads

MPI task timing breakdown:
Section |  min time  |  avg time  |  max time  |%varavg| %total
---------------------------------------------------------------
Pair    | 258.29     | 259.97     | 262.32     |   7.0 | 93.45
Neigh   | 0.11493    | 0.11588    | 0.117      |   0.2 |  0.04
Comm    | 14.023     | 16.421     | 18.133     |  28.8 |  5.90
Output  | 5.0124e-05 | 6.0979e-05 | 0.00021207 |   0.0 |  0.00
Modify  | 1.1852     | 1.6363     | 2.0128     |  22.9 |  0.59
Other   |            | 0.03804    |            |       |  0.01

Nlocal:            125 ave         131 max         120 min
Histogram: 1 2 5 0 1 2 1 1 2 1
Nghost:          918.5 ave         932 max         901 min
Histogram: 1 1 1 2 1 2 3 1 2 2
Neighs:              0 ave           0 max           0 min
Histogram: 16 0 0 0 0 0 0 0 0 0
FullNghs:         8123 ave        8598 max        7569 min
Histogram: 1 1 3 2 1 1 0 2 4 1

Total # of neighbors = 129968
Ave neighs/atom = 64.984
Neighbor list builds = 373
Dangerous builds = 0

#----------------------------- Run simulation ---------------------------------#
dump             d1 all custom 10000 md/data/li_bcc/dump_1.56.gz id type x y z # snapshots
run              90000
Per MPI rank memory allocation (min/avg/max) = 3.751 | 3.758 | 3.772 Mbytes
   Step          Temp          E_pair         E_mol          TotEng         Press          Volume    
     10000   690.38729     -3516.6177      0             -3338.2278      195.26673      45305.501    
    100000   696.37504     -3511.5683      0             -3331.6312     -138.71817      45653.512    
Loop time of 2505.54 on 16 procs for 90000 steps with 2000 atoms

Performance: 3.104 ns/day, 7.733 hours/ns, 35.920 timesteps/s, 71.841 katom-step/s
99.6% CPU use with 16 MPI tasks x 1 OpenMP threads

MPI task timing breakdown:
Section |  min time  |  avg time  |  max time  |%varavg| %total
---------------------------------------------------------------
Pair    | 2338.3     | 2344.4     | 2351.8     |   8.2 | 93.57
Neigh   | 1.0477     | 1.0514     | 1.0554     |   0.2 |  0.04
Comm    | 139.28     | 146.16     | 152.88     |  32.5 |  5.83
Output  | 0.0042195  | 0.033011   | 0.062769   |   9.7 |  0.00
Modify  | 12.992     | 13.547     | 14.578     |  16.4 |  0.54
Other   |            | 0.3386     |            |       |  0.01

Nlocal:            125 ave         133 max         118 min
Histogram: 1 0 4 2 2 1 3 1 1 1
Nghost:        913.062 ave         926 max         900 min
Histogram: 1 2 3 2 0 1 1 1 4 1
Neighs:              0 ave           0 max           0 min
Histogram: 16 0 0 0 0 0 0 0 0 0
FullNghs:         8067 ave        8641 max        7589 min
Histogram: 1 1 4 1 2 2 1 3 0 1

Total # of neighbors = 129072
Ave neighs/atom = 64.536
Neighbor list builds = 3394
Dangerous builds = 0
undump           d1
min_modify       line forcezero
minimize         0 0 100000 100000                                                                               # minimize energy
Per MPI rank memory allocation (min/avg/max) = 4.883 | 4.892 | 4.9 Mbytes
   Step          Temp          E_pair         E_mol          TotEng         Press          Volume    
    100000   696.37504     -3511.5683      0             -3331.6312     -138.71817      45653.512    
    102484   696.37504     -3743.9563      0             -3564.0192     -5803.3023      45653.512    
Loop time of 181.325 on 16 procs for 2484 steps with 2000 atoms

99.6% CPU use with 16 MPI tasks x 1 OpenMP threads

Minimization stats:
  Stopping criterion = linesearch alpha is zero
  Energy initial, next-to-last, final = 
     -3511.56828615806  -3743.95630259792  -3743.95630259792
  Force two-norm initial, final = 21.082374 1.6839824e-13
  Force max component initial, final = 1.2574594 1.3287982e-14
  Final line search alpha, max atom move = 0 0
  Iterations, force evaluations = 2484 4351

MPI task timing breakdown:
Section |  min time  |  avg time  |  max time  |%varavg| %total
---------------------------------------------------------------
Pair    | 163.22     | 171.27     | 177.55     |  31.1 | 94.46
Neigh   | 0.017372   | 0.018155   | 0.018815   |   0.3 |  0.01
Comm    | 2.8924     | 9.4037     | 17.698     | 132.0 |  5.19
Output  | 0          | 0          | 0          |   0.0 |  0.00
Modify  | 0          | 0          | 0          |   0.0 |  0.00
Other   |            | 0.6307     |            |       |  0.35

Nlocal:            125 ave         131 max         117 min
Histogram: 2 0 2 1 2 0 1 5 0 3
Nghost:        918.438 ave         934 max         895 min
Histogram: 1 1 0 2 1 3 0 4 2 2
Neighs:              0 ave           0 max           0 min
Histogram: 16 0 0 0 0 0 0 0 0 0
FullNghs:      7872.88 ave        8290 max        7160 min
Histogram: 1 0 2 1 0 3 1 3 3 2

Total # of neighbors = 125966
Ave neighs/atom = 62.983
Neighbor list builds = 60
Dangerous builds = 0
write_dump       all custom md/data/li_bcc/dump_1.56_relaxed.gz id type x y z
#------------------------------------------------------------------------------#
Total wall time: 0:49:25
