LAMMPS (29 Aug 2024)
OMP_NUM_THREADS environment is not set. Defaulting to 1 thread. (src/comm.cpp:98)
  using 1 OpenMP thread(s) per MPI task
Lattice spacing in x,y,z = 3.51 3.51 3.51
Created orthogonal box = (0 0 0) to (35.1 35.1 35.1)
  2 by 2 by 4 MPI processor grid
Created 2000 atoms
  using lattice units in orthogonal box = (0 0 0) to (35.1 35.1 35.1)
  create_atoms CPU = 0.001 seconds
Reading potential file md/potentials/li_snap.snapcoeff with DATE: 2020-01-31
SNAP Element = Li, Radius 0.5, Weight 1
Reading potential file md/potentials/li_snap.snapparam with DATE: 2020-01-31
SNAP keyword rcutfac 5.1
SNAP keyword twojmax 8
SNAP keyword rfac0 0.99363
SNAP keyword rmin0 0
SNAP keyword quadraticflag 0
SNAP keyword bzeroflag 0
Neighbor list info ...
  update: every = 1 steps, delay = 0 steps, check = yes
  max neighbors/atom: 2000, page size: 100000
  master list distance cutoff = 7.1
  ghost atom cutoff = 7.1
  binsize = 3.55, bins = 10 10 10
  1 neighbor lists, perpetual/occasional/extra = 1 0 0
  (1) pair snap, perpetual
      attributes: full, newton on
      pair build: full/bin/atomonly
      stencil: full/bin/3d
      bin: standard
Setting up Verlet run ...
  Unit style    : metal
  Current step  : 0
  Time step     : 0.001
Per MPI rank memory allocation (min/avg/max) = 3.695 | 3.695 | 3.695 Mbytes
   Step          Temp          E_pair         E_mol          TotEng         Press          Volume    
         0   344.812       -3799.9487      0             -3710.8524      1872.829       43243.551    
     10000   338.60673     -3710.4517      0             -3622.9587      67.754395      42824.042    
Loop time of 284.93 on 16 procs for 10000 steps with 2000 atoms

Performance: 3.032 ns/day, 7.915 hours/ns, 35.096 timesteps/s, 70.193 katom-step/s
99.6% CPU use with 16 MPI tasks x 1 OpenMP threads

MPI task timing breakdown:
Section |  min time  |  avg time  |  max time  |%varavg| %total
---------------------------------------------------------------
Pair    | 263.29     | 263.92     | 265.16     |   2.8 | 92.62
Neigh   | 0.081845   | 0.082379   | 0.083464   |   0.1 |  0.03
Comm    | 17.909     | 19.047     | 19.712     |  10.1 |  6.68
Output  | 4.9273e-05 | 5.9632e-05 | 0.00020424 |   0.0 |  0.00
Modify  | 1.6375     | 1.8453     | 2.3138     |  20.0 |  0.65
Other   |            | 0.03914    |            |       |  0.01

Nlocal:            125 ave         132 max         117 min
Histogram: 3 0 1 1 1 1 4 0 4 1
Nghost:        993.188 ave        1006 max         984 min
Histogram: 3 1 1 2 4 1 1 1 1 1
Neighs:              0 ave           0 max           0 min
Histogram: 16 0 0 0 0 0 0 0 0 0
FullNghs:      7864.75 ave        8350 max        7362 min
Histogram: 3 0 1 2 0 2 3 2 2 1

Total # of neighbors = 125836
Ave neighs/atom = 62.918
Neighbor list builds = 245
Dangerous builds = 0
Setting up Verlet run ...
  Unit style    : metal
  Current step  : 10000
  Time step     : 0.001
Per MPI rank memory allocation (min/avg/max) = 3.742 | 3.746 | 3.751 Mbytes
   Step          Temp          E_pair         E_mol          TotEng         Press          Volume    
     10000   338.60673     -3710.4517      0             -3622.9587      67.754395      42824.042    
    100000   337.93034     -3706.7734      0             -3619.4552     -429.54112      43066.43     
Loop time of 2581.07 on 16 procs for 90000 steps with 2000 atoms

Performance: 3.013 ns/day, 7.966 hours/ns, 34.869 timesteps/s, 69.738 katom-step/s
99.6% CPU use with 16 MPI tasks x 1 OpenMP threads

MPI task timing breakdown:
Section |  min time  |  avg time  |  max time  |%varavg| %total
---------------------------------------------------------------
Pair    | 2385.3     | 2389.5     | 2398.8     |   7.7 | 92.58
Neigh   | 0.74753    | 0.75226    | 0.76081    |   0.4 |  0.03
Comm    | 166.37     | 173.8      | 177.82     |  28.3 |  6.73
Output  | 0.0027325  | 0.030692   | 0.057812   |   9.4 |  0.00
Modify  | 14.808     | 16.665     | 18.024     |  28.3 |  0.65
Other   |            | 0.3463     |            |       |  0.01

Nlocal:            125 ave         132 max         118 min
Histogram: 4 1 1 0 1 2 1 1 3 2
Nghost:        993.625 ave        1008 max         980 min
Histogram: 2 2 1 2 1 2 0 3 0 3
Neighs:              0 ave           0 max           0 min
Histogram: 16 0 0 0 0 0 0 0 0 0
FullNghs:       7859.5 ave        8309 max        7381 min
Histogram: 3 2 1 0 1 2 1 1 2 3

Total # of neighbors = 125752
Ave neighs/atom = 62.876
Neighbor list builds = 2224
Dangerous builds = 0
Setting up cg style minimization ...
  Unit style    : metal
  Current step  : 100000
Per MPI rank memory allocation (min/avg/max) = 4.875 | 4.881 | 4.891 Mbytes
   Step          Temp          E_pair         E_mol          TotEng         Press          Volume    
    100000   337.93034     -3706.7734      0             -3619.4552     -429.54112      43066.43     
    100124   337.93034     -3799.9621      0             -3712.644       2249.136       43066.43     
Loop time of 11.3877 on 16 procs for 124 steps with 2000 atoms

99.6% CPU use with 16 MPI tasks x 1 OpenMP threads

Minimization stats:
  Stopping criterion = linesearch alpha is zero
  Energy initial, next-to-last, final = 
      -3706.7733566179  -3799.96212774683  -3799.96212774683
  Force two-norm initial, final = 15.441826 1.832326e-13
  Force max component initial, final = 0.75772523 9.8481451e-15
  Final line search alpha, max atom move = 0 0
  Iterations, force evaluations = 124 235

MPI task timing breakdown:
Section |  min time  |  avg time  |  max time  |%varavg| %total
---------------------------------------------------------------
Pair    | 9.7629     | 10.563     | 11.375     |  12.7 | 92.75
Neigh   | 0.00029372 | 0.00031878 | 0.00033993 |   0.0 |  0.00
Comm    | 0.0083532  | 0.80795    | 1.6205     |  46.1 |  7.09
Output  | 0          | 0          | 0          |   0.0 |  0.00
Modify  | 0          | 0          | 0          |   0.0 |  0.00
Other   |            | 0.0169     |            |       |  0.15

Nlocal:            125 ave         135 max         115 min
Histogram: 1 1 0 2 4 3 1 2 0 2
Nghost:        1083.94 ave        1100 max        1070 min
Histogram: 2 0 1 1 6 2 2 1 0 1
Neighs:              0 ave           0 max           0 min
Histogram: 16 0 0 0 0 0 0 0 0 0
FullNghs:      7874.12 ave        8485 max        7203 min
Histogram: 1 1 0 2 4 3 1 2 0 2

Total # of neighbors = 125986
Ave neighs/atom = 62.993
Neighbor list builds = 1
Dangerous builds = 0
Total wall time: 0:47:57
