LAMMPS (29 Aug 2024)
OMP_NUM_THREADS environment is not set. Defaulting to 1 thread. (src/comm.cpp:98)
  using 1 OpenMP thread(s) per MPI task
Lattice spacing in x,y,z = 3.51 3.51 3.51
Created orthogonal box = (0 0 0) to (35.1 35.1 35.1)
  2 by 2 by 4 MPI processor grid
Created 2000 atoms
  using lattice units in orthogonal box = (0 0 0) to (35.1 35.1 35.1)
  create_atoms CPU = 0.000 seconds
Reading potential file md/potentials/li_snap.snapcoeff with DATE: 2020-01-31
SNAP Element = Li, Radius 0.5, Weight 1
Reading potential file md/potentials/li_snap.snapparam with DATE: 2020-01-31
SNAP keyword rcutfac 5.1
SNAP keyword twojmax 8
SNAP keyword rfac0 0.99363
SNAP keyword rmin0 0
SNAP keyword quadraticflag 0
SNAP keyword bzeroflag 0
Neighbor list info ...
  update: every = 1 steps, delay = 0 steps, check = yes
  max neighbors/atom: 2000, page size: 100000
  master list distance cutoff = 7.1
  ghost atom cutoff = 7.1
  binsize = 3.55, bins = 10 10 10
  1 neighbor lists, perpetual/occasional/extra = 1 0 0
  (1) pair snap, perpetual
      attributes: full, newton on
      pair build: full/bin/atomonly
      stencil: full/bin/3d
      bin: standard
Setting up Verlet run ...
  Unit style    : metal
  Current step  : 0
  Time step     : 0.001
Per MPI rank memory allocation (min/avg/max) = 3.695 | 3.695 | 3.695 Mbytes
   Step          Temp          E_pair         E_mol          TotEng         Press          Volume    
         0   72.592        -3799.9487      0             -3781.1916      135.44747      43243.551    
     10000   70.95146      -3781.5256      0             -3763.1924      36.276289      42622.021    
Loop time of 281.534 on 16 procs for 10000 steps with 2000 atoms

Performance: 3.069 ns/day, 7.820 hours/ns, 35.520 timesteps/s, 71.039 katom-step/s
99.6% CPU use with 16 MPI tasks x 1 OpenMP threads

MPI task timing breakdown:
Section |  min time  |  avg time  |  max time  |%varavg| %total
---------------------------------------------------------------
Pair    | 278.73     | 279.21     | 279.83     |   1.8 | 99.17
Neigh   | 0          | 0          | 0          |   0.0 |  0.00
Comm    | 1.2621     | 1.937      | 2.3671     |  21.4 |  0.69
Output  | 4.0396e-05 | 4.5371e-05 | 0.00011585 |   0.0 |  0.00
Modify  | 0.28098    | 0.35178    | 0.40229    |   7.4 |  0.12
Other   |            | 0.03692    |            |       |  0.01

Nlocal:            125 ave         125 max         125 min
Histogram: 16 0 0 0 0 0 0 0 0 0
Nghost:           1142 ave        1142 max        1142 min
Histogram: 16 0 0 0 0 0 0 0 0 0
Neighs:              0 ave           0 max           0 min
Histogram: 16 0 0 0 0 0 0 0 0 0
FullNghs:         8000 ave        8000 max        8000 min
Histogram: 16 0 0 0 0 0 0 0 0 0

Total # of neighbors = 128000
Ave neighs/atom = 64
Neighbor list builds = 0
Dangerous builds = 0
Setting up Verlet run ...
  Unit style    : metal
  Current step  : 10000
  Time step     : 0.001
Per MPI rank memory allocation (min/avg/max) = 3.695 | 3.697 | 3.703 Mbytes
   Step          Temp          E_pair         E_mol          TotEng         Press          Volume    
     10000   70.95146      -3781.5256      0             -3763.1924      36.276289      42622.021    
    100000   73.710664     -3781.5262      0             -3762.48        43.951867      42601.587    
Loop time of 2697.84 on 16 procs for 90000 steps with 2000 atoms

Performance: 2.882 ns/day, 8.327 hours/ns, 33.360 timesteps/s, 66.720 katom-step/s
99.6% CPU use with 16 MPI tasks x 1 OpenMP threads

MPI task timing breakdown:
Section |  min time  |  avg time  |  max time  |%varavg| %total
---------------------------------------------------------------
Pair    | 2236.4     | 2512.5     | 2690.5     | 212.5 | 93.13
Neigh   | 0          | 0          | 0          |   0.0 |  0.00
Comm    | 3.2593     | 168.3      | 459.01     | 877.8 |  6.24
Output  | 0.0021913  | 0.030109   | 0.057673   |   9.4 |  0.00
Modify  | 1.9674     | 16.637     | 59.422     | 605.4 |  0.62
Other   |            | 0.3425     |            |       |  0.01

Nlocal:            125 ave         134 max         111 min
Histogram: 1 0 0 1 3 2 3 3 2 1
Nghost:        1081.44 ave        1094 max        1062 min
Histogram: 1 2 0 0 1 2 3 4 1 2
Neighs:              0 ave           0 max           0 min
Histogram: 16 0 0 0 0 0 0 0 0 0
FullNghs:      7841.88 ave        8413 max        6946 min
Histogram: 1 0 0 1 3 2 3 2 3 1

Total # of neighbors = 125470
Ave neighs/atom = 62.735
Neighbor list builds = 0
Dangerous builds = 0
Setting up cg style minimization ...
  Unit style    : metal
  Current step  : 100000
Per MPI rank memory allocation (min/avg/max) = 4.82 | 4.823 | 4.831 Mbytes
   Step          Temp          E_pair         E_mol          TotEng         Press          Volume    
    100000   73.710664     -3781.5262      0             -3762.48        43.951867      42601.587    
    100111   73.710664     -3799.7869      0             -3780.7407      1589.2118      42601.587    
Loop time of 10.5734 on 16 procs for 111 steps with 2000 atoms

99.6% CPU use with 16 MPI tasks x 1 OpenMP threads

Minimization stats:
  Stopping criterion = linesearch alpha is zero
  Energy initial, next-to-last, final = 
     -3781.52620934629  -3799.78692058181  -3799.78692058181
  Force two-norm initial, final = 6.7524651 1.8396646e-13
  Force max component initial, final = 0.32382772 1.1640428e-14
  Final line search alpha, max atom move = 0 0
  Iterations, force evaluations = 111 215

MPI task timing breakdown:
Section |  min time  |  avg time  |  max time  |%varavg| %total
---------------------------------------------------------------
Pair    | 8.7796     | 9.691      | 10.562     |  13.5 | 91.65
Neigh   | 0          | 0          | 0          |   0.0 |  0.00
Comm    | 0.0076518  | 0.79839    | 1.4679     |  44.7 |  7.55
Output  | 0          | 0          | 0          |   0.0 |  0.00
Modify  | 0          | 0          | 0          |   0.0 |  0.00
Other   |            | 0.08409    |            |       |  0.80

Nlocal:            125 ave         137 max         113 min
Histogram: 1 0 1 4 3 1 2 3 0 1
Nghost:        1083.44 ave        1095 max        1069 min
Histogram: 1 1 1 1 0 6 0 4 1 1
Neighs:              0 ave           0 max           0 min
Histogram: 16 0 0 0 0 0 0 0 0 0
FullNghs:       7839.5 ave        8595 max        7069 min
Histogram: 1 0 1 4 3 1 2 3 0 1

Total # of neighbors = 125432
Ave neighs/atom = 62.716
Neighbor list builds = 0
Dangerous builds = 0
Total wall time: 0:49:50
