LAMMPS (29 Aug 2024)
OMP_NUM_THREADS environment is not set. Defaulting to 1 thread. (src/comm.cpp:98)
  using 1 OpenMP thread(s) per MPI task
Lattice spacing in x,y,z = 3.51 3.51 3.51
Created orthogonal box = (0 0 0) to (35.1 35.1 35.1)
  2 by 2 by 4 MPI processor grid
Created 2000 atoms
  using lattice units in orthogonal box = (0 0 0) to (35.1 35.1 35.1)
  create_atoms CPU = 0.000 seconds
Reading potential file md/potentials/li_snap.snapcoeff with DATE: 2020-01-31
SNAP Element = Li, Radius 0.5, Weight 1
Reading potential file md/potentials/li_snap.snapparam with DATE: 2020-01-31
SNAP keyword rcutfac 5.1
SNAP keyword twojmax 8
SNAP keyword rfac0 0.99363
SNAP keyword rmin0 0
SNAP keyword quadraticflag 0
SNAP keyword bzeroflag 0
Neighbor list info ...
  update: every = 1 steps, delay = 0 steps, check = yes
  max neighbors/atom: 2000, page size: 100000
  master list distance cutoff = 7.1
  ghost atom cutoff = 7.1
  binsize = 3.55, bins = 10 10 10
  1 neighbor lists, perpetual/occasional/extra = 1 0 0
  (1) pair snap, perpetual
      attributes: full, newton on
      pair build: full/bin/atomonly
      stencil: full/bin/3d
      bin: standard
Setting up Verlet run ...
  Unit style    : metal
  Current step  : 0
  Time step     : 0.001
Per MPI rank memory allocation (min/avg/max) = 3.695 | 3.695 | 3.695 Mbytes
   Step          Temp          E_pair         E_mol          TotEng         Press          Volume    
         0   145.184       -3799.9487      0             -3762.4345      598.74923      43243.551    
     10000   144.02423     -3763.8618      0             -3726.6472     -47.871546      42507.977    
Loop time of 291.764 on 16 procs for 10000 steps with 2000 atoms

Performance: 2.961 ns/day, 8.105 hours/ns, 34.274 timesteps/s, 68.549 katom-step/s
99.6% CPU use with 16 MPI tasks x 1 OpenMP threads

MPI task timing breakdown:
Section |  min time  |  avg time  |  max time  |%varavg| %total
---------------------------------------------------------------
Pair    | 272.43     | 273.67     | 275.21     |   4.9 | 93.80
Neigh   | 0.030498   | 0.030925   | 0.031274   |   0.1 |  0.01
Comm    | 14.981     | 16.639     | 17.828     |  20.0 |  5.70
Output  | 4.0637e-05 | 4.9857e-05 | 0.00018014 |   0.0 |  0.00
Modify  | 1.0313     | 1.3839     | 1.5379     |  17.3 |  0.47
Other   |            | 0.03759    |            |       |  0.01

Nlocal:            125 ave         132 max         117 min
Histogram: 1 1 4 0 2 1 1 1 2 3
Nghost:        1038.69 ave        1052 max        1025 min
Histogram: 2 0 2 0 5 1 1 3 1 1
Neighs:              0 ave           0 max           0 min
Histogram: 16 0 0 0 0 0 0 0 0 0
FullNghs:       7790.5 ave        8227 max        7296 min
Histogram: 1 3 2 0 2 1 0 2 2 3

Total # of neighbors = 124648
Ave neighs/atom = 62.324
Neighbor list builds = 93
Dangerous builds = 0
Setting up Verlet run ...
  Unit style    : metal
  Current step  : 10000
  Time step     : 0.001
Per MPI rank memory allocation (min/avg/max) = 3.713 | 3.718 | 3.729 Mbytes
   Step          Temp          E_pair         E_mol          TotEng         Press          Volume    
     10000   144.02423     -3763.8618      0             -3726.6472     -47.871546      42507.977    
    100000   145.33105     -3762.7797      0             -3725.2274     -180.23142      42565.631    
Loop time of 2597.63 on 16 procs for 90000 steps with 2000 atoms

Performance: 2.993 ns/day, 8.017 hours/ns, 34.647 timesteps/s, 69.294 katom-step/s
99.6% CPU use with 16 MPI tasks x 1 OpenMP threads

MPI task timing breakdown:
Section |  min time  |  avg time  |  max time  |%varavg| %total
---------------------------------------------------------------
Pair    | 2409.4     | 2416.8     | 2422.9     |   7.2 | 93.04
Neigh   | 0.25735    | 0.2603     | 0.26266    |   0.3 |  0.01
Comm    | 158.26     | 164.56     | 172.01     |  28.0 |  6.33
Output  | 0.0022018  | 0.029684   | 0.056359   |   9.3 |  0.00
Modify  | 13.947     | 15.596     | 16.598     |  25.6 |  0.60
Other   |            | 0.3347     |            |       |  0.01

Nlocal:            125 ave         132 max         116 min
Histogram: 2 1 0 1 2 0 5 2 0 3
Nghost:        1055.69 ave        1072 max        1043 min
Histogram: 2 0 6 1 2 1 0 0 3 1
Neighs:              0 ave           0 max           0 min
Histogram: 16 0 0 0 0 0 0 0 0 0
FullNghs:      7805.25 ave        8243 max        7212 min
Histogram: 2 1 0 1 2 0 4 3 0 3

Total # of neighbors = 124884
Ave neighs/atom = 62.442
Neighbor list builds = 797
Dangerous builds = 0
Setting up cg style minimization ...
  Unit style    : metal
  Current step  : 100000
Per MPI rank memory allocation (min/avg/max) = 4.844 | 4.854 | 4.863 Mbytes
   Step          Temp          E_pair         E_mol          TotEng         Press          Volume    
    100000   145.33105     -3762.7797      0             -3725.2274     -180.23142      42565.631    
    100118   145.33105     -3799.7611      0             -3762.2089      2130.3652      42565.631    
Loop time of 10.5885 on 16 procs for 118 steps with 2000 atoms

99.6% CPU use with 16 MPI tasks x 1 OpenMP threads

Minimization stats:
  Stopping criterion = linesearch alpha is zero
  Energy initial, next-to-last, final = 
     -3762.77965466597  -3799.76111433984  -3799.76111433984
  Force two-norm initial, final = 9.8177253 1.7671635e-13
  Force max component initial, final = 0.57325019 9.8692755e-15
  Final line search alpha, max atom move = 0 0
  Iterations, force evaluations = 118 233

MPI task timing breakdown:
Section |  min time  |  avg time  |  max time  |%varavg| %total
---------------------------------------------------------------
Pair    | 9.1188     | 9.9894     | 10.569     |  13.4 | 94.34
Neigh   | 0          | 0          | 0          |   0.0 |  0.00
Comm    | 0.015587   | 0.58947    | 1.459      |  55.0 |  5.57
Output  | 0          | 0          | 0          |   0.0 |  0.00
Modify  | 0          | 0          | 0          |   0.0 |  0.00
Other   |            | 0.00963    |            |       |  0.09

Nlocal:            125 ave         132 max         114 min
Histogram: 1 0 2 1 1 3 1 2 1 4
Nghost:        1047.62 ave        1068 max        1026 min
Histogram: 1 1 0 2 4 2 2 3 0 1
Neighs:              0 ave           0 max           0 min
Histogram: 16 0 0 0 0 0 0 0 0 0
FullNghs:      7801.62 ave        8256 max        7090 min
Histogram: 1 0 2 1 1 3 1 2 1 4

Total # of neighbors = 124826
Ave neighs/atom = 62.413
Neighbor list builds = 0
Dangerous builds = 0
Total wall time: 0:48:20
