LAMMPS (29 Aug 2024)
OMP_NUM_THREADS environment is not set. Defaulting to 1 thread. (src/comm.cpp:98)
  using 1 OpenMP thread(s) per MPI task
Lattice spacing in x,y,z = 3.51 3.51 3.51
Created orthogonal box = (0 0 0) to (35.1 35.1 35.1)
  2 by 2 by 4 MPI processor grid
Created 2000 atoms
  using lattice units in orthogonal box = (0 0 0) to (35.1 35.1 35.1)
  create_atoms CPU = 0.000 seconds
Reading potential file md/potentials/li_snap.snapcoeff with DATE: 2020-01-31
SNAP Element = Li, Radius 0.5, Weight 1
Reading potential file md/potentials/li_snap.snapparam with DATE: 2020-01-31
SNAP keyword rcutfac 5.1
SNAP keyword twojmax 8
SNAP keyword rfac0 0.99363
SNAP keyword rmin0 0
SNAP keyword quadraticflag 0
SNAP keyword bzeroflag 0
Neighbor list info ...
  update: every = 1 steps, delay = 0 steps, check = yes
  max neighbors/atom: 2000, page size: 100000
  master list distance cutoff = 7.1
  ghost atom cutoff = 7.1
  binsize = 3.55, bins = 10 10 10
  1 neighbor lists, perpetual/occasional/extra = 1 0 0
  (1) pair snap, perpetual
      attributes: full, newton on
      pair build: full/bin/atomonly
      stencil: full/bin/3d
      bin: standard
Setting up Verlet run ...
  Unit style    : metal
  Current step  : 0
  Time step     : 0.001
Per MPI rank memory allocation (min/avg/max) = 3.695 | 3.695 | 3.695 Mbytes
   Step          Temp          E_pair         E_mol          TotEng         Press          Volume    
         0   326.664       -3799.9487      0             -3715.5417      1757.0036      43243.551    
     10000   318.72714     -3715.5389      0             -3633.1827      218.84383      42749.16     
Loop time of 281.091 on 16 procs for 10000 steps with 2000 atoms

Performance: 3.074 ns/day, 7.808 hours/ns, 35.576 timesteps/s, 71.151 katom-step/s
99.6% CPU use with 16 MPI tasks x 1 OpenMP threads

MPI task timing breakdown:
Section |  min time  |  avg time  |  max time  |%varavg| %total
---------------------------------------------------------------
Pair    | 261.39     | 262.29     | 263.37     |   3.9 | 93.31
Neigh   | 0.077252   | 0.077876   | 0.078402   |   0.1 |  0.03
Comm    | 16.147     | 17.135     | 17.916     |  13.1 |  6.10
Output  | 3.3453e-05 | 3.8861e-05 | 0.00011365 |   0.0 |  0.00
Modify  | 1.2561     | 1.5517     | 1.7023     |  14.1 |  0.55
Other   |            | 0.03682    |            |       |  0.01

Nlocal:            125 ave         130 max         119 min
Histogram: 1 0 2 2 2 4 0 2 0 3
Nghost:        997.688 ave        1018 max         982 min
Histogram: 2 3 1 2 1 1 3 1 1 1
Neighs:              0 ave           0 max           0 min
Histogram: 16 0 0 0 0 0 0 0 0 0
FullNghs:       7850.5 ave        8213 max        7476 min
Histogram: 1 0 4 0 3 3 2 0 1 2

Total # of neighbors = 125608
Ave neighs/atom = 62.804
Neighbor list builds = 235
Dangerous builds = 0
Setting up Verlet run ...
  Unit style    : metal
  Current step  : 10000
  Time step     : 0.001
Per MPI rank memory allocation (min/avg/max) = 3.74 | 3.744 | 3.753 Mbytes
   Step          Temp          E_pair         E_mol          TotEng         Press          Volume    
     10000   318.72714     -3715.5389      0             -3633.1827      218.84383      42749.16     
    100000   324.60175     -3713.3279      0             -3629.4537     -208.39633      42835.646    
Loop time of 2542.75 on 16 procs for 90000 steps with 2000 atoms

Performance: 3.058 ns/day, 7.848 hours/ns, 35.395 timesteps/s, 70.789 katom-step/s
99.6% CPU use with 16 MPI tasks x 1 OpenMP threads

MPI task timing breakdown:
Section |  min time  |  avg time  |  max time  |%varavg| %total
---------------------------------------------------------------
Pair    | 2346.1     | 2353.4     | 2363.3     |   8.9 | 92.55
Neigh   | 0.70647    | 0.71246    | 0.7177     |   0.3 |  0.03
Comm    | 160.5      | 171.33     | 179.7      |  36.4 |  6.74
Output  | 0.0021355  | 0.030017   | 0.056701   |   9.3 |  0.00
Modify  | 14.123     | 16.918     | 19.848     |  51.7 |  0.67
Other   |            | 0.3407     |            |       |  0.01

Nlocal:            125 ave         132 max         120 min
Histogram: 1 3 3 1 2 3 0 1 0 2
Nghost:        992.375 ave         998 max         983 min
Histogram: 1 0 1 2 0 2 1 3 5 1
Neighs:              0 ave           0 max           0 min
Histogram: 16 0 0 0 0 0 0 0 0 0
FullNghs:      7859.75 ave        8338 max        7496 min
Histogram: 1 2 2 4 3 1 0 1 0 2

Total # of neighbors = 125756
Ave neighs/atom = 62.878
Neighbor list builds = 2159
Dangerous builds = 0
Setting up cg style minimization ...
  Unit style    : metal
  Current step  : 100000
Per MPI rank memory allocation (min/avg/max) = 4.873 | 4.88 | 4.887 Mbytes
   Step          Temp          E_pair         E_mol          TotEng         Press          Volume    
    100000   324.60175     -3713.3279      0             -3629.4537     -208.39633      42835.646    
    100126   324.60175     -3799.9124      0             -3716.0383      2694.8397      42835.646    
Loop time of 10.2074 on 16 procs for 126 steps with 2000 atoms

99.5% CPU use with 16 MPI tasks x 1 OpenMP threads

Minimization stats:
  Stopping criterion = linesearch alpha is zero
  Energy initial, next-to-last, final = 
     -3713.32792294284  -3799.91243311854  -3799.91243311854
  Force two-norm initial, final = 14.752225 2.0206954e-13
  Force max component initial, final = 0.7741843 1.1991927e-14
  Final line search alpha, max atom move = 0 0
  Iterations, force evaluations = 126 230

MPI task timing breakdown:
Section |  min time  |  avg time  |  max time  |%varavg| %total
---------------------------------------------------------------
Pair    | 9.1239     | 9.6601     | 10.195     |  10.0 | 94.64
Neigh   | 0          | 0          | 0          |   0.0 |  0.00
Comm    | 0.0086438  | 0.52819    | 1.0186     |  43.9 |  5.17
Output  | 0          | 0          | 0          |   0.0 |  0.00
Modify  | 0          | 0          | 0          |   0.0 |  0.00
Other   |            | 0.01918    |            |       |  0.19

Nlocal:            125 ave         132 max         118 min
Histogram: 1 1 4 1 1 3 0 2 0 3
Nghost:        992.125 ave        1000 max         983 min
Histogram: 2 0 1 1 3 2 3 0 3 1
Neighs:              0 ave           0 max           0 min
Histogram: 16 0 0 0 0 0 0 0 0 0
FullNghs:      7861.75 ave        8341 max        7371 min
Histogram: 1 0 3 3 2 2 1 1 0 3

Total # of neighbors = 125788
Ave neighs/atom = 62.894
Neighbor list builds = 0
Dangerous builds = 0
Total wall time: 0:47:14
