LAMMPS (29 Aug 2024)
OMP_NUM_THREADS environment is not set. Defaulting to 1 thread. (src/comm.cpp:98)
  using 1 OpenMP thread(s) per MPI task
Lattice spacing in x,y,z = 3.51 3.51 3.51
Created orthogonal box = (0 0 0) to (35.1 35.1 35.1)
  2 by 2 by 4 MPI processor grid
Created 2000 atoms
  using lattice units in orthogonal box = (0 0 0) to (35.1 35.1 35.1)
  create_atoms CPU = 0.000 seconds
Reading potential file md/potentials/li_snap.snapcoeff with DATE: 2020-01-31
SNAP Element = Li, Radius 0.5, Weight 1
Reading potential file md/potentials/li_snap.snapparam with DATE: 2020-01-31
SNAP keyword rcutfac 5.1
SNAP keyword twojmax 8
SNAP keyword rfac0 0.99363
SNAP keyword rmin0 0
SNAP keyword quadraticflag 0
SNAP keyword bzeroflag 0
Neighbor list info ...
  update: every = 1 steps, delay = 0 steps, check = yes
  max neighbors/atom: 2000, page size: 100000
  master list distance cutoff = 7.1
  ghost atom cutoff = 7.1
  binsize = 3.55, bins = 10 10 10
  1 neighbor lists, perpetual/occasional/extra = 1 0 0
  (1) pair snap, perpetual
      attributes: full, newton on
      pair build: full/bin/atomonly
      stencil: full/bin/3d
      bin: standard
Setting up Verlet run ...
  Unit style    : metal
  Current step  : 0
  Time step     : 0.001
Per MPI rank memory allocation (min/avg/max) = 3.695 | 3.695 | 3.695 Mbytes
   Step          Temp          E_pair         E_mol          TotEng         Press          Volume    
         0   598.884       -3799.9487      0             -3645.2025      3494.3852      43243.551    
     10000   601.2809      -3557.597       0             -3402.2315      22.963165      44390.855    
Loop time of 284.045 on 16 procs for 10000 steps with 2000 atoms

Performance: 3.042 ns/day, 7.890 hours/ns, 35.206 timesteps/s, 70.411 katom-step/s
99.7% CPU use with 16 MPI tasks x 1 OpenMP threads

MPI task timing breakdown:
Section |  min time  |  avg time  |  max time  |%varavg| %total
---------------------------------------------------------------
Pair    | 263.07     | 265.61     | 267.44     |   7.8 | 93.51
Neigh   | 0.1145     | 0.11572    | 0.11675    |   0.2 |  0.04
Comm    | 14.563     | 16.649     | 19.466     |  34.6 |  5.86
Output  | 4.266e-05  | 5.3746e-05 | 0.00021424 |   0.0 |  0.00
Modify  | 1.2778     | 1.63       | 2.2219     |  28.9 |  0.57
Other   |            | 0.03636    |            |       |  0.01

Nlocal:            125 ave         130 max         116 min
Histogram: 1 1 0 1 0 2 5 1 1 4
Nghost:        928.688 ave         942 max         913 min
Histogram: 1 0 2 3 2 1 2 0 3 2
Neighs:              0 ave           0 max           0 min
Histogram: 16 0 0 0 0 0 0 0 0 0
FullNghs:      8279.25 ave        8714 max        7644 min
Histogram: 2 0 1 0 1 4 2 1 3 2

Total # of neighbors = 132468
Ave neighs/atom = 66.234
Neighbor list builds = 337
Dangerous builds = 0
Setting up Verlet run ...
  Unit style    : metal
  Current step  : 10000
  Time step     : 0.001
Per MPI rank memory allocation (min/avg/max) = 3.752 | 3.761 | 3.768 Mbytes
   Step          Temp          E_pair         E_mol          TotEng         Press          Volume    
     10000   601.2809      -3557.597       0             -3402.2315      22.963165      44390.855    
    100000   608.66018     -3552.7112      0             -3395.4389     -278.90038      44682.353    
Loop time of 2552.09 on 16 procs for 90000 steps with 2000 atoms

Performance: 3.047 ns/day, 7.877 hours/ns, 35.265 timesteps/s, 70.531 katom-step/s
99.7% CPU use with 16 MPI tasks x 1 OpenMP threads

MPI task timing breakdown:
Section |  min time  |  avg time  |  max time  |%varavg| %total
---------------------------------------------------------------
Pair    | 2385.3     | 2391.2     | 2401.2     |   8.7 | 93.70
Neigh   | 1.0542     | 1.0616     | 1.0721     |   0.5 |  0.04
Comm    | 135.21     | 145.24     | 151.1      |  33.6 |  5.69
Output  | 0.0032441  | 0.03299    | 0.06333    |   9.9 |  0.00
Modify  | 12.906     | 14.222     | 16.665     |  39.7 |  0.56
Other   |            | 0.3249     |            |       |  0.01

Nlocal:            125 ave         130 max         121 min
Histogram: 2 3 0 1 3 2 3 0 0 2
Nghost:        936.875 ave         953 max         925 min
Histogram: 3 1 2 4 0 0 2 2 0 2
Neighs:              0 ave           0 max           0 min
Histogram: 16 0 0 0 0 0 0 0 0 0
FullNghs:      8212.25 ave        8528 max        7898 min
Histogram: 1 2 2 2 0 4 0 2 1 2

Total # of neighbors = 131396
Ave neighs/atom = 65.698
Neighbor list builds = 3100
Dangerous builds = 0
Setting up cg style minimization ...
  Unit style    : metal
  Current step  : 100000
Per MPI rank memory allocation (min/avg/max) = 4.89 | 4.896 | 4.902 Mbytes
   Step          Temp          E_pair         E_mol          TotEng         Press          Volume    
    100000   608.66018     -3552.7112      0             -3395.4389     -278.90038      44682.353    
    104033   608.66018     -3781.4842      0             -3624.2119     -2238.2437      44682.353    
Loop time of 295.025 on 16 procs for 4033 steps with 2000 atoms

99.6% CPU use with 16 MPI tasks x 1 OpenMP threads

Minimization stats:
  Stopping criterion = linesearch alpha is zero
  Energy initial, next-to-last, final = 
     -3552.71118150073  -3781.48420279815  -3781.48420279815
  Force two-norm initial, final = 19.248314 1.6876816e-13
  Force max component initial, final = 1.1648812 1.1668096e-14
  Final line search alpha, max atom move = 0 0
  Iterations, force evaluations = 4033 6893

MPI task timing breakdown:
Section |  min time  |  avg time  |  max time  |%varavg| %total
---------------------------------------------------------------
Pair    | 265.19     | 275.22     | 287.15     |  34.7 | 93.29
Neigh   | 0.036789   | 0.038259   | 0.039842   |   0.4 |  0.01
Comm    | 7.333      | 18.474     | 28.842     | 132.3 |  6.26
Output  | 0          | 0          | 0          |   0.0 |  0.00
Modify  | 0          | 0          | 0          |   0.0 |  0.00
Other   |            | 1.295      |            |       |  0.44

Nlocal:            125 ave         135 max         120 min
Histogram: 3 4 3 1 2 0 0 1 0 2
Nghost:        926.812 ave         939 max         911 min
Histogram: 1 1 2 1 1 3 0 2 1 4
Neighs:              0 ave           0 max           0 min
Histogram: 16 0 0 0 0 0 0 0 0 0
FullNghs:      7681.25 ave        8705 max        7173 min
Histogram: 3 5 3 1 0 0 1 1 0 2

Total # of neighbors = 122900
Ave neighs/atom = 61.45
Neighbor list builds = 116
Dangerous builds = 0
Total wall time: 0:52:11
