LAMMPS (29 Aug 2024)
OMP_NUM_THREADS environment is not set. Defaulting to 1 thread. (src/comm.cpp:98)
  using 1 OpenMP thread(s) per MPI task
Lattice spacing in x,y,z = 3.51 3.51 3.51
Created orthogonal box = (0 0 0) to (35.1 35.1 35.1)
  2 by 2 by 4 MPI processor grid
Created 2000 atoms
  using lattice units in orthogonal box = (0 0 0) to (35.1 35.1 35.1)
  create_atoms CPU = 0.001 seconds
Reading potential file md/potentials/li_snap.snapcoeff with DATE: 2020-01-31
SNAP Element = Li, Radius 0.5, Weight 1
Reading potential file md/potentials/li_snap.snapparam with DATE: 2020-01-31
SNAP keyword rcutfac 5.1
SNAP keyword twojmax 8
SNAP keyword rfac0 0.99363
SNAP keyword rmin0 0
SNAP keyword quadraticflag 0
SNAP keyword bzeroflag 0
Neighbor list info ...
  update: every = 1 steps, delay = 0 steps, check = yes
  max neighbors/atom: 2000, page size: 100000
  master list distance cutoff = 7.1
  ghost atom cutoff = 7.1
  binsize = 3.55, bins = 10 10 10
  1 neighbor lists, perpetual/occasional/extra = 1 0 0
  (1) pair snap, perpetual
      attributes: full, newton on
      pair build: full/bin/atomonly
      stencil: full/bin/3d
      bin: standard
Setting up Verlet run ...
  Unit style    : metal
  Current step  : 0
  Time step     : 0.001
Per MPI rank memory allocation (min/avg/max) = 3.695 | 3.695 | 3.695 Mbytes
   Step          Temp          E_pair         E_mol          TotEng         Press          Volume    
         0   272.22        -3799.9487      0             -3729.6095      1409.5273      43243.551    
     10000   269.72887     -3731.7406      0             -3662.0451      71.593629      42625.354    
Loop time of 282.271 on 16 procs for 10000 steps with 2000 atoms

Performance: 3.061 ns/day, 7.841 hours/ns, 35.427 timesteps/s, 70.854 katom-step/s
99.6% CPU use with 16 MPI tasks x 1 OpenMP threads

MPI task timing breakdown:
Section |  min time  |  avg time  |  max time  |%varavg| %total
---------------------------------------------------------------
Pair    | 260.82     | 261.93     | 263.57     |   3.8 | 92.79
Neigh   | 0.0686     | 0.06923    | 0.069751   |   0.1 |  0.02
Comm    | 16.577     | 18.509     | 19.333     |  14.3 |  6.56
Output  | 4.8461e-05 | 6.0274e-05 | 0.0002292  |   0.0 |  0.00
Modify  | 1.3469     | 1.7241     | 2.015      |  18.2 |  0.61
Other   |            | 0.03781    |            |       |  0.01

Nlocal:            125 ave         135 max         117 min
Histogram: 1 1 5 3 1 0 0 2 2 1
Nghost:        1013.75 ave        1035 max         994 min
Histogram: 1 1 2 2 2 2 3 2 0 1
Neighs:              0 ave           0 max           0 min
Histogram: 16 0 0 0 0 0 0 0 0 0
FullNghs:      7823.25 ave        8478 max        7272 min
Histogram: 1 1 4 4 1 0 0 2 1 2

Total # of neighbors = 125172
Ave neighs/atom = 62.586
Neighbor list builds = 211
Dangerous builds = 0
Setting up Verlet run ...
  Unit style    : metal
  Current step  : 10000
  Time step     : 0.001
Per MPI rank memory allocation (min/avg/max) = 3.736 | 3.742 | 3.753 Mbytes
   Step          Temp          E_pair         E_mol          TotEng         Press          Volume    
     10000   269.72887     -3731.7406      0             -3662.0451      71.593629      42625.354    
    100000   272.93553     -3729.473       0             -3658.9489      618.4238       42381.91     
Loop time of 2589.37 on 16 procs for 90000 steps with 2000 atoms

Performance: 3.003 ns/day, 7.992 hours/ns, 34.757 timesteps/s, 69.515 katom-step/s
99.6% CPU use with 16 MPI tasks x 1 OpenMP threads

MPI task timing breakdown:
Section |  min time  |  avg time  |  max time  |%varavg| %total
---------------------------------------------------------------
Pair    | 2361.5     | 2376       | 2509.9     |  71.3 | 91.76
Neigh   | 0.62316    | 0.62719    | 0.63069    |   0.3 |  0.02
Comm    | 69.205     | 191.67     | 216.98     | 266.6 |  7.40
Output  | 0.0021891  | 0.02984    | 0.056513   |   9.3 |  0.00
Modify  | 9.3164     | 20.72      | 53.621     | 417.3 |  0.80
Other   |            | 0.3182     |            |       |  0.01

Nlocal:            125 ave         134 max         117 min
Histogram: 1 1 2 2 4 2 0 2 1 1
Nghost:        1025.94 ave        1049 max        1002 min
Histogram: 2 0 2 1 3 3 1 0 3 1
Neighs:              0 ave           0 max           0 min
Histogram: 16 0 0 0 0 0 0 0 0 0
FullNghs:      7862.75 ave        8465 max        7353 min
Histogram: 1 1 2 5 1 2 0 2 1 1

Total # of neighbors = 125804
Ave neighs/atom = 62.902
Neighbor list builds = 1906
Dangerous builds = 0
Setting up cg style minimization ...
  Unit style    : metal
  Current step  : 100000
Per MPI rank memory allocation (min/avg/max) = 4.869 | 4.877 | 4.891 Mbytes
   Step          Temp          E_pair         E_mol          TotEng         Press          Volume    
    100000   272.93553     -3729.473       0             -3658.9489      618.4238       42381.91     
    100130   272.93553     -3799.6028      0             -3729.0787      3348.5459      42381.91     
Loop time of 11.4667 on 16 procs for 130 steps with 2000 atoms

99.6% CPU use with 16 MPI tasks x 1 OpenMP threads

Minimization stats:
  Stopping criterion = linesearch alpha is zero
  Energy initial, next-to-last, final = 
     -3729.47301476727  -3799.60280079904  -3799.60280079904
  Force two-norm initial, final = 13.643211 1.6402613e-13
  Force max component initial, final = 0.77354626 9.374012e-15
  Final line search alpha, max atom move = 0 0
  Iterations, force evaluations = 130 242

MPI task timing breakdown:
Section |  min time  |  avg time  |  max time  |%varavg| %total
---------------------------------------------------------------
Pair    | 10.223     | 10.725     | 11.455     |  11.1 | 93.53
Neigh   | 0          | 0          | 0          |   0.0 |  0.00
Comm    | 0.0082833  | 0.70558    | 1.2396     |  47.8 |  6.15
Output  | 0          | 0          | 0          |   0.0 |  0.00
Modify  | 0          | 0          | 0          |   0.0 |  0.00
Other   |            | 0.03622    |            |       |  0.32

Nlocal:            125 ave         134 max         119 min
Histogram: 3 0 4 2 2 1 1 1 1 1
Nghost:        1023.81 ave        1044 max         993 min
Histogram: 1 1 1 0 4 0 2 2 3 2
Neighs:              0 ave           0 max           0 min
Histogram: 16 0 0 0 0 0 0 0 0 0
FullNghs:      7857.38 ave        8413 max        7432 min
Histogram: 2 1 3 3 1 2 0 2 1 1

Total # of neighbors = 125718
Ave neighs/atom = 62.859
Neighbor list builds = 0
Dangerous builds = 0
Total wall time: 0:48:03
