LAMMPS (29 Aug 2024)
OMP_NUM_THREADS environment is not set. Defaulting to 1 thread. (src/comm.cpp:98)
  using 1 OpenMP thread(s) per MPI task

#---------------------------- Atomic setup ------------------------------------#
units            metal
timestep         0.001
boundary         p p p
lattice          bcc 3.51
Lattice spacing in x,y,z = 3.51 3.51 3.51
region           sim_box block 0 10 0 10 0 10
create_box       1 sim_box
Created orthogonal box = (0 0 0) to (35.1 35.1 35.1)
  2 by 2 by 4 MPI processor grid
create_atoms     1 box
Created 2000 atoms
  using lattice units in orthogonal box = (0 0 0) to (35.1 35.1 35.1)
  create_atoms CPU = 0.000 seconds

pair_style       snap                                             # interatomic potential (Lennard-Jones, EAM, etc.)
pair_coeff       * * ${potentials_dir}/li_snap.snapcoeff ${potentials_dir}/li_snap.snapparam Li # interatomic potential parameters (ex. eam.alloy ${potentials_dir}/Cu_u3.eam)
pair_coeff       * * md/potentials/li_snap.snapcoeff ${potentials_dir}/li_snap.snapparam Li 
pair_coeff       * * md/potentials/li_snap.snapcoeff md/potentials/li_snap.snapparam Li 
Reading potential file md/potentials/li_snap.snapcoeff with DATE: 2020-01-31
SNAP Element = Li, Radius 0.5, Weight 1
Reading potential file md/potentials/li_snap.snapparam with DATE: 2020-01-31
SNAP keyword rcutfac 5.1
SNAP keyword twojmax 8
SNAP keyword rfac0 0.99363
SNAP keyword rmin0 0
SNAP keyword quadraticflag 0
SNAP keyword bzeroflag 0
pair_modify      tail yes
neigh_modify     delay 0                                                       # neighbor list update frequency (0 = every timestep)
mass             1 6.941                                                 # atomic mass
variable         rnd equal round(random(0,999999,42))

#----------------------------- Equilibriation ---------------------------------#
velocity         all create 725.9200000000001 ${rnd} dist gaussian              # initial velocities
velocity         all create 725.9200000000001 420940 dist gaussian              
fix              f2 all nph iso 0 0 1.0        # barostat
variable         rnd equal round(random(0,999999,0))
fix              f3 all temp/csvr 725.9200000000001 725.9200000000001 0.1 ${rnd} # thermostat
fix              f3 all temp/csvr 725.9200000000001 725.9200000000001 0.1 53464 
run              10000                                           # equilibriation run
Neighbor list info ...
  update: every = 1 steps, delay = 0 steps, check = yes
  max neighbors/atom: 2000, page size: 100000
  master list distance cutoff = 7.1
  ghost atom cutoff = 7.1
  binsize = 3.55, bins = 10 10 10
  1 neighbor lists, perpetual/occasional/extra = 1 0 0
  (1) pair snap, perpetual
      attributes: full, newton on
      pair build: full/bin/atomonly
      stencil: full/bin/3d
      bin: standard
Per MPI rank memory allocation (min/avg/max) = 3.695 | 3.695 | 3.695 Mbytes
   Step          Temp          E_pair         E_mol          TotEng         Press          Volume    
         0   725.92        -3799.9487      0             -3612.3775      4305.1633      43243.551    
     10000   721.3493      -3515.8547      0             -3329.4645     -134.34806      45592.897    
Loop time of 277.105 on 16 procs for 10000 steps with 2000 atoms

Performance: 3.118 ns/day, 7.697 hours/ns, 36.087 timesteps/s, 72.175 katom-step/s
99.6% CPU use with 16 MPI tasks x 1 OpenMP threads

MPI task timing breakdown:
Section |  min time  |  avg time  |  max time  |%varavg| %total
---------------------------------------------------------------
Pair    | 257.02     | 259.09     | 260.77     |   7.0 | 93.50
Neigh   | 0.11702    | 0.11813    | 0.1203     |   0.2 |  0.04
Comm    | 14.803     | 16.387     | 18.175     |  25.5 |  5.91
Output  | 3.9074e-05 | 4.4564e-05 | 0.00011805 |   0.0 |  0.00
Modify  | 1.1043     | 1.4727     | 1.7635     |  19.4 |  0.53
Other   |            | 0.03705    |            |       |  0.01

Nlocal:            125 ave         131 max         116 min
Histogram: 2 0 1 0 3 0 3 3 0 4
Nghost:        918.625 ave         945 max         904 min
Histogram: 3 1 3 1 5 2 0 0 0 1
Neighs:              0 ave           0 max           0 min
Histogram: 16 0 0 0 0 0 0 0 0 0
FullNghs:      8076.12 ave        8645 max        7463 min
Histogram: 2 1 0 2 2 3 2 1 2 1

Total # of neighbors = 129218
Ave neighs/atom = 64.609
Neighbor list builds = 380
Dangerous builds = 0

#----------------------------- Run simulation ---------------------------------#
dump             d1 all custom 10000 md/data/li_bcc/dump_1.6.gz id type x y z # snapshots
run              90000
Per MPI rank memory allocation (min/avg/max) = 3.751 | 3.76 | 3.772 Mbytes
   Step          Temp          E_pair         E_mol          TotEng         Press          Volume    
     10000   721.3493      -3515.8547      0             -3329.4645     -134.34806      45592.897    
    100000   720.09783     -3505.608       0             -3319.5412     -267.44179      45894.202    
Loop time of 2485.67 on 16 procs for 90000 steps with 2000 atoms

Performance: 3.128 ns/day, 7.672 hours/ns, 36.208 timesteps/s, 72.415 katom-step/s
99.6% CPU use with 16 MPI tasks x 1 OpenMP threads

MPI task timing breakdown:
Section |  min time  |  avg time  |  max time  |%varavg| %total
---------------------------------------------------------------
Pair    | 2312.7     | 2321.9     | 2326.4     |   7.9 | 93.41
Neigh   | 1.0514     | 1.0557     | 1.0692     |   0.4 |  0.04
Comm    | 143.56     | 148.01     | 155.98     |  29.8 |  5.95
Output  | 0.0037807  | 0.032922   | 0.062677   |   9.7 |  0.00
Modify  | 13.594     | 14.375     | 15.592     |  19.4 |  0.58
Other   |            | 0.3373     |            |       |  0.01

Nlocal:            125 ave         132 max         119 min
Histogram: 3 0 1 2 3 1 4 1 0 1
Nghost:         905.25 ave         917 max         892 min
Histogram: 1 0 3 0 3 4 1 0 2 2
Neighs:              0 ave           0 max           0 min
Histogram: 16 0 0 0 0 0 0 0 0 0
FullNghs:         8022 ave        8534 max        7527 min
Histogram: 3 0 1 1 3 2 2 2 1 1

Total # of neighbors = 128352
Ave neighs/atom = 64.176
Neighbor list builds = 3434
Dangerous builds = 0
undump           d1
min_modify       line forcezero
minimize         0 0 100000 100000                                                                               # minimize energy
Per MPI rank memory allocation (min/avg/max) = 4.885 | 4.892 | 4.902 Mbytes
   Step          Temp          E_pair         E_mol          TotEng         Press          Volume    
    100000   720.09783     -3505.608       0             -3319.5412     -267.44179      45894.202    
    102289   720.09783     -3736.4772      0             -3550.4104     -6050.3596      45894.202    
Loop time of 172.315 on 16 procs for 2289 steps with 2000 atoms

99.6% CPU use with 16 MPI tasks x 1 OpenMP threads

Minimization stats:
  Stopping criterion = linesearch alpha is zero
  Energy initial, next-to-last, final = 
     -3505.60800278105  -3736.47723734244  -3736.47723734244
  Force two-norm initial, final = 21.393504 1.5696551e-13
  Force max component initial, final = 1.418991 1.3135326e-14
  Final line search alpha, max atom move = 0 0
  Iterations, force evaluations = 2289 4128

MPI task timing breakdown:
Section |  min time  |  avg time  |  max time  |%varavg| %total
---------------------------------------------------------------
Pair    | 152.71     | 160.51     | 169.71     |  33.0 | 93.15
Neigh   | 0.012892   | 0.013494   | 0.014051   |   0.3 |  0.01
Comm    | 2.3394     | 10.935     | 19.045     | 133.6 |  6.35
Output  | 0          | 0          | 0          |   0.0 |  0.00
Modify  | 0          | 0          | 0          |   0.0 |  0.00
Other   |            | 0.8615     |            |       |  0.50

Nlocal:            125 ave         136 max         119 min
Histogram: 2 3 2 5 1 1 0 0 1 1
Nghost:        914.875 ave         924 max         901 min
Histogram: 1 0 0 1 1 5 3 3 0 2
Neighs:              0 ave           0 max           0 min
Histogram: 16 0 0 0 0 0 0 0 0 0
FullNghs:      7888.25 ave        8646 max        7479 min
Histogram: 2 2 3 5 2 0 0 0 1 1

Total # of neighbors = 126212
Ave neighs/atom = 63.106
Neighbor list builds = 45
Dangerous builds = 0
write_dump       all custom md/data/li_bcc/dump_1.6_relaxed.gz id type x y z
#------------------------------------------------------------------------------#
Total wall time: 0:48:55
