LAMMPS (29 Aug 2024)
OMP_NUM_THREADS environment is not set. Defaulting to 1 thread. (src/comm.cpp:98)
  using 1 OpenMP thread(s) per MPI task
Lattice spacing in x,y,z = 3.51 3.51 3.51
Created orthogonal box = (0 0 0) to (35.1 35.1 35.1)
  2 by 2 by 4 MPI processor grid
Created 2000 atoms
  using lattice units in orthogonal box = (0 0 0) to (35.1 35.1 35.1)
  create_atoms CPU = 0.000 seconds
Reading potential file md/potentials/li_snap.snapcoeff with DATE: 2020-01-31
SNAP Element = Li, Radius 0.5, Weight 1
Reading potential file md/potentials/li_snap.snapparam with DATE: 2020-01-31
SNAP keyword rcutfac 5.1
SNAP keyword twojmax 8
SNAP keyword rfac0 0.99363
SNAP keyword rmin0 0
SNAP keyword quadraticflag 0
SNAP keyword bzeroflag 0
Neighbor list info ...
  update: every = 1 steps, delay = 0 steps, check = yes
  max neighbors/atom: 2000, page size: 100000
  master list distance cutoff = 7.1
  ghost atom cutoff = 7.1
  binsize = 3.55, bins = 10 10 10
  1 neighbor lists, perpetual/occasional/extra = 1 0 0
  (1) pair snap, perpetual
      attributes: full, newton on
      pair build: full/bin/atomonly
      stencil: full/bin/3d
      bin: standard
Setting up Verlet run ...
  Unit style    : metal
  Current step  : 0
  Time step     : 0.001
Per MPI rank memory allocation (min/avg/max) = 3.695 | 3.695 | 3.695 Mbytes
   Step          Temp          E_pair         E_mol          TotEng         Press          Volume    
         0   489.996       -3799.9487      0             -3673.3381      2799.4326      43243.551    
     10000   476.53551     -3662.9468      0             -3539.8143      512.47772      43356.86     
Loop time of 277.334 on 16 procs for 10000 steps with 2000 atoms

Performance: 3.115 ns/day, 7.704 hours/ns, 36.058 timesteps/s, 72.115 katom-step/s
99.6% CPU use with 16 MPI tasks x 1 OpenMP threads

MPI task timing breakdown:
Section |  min time  |  avg time  |  max time  |%varavg| %total
---------------------------------------------------------------
Pair    | 255        | 256.89     | 260.31     |   9.4 | 92.63
Neigh   | 0.098812   | 0.099582   | 0.1006     |   0.2 |  0.04
Comm    | 14.982     | 18.518     | 20.522     |  36.6 |  6.68
Output  | 3.8973e-05 | 4.4291e-05 | 0.00011639 |   0.0 |  0.00
Modify  | 1.459      | 1.7923     | 2.1314     |  18.7 |  0.65
Other   |            | 0.03529    |            |       |  0.01

Nlocal:            125 ave         133 max         115 min
Histogram: 1 1 2 1 0 4 2 1 2 2
Nghost:        960.438 ave         975 max         954 min
Histogram: 4 4 1 2 2 1 1 0 0 1
Neighs:              0 ave           0 max           0 min
Histogram: 16 0 0 0 0 0 0 0 0 0
FullNghs:      7956.88 ave        8560 max        7246 min
Histogram: 1 1 1 1 3 3 2 0 2 2

Total # of neighbors = 127310
Ave neighs/atom = 63.655
Neighbor list builds = 300
Dangerous builds = 0
Setting up Verlet run ...
  Unit style    : metal
  Current step  : 10000
  Time step     : 0.001
Per MPI rank memory allocation (min/avg/max) = 3.748 | 3.754 | 3.77 Mbytes
   Step          Temp          E_pair         E_mol          TotEng         Press          Volume    
     10000   476.53551     -3662.9468      0             -3539.8143      512.47772      43356.86     
    100000   484.10191     -3658.0939      0             -3533.0063      380.6579       43526.81     
Loop time of 2498.87 on 16 procs for 90000 steps with 2000 atoms

Performance: 3.112 ns/day, 7.713 hours/ns, 36.016 timesteps/s, 72.033 katom-step/s
99.6% CPU use with 16 MPI tasks x 1 OpenMP threads

MPI task timing breakdown:
Section |  min time  |  avg time  |  max time  |%varavg| %total
---------------------------------------------------------------
Pair    | 2309.3     | 2314.7     | 2325.7     |   8.2 | 92.63
Neigh   | 0.91423    | 0.919      | 0.9223     |   0.3 |  0.04
Comm    | 157.71     | 166.82     | 172.85     |  33.0 |  6.68
Output  | 0.0022358  | 0.030148   | 0.056664   |   9.3 |  0.00
Modify  | 14.202     | 16.048     | 19.284     |  49.6 |  0.64
Other   |            | 0.32       |            |       |  0.01

Nlocal:            125 ave         132 max         116 min
Histogram: 1 0 2 1 0 6 1 2 1 2
Nghost:          968.5 ave         985 max         952 min
Histogram: 2 1 2 1 2 1 3 2 1 1
Neighs:              0 ave           0 max           0 min
Histogram: 16 0 0 0 0 0 0 0 0 0
FullNghs:         7945 ave        8386 max        7352 min
Histogram: 1 1 1 1 1 5 0 2 1 3

Total # of neighbors = 127120
Ave neighs/atom = 63.56
Neighbor list builds = 2761
Dangerous builds = 0
Setting up cg style minimization ...
  Unit style    : metal
  Current step  : 100000
Per MPI rank memory allocation (min/avg/max) = 4.882 | 4.888 | 4.898 Mbytes
   Step          Temp          E_pair         E_mol          TotEng         Press          Volume    
    100000   484.10191     -3658.0939      0             -3533.0063      380.6579       43526.81     
    100226   484.10191     -3798.7276      0             -3673.64        1992.3147      43526.81     
Loop time of 19.5368 on 16 procs for 226 steps with 2000 atoms

99.7% CPU use with 16 MPI tasks x 1 OpenMP threads

Minimization stats:
  Stopping criterion = linesearch alpha is zero
  Energy initial, next-to-last, final = 
     -3658.09386431112  -3798.72756571842  -3798.72756571842
  Force two-norm initial, final = 18.304499 1.3910898e-13
  Force max component initial, final = 1.028205 1.7597035e-14
  Final line search alpha, max atom move = 0.51544048 9.0702241e-15
  Iterations, force evaluations = 226 420

MPI task timing breakdown:
Section |  min time  |  avg time  |  max time  |%varavg| %total
---------------------------------------------------------------
Pair    | 17.539     | 18.465     | 19.465     |  12.7 | 94.51
Neigh   | 0.00029319 | 0.00031607 | 0.00034687 |   0.0 |  0.00
Comm    | 0.064925   | 1.0057     | 1.9917     |  54.9 |  5.15
Output  | 0          | 0          | 0          |   0.0 |  0.00
Modify  | 0          | 0          | 0          |   0.0 |  0.00
Other   |            | 0.06558    |            |       |  0.34

Nlocal:            125 ave         132 max         119 min
Histogram: 2 2 1 0 5 1 2 0 2 1
Nghost:        1002.19 ave        1014 max         991 min
Histogram: 2 1 3 0 3 0 2 2 2 1
Neighs:              0 ave           0 max           0 min
Histogram: 16 0 0 0 0 0 0 0 0 0
FullNghs:         7742 ave        8186 max        7347 min
Histogram: 2 2 1 0 4 2 2 0 1 2

Total # of neighbors = 123872
Ave neighs/atom = 61.936
Neighbor list builds = 1
Dangerous builds = 0
Total wall time: 0:46:35
