LAMMPS (29 Aug 2024)
OMP_NUM_THREADS environment is not set. Defaulting to 1 thread. (src/comm.cpp:98)
  using 1 OpenMP thread(s) per MPI task

#---------------------------- Atomic setup ------------------------------------#
units            metal
timestep         0.001
boundary         p p p
lattice          bcc 3.51
Lattice spacing in x,y,z = 3.51 3.51 3.51
region           sim_box block 0 10 0 10 0 10
create_box       1 sim_box
Created orthogonal box = (0 0 0) to (35.1 35.1 35.1)
  2 by 2 by 4 MPI processor grid
create_atoms     1 box
Created 2000 atoms
  using lattice units in orthogonal box = (0 0 0) to (35.1 35.1 35.1)
  create_atoms CPU = 0.001 seconds

pair_style       snap                                             # interatomic potential (Lennard-Jones, EAM, etc.)
pair_coeff       * * ${potentials_dir}/li_snap.snapcoeff ${potentials_dir}/li_snap.snapparam Li # interatomic potential parameters (ex. eam.alloy ${potentials_dir}/Cu_u3.eam)
pair_coeff       * * md/potentials/li_snap.snapcoeff ${potentials_dir}/li_snap.snapparam Li 
pair_coeff       * * md/potentials/li_snap.snapcoeff md/potentials/li_snap.snapparam Li 
Reading potential file md/potentials/li_snap.snapcoeff with DATE: 2020-01-31
SNAP Element = Li, Radius 0.5, Weight 1
Reading potential file md/potentials/li_snap.snapparam with DATE: 2020-01-31
SNAP keyword rcutfac 5.1
SNAP keyword twojmax 8
SNAP keyword rfac0 0.99363
SNAP keyword rmin0 0
SNAP keyword quadraticflag 0
SNAP keyword bzeroflag 0
pair_modify      tail yes
neigh_modify     delay 0                                                       # neighbor list update frequency (0 = every timestep)
mass             1 6.941                                                 # atomic mass
variable         rnd equal round(random(0,999999,42))

#----------------------------- Equilibriation ---------------------------------#
velocity         all create 580.736 ${rnd} dist gaussian              # initial velocities
velocity         all create 580.736 420940 dist gaussian              
fix              f2 all nph iso 0 0 1.0        # barostat
variable         rnd equal round(random(0,999999,0))
fix              f3 all temp/csvr 580.736 580.736 0.1 ${rnd} # thermostat
fix              f3 all temp/csvr 580.736 580.736 0.1 53464 
run              10000                                           # equilibriation run
Neighbor list info ...
  update: every = 1 steps, delay = 0 steps, check = yes
  max neighbors/atom: 2000, page size: 100000
  master list distance cutoff = 7.1
  ghost atom cutoff = 7.1
  binsize = 3.55, bins = 10 10 10
  1 neighbor lists, perpetual/occasional/extra = 1 0 0
  (1) pair snap, perpetual
      attributes: full, newton on
      pair build: full/bin/atomonly
      stencil: full/bin/3d
      bin: standard
Per MPI rank memory allocation (min/avg/max) = 3.695 | 3.695 | 3.695 Mbytes
   Step          Temp          E_pair         E_mol          TotEng         Press          Volume    
         0   580.736       -3799.9487      0             -3649.8917      3378.5597      43243.551    
     10000   573.15274     -3560.2565      0             -3412.159       250.55874      44271.858    
Loop time of 283.966 on 16 procs for 10000 steps with 2000 atoms

Performance: 3.043 ns/day, 7.888 hours/ns, 35.216 timesteps/s, 70.431 katom-step/s
99.6% CPU use with 16 MPI tasks x 1 OpenMP threads

MPI task timing breakdown:
Section |  min time  |  avg time  |  max time  |%varavg| %total
---------------------------------------------------------------
Pair    | 264.48     | 265.86     | 267.38     |   5.2 | 93.62
Neigh   | 0.11421    | 0.11483    | 0.11603    |   0.1 |  0.04
Comm    | 14.678     | 16.473     | 18.189     |  23.7 |  5.80
Output  | 4.8811e-05 | 5.9321e-05 | 0.00020703 |   0.0 |  0.00
Modify  | 1.1414     | 1.4859     | 1.7562     |  20.9 |  0.52
Other   |            | 0.03556    |            |       |  0.01

Nlocal:            125 ave         132 max         117 min
Histogram: 3 0 1 1 2 0 2 3 3 1
Nghost:        931.625 ave         947 max         923 min
Histogram: 4 3 1 1 2 0 3 1 0 1
Neighs:              0 ave           0 max           0 min
Histogram: 16 0 0 0 0 0 0 0 0 0
FullNghs:      8260.12 ave        8719 max        7683 min
Histogram: 2 1 0 2 1 1 3 2 1 3

Total # of neighbors = 132162
Ave neighs/atom = 66.081
Neighbor list builds = 332
Dangerous builds = 0

#----------------------------- Run simulation ---------------------------------#
dump             d1 all custom 10000 md/data/li_bcc/dump_1.28.gz id type x y z # snapshots
run              90000
Per MPI rank memory allocation (min/avg/max) = 3.755 | 3.759 | 3.763 Mbytes
   Step          Temp          E_pair         E_mol          TotEng         Press          Volume    
     10000   573.15274     -3560.2565      0             -3412.159       250.55874      44271.858    
    100000   583.84102     -3556.4585      0             -3405.5992     -381.04082      44482.852    
Loop time of 2563.81 on 16 procs for 90000 steps with 2000 atoms

Performance: 3.033 ns/day, 7.913 hours/ns, 35.104 timesteps/s, 70.208 katom-step/s
99.6% CPU use with 16 MPI tasks x 1 OpenMP threads

MPI task timing breakdown:
Section |  min time  |  avg time  |  max time  |%varavg| %total
---------------------------------------------------------------
Pair    | 2396.4     | 2404.8     | 2413.6     |   9.3 | 93.80
Neigh   | 1.0552     | 1.0599     | 1.067      |   0.3 |  0.04
Comm    | 133.39     | 143.61     | 151.34     |  38.3 |  5.60
Output  | 0.0031827  | 0.033265   | 0.063608   |   9.9 |  0.00
Modify  | 12.844     | 14.034     | 15.41      |  24.3 |  0.55
Other   |            | 0.3205     |            |       |  0.01

Nlocal:            125 ave         131 max         117 min
Histogram: 2 0 3 3 0 0 1 2 0 5
Nghost:        924.562 ave         939 max         906 min
Histogram: 1 1 2 0 1 3 3 1 3 1
Neighs:              0 ave           0 max           0 min
Histogram: 16 0 0 0 0 0 0 0 0 0
FullNghs:      8255.62 ave        8769 max        7599 min
Histogram: 2 1 0 4 1 0 1 1 3 3

Total # of neighbors = 132090
Ave neighs/atom = 66.045
Neighbor list builds = 3044
Dangerous builds = 0
undump           d1
min_modify       line forcezero
minimize         0 0 100000 100000                                                                               # minimize energy
Per MPI rank memory allocation (min/avg/max) = 4.89 | 4.896 | 4.904 Mbytes
   Step          Temp          E_pair         E_mol          TotEng         Press          Volume    
    100000   583.84102     -3556.4585      0             -3405.5992     -381.04082      44482.852    
    102213   583.84102     -3748.1693      0             -3597.31       -4952.8618      44482.852    
Loop time of 167.571 on 16 procs for 2213 steps with 2000 atoms

99.6% CPU use with 16 MPI tasks x 1 OpenMP threads

Minimization stats:
  Stopping criterion = linesearch alpha is zero
  Energy initial, next-to-last, final = 
     -3556.45846499159  -3748.16925281755  -3748.16925281755
  Force two-norm initial, final = 19.347512 1.6022351e-13
  Force max component initial, final = 1.116227 1.1049321e-14
  Final line search alpha, max atom move = 0.42167328 4.6592035e-15
  Iterations, force evaluations = 2213 4050

MPI task timing breakdown:
Section |  min time  |  avg time  |  max time  |%varavg| %total
---------------------------------------------------------------
Pair    | 151.78     | 159.94     | 165.41     |  27.8 | 95.44
Neigh   | 0.012481   | 0.012867   | 0.013132   |   0.2 |  0.01
Comm    | 1.919      | 6.9606     | 15.594     | 135.9 |  4.15
Output  | 0          | 0          | 0          |   0.0 |  0.00
Modify  | 0          | 0          | 0          |   0.0 |  0.00
Other   |            | 0.6599     |            |       |  0.39

Nlocal:            125 ave         130 max         117 min
Histogram: 1 1 0 1 1 3 3 1 2 3
Nghost:        935.688 ave         946 max         924 min
Histogram: 1 1 2 1 0 5 2 1 1 2
Neighs:              0 ave           0 max           0 min
Histogram: 16 0 0 0 0 0 0 0 0 0
FullNghs:      8027.88 ave        8468 max        7445 min
Histogram: 1 0 1 1 3 2 2 4 1 1

Total # of neighbors = 128446
Ave neighs/atom = 64.223
Neighbor list builds = 39
Dangerous builds = 0
write_dump       all custom md/data/li_bcc/dump_1.28_relaxed.gz id type x y z
#------------------------------------------------------------------------------#
Total wall time: 0:50:15
