LAMMPS (29 Aug 2024)
OMP_NUM_THREADS environment is not set. Defaulting to 1 thread. (src/comm.cpp:98)
  using 1 OpenMP thread(s) per MPI task

#---------------------------- Atomic setup ------------------------------------#
units            metal
timestep         0.001
boundary         p p p
lattice          bcc 3.51
Lattice spacing in x,y,z = 3.51 3.51 3.51
region           sim_box block 0 10 0 10 0 10
create_box       1 sim_box
Created orthogonal box = (0 0 0) to (35.1 35.1 35.1)
  2 by 2 by 4 MPI processor grid
create_atoms     1 box
Created 2000 atoms
  using lattice units in orthogonal box = (0 0 0) to (35.1 35.1 35.1)
  create_atoms CPU = 0.000 seconds

pair_style       snap                                             # interatomic potential (Lennard-Jones, EAM, etc.)
pair_coeff       * * ${potentials_dir}/li_snap.snapcoeff ${potentials_dir}/li_snap.snapparam Li # interatomic potential parameters (ex. eam.alloy ${potentials_dir}/Cu_u3.eam)
pair_coeff       * * md/potentials/li_snap.snapcoeff ${potentials_dir}/li_snap.snapparam Li 
pair_coeff       * * md/potentials/li_snap.snapcoeff md/potentials/li_snap.snapparam Li 
Reading potential file md/potentials/li_snap.snapcoeff with DATE: 2020-01-31
SNAP Element = Li, Radius 0.5, Weight 1
Reading potential file md/potentials/li_snap.snapparam with DATE: 2020-01-31
SNAP keyword rcutfac 5.1
SNAP keyword twojmax 8
SNAP keyword rfac0 0.99363
SNAP keyword rmin0 0
SNAP keyword quadraticflag 0
SNAP keyword bzeroflag 0
pair_modify      tail yes
neigh_modify     delay 0                                                       # neighbor list update frequency (0 = every timestep)
mass             1 6.941                                                 # atomic mass
variable         rnd equal round(random(0,999999,42))

#----------------------------- Equilibriation ---------------------------------#
velocity         all create 617.032 ${rnd} dist gaussian              # initial velocities
velocity         all create 617.032 420940 dist gaussian              
fix              f2 all nph iso 0 0 1.0        # barostat
variable         rnd equal round(random(0,999999,0))
fix              f3 all temp/csvr 617.032 617.032 0.1 ${rnd} # thermostat
fix              f3 all temp/csvr 617.032 617.032 0.1 53464 
run              10000                                           # equilibriation run
Neighbor list info ...
  update: every = 1 steps, delay = 0 steps, check = yes
  max neighbors/atom: 2000, page size: 100000
  master list distance cutoff = 7.1
  ghost atom cutoff = 7.1
  binsize = 3.55, bins = 10 10 10
  1 neighbor lists, perpetual/occasional/extra = 1 0 0
  (1) pair snap, perpetual
      attributes: full, newton on
      pair build: full/bin/atomonly
      stencil: full/bin/3d
      bin: standard
Per MPI rank memory allocation (min/avg/max) = 3.695 | 3.695 | 3.695 Mbytes
   Step          Temp          E_pair         E_mol          TotEng         Press          Volume    
         0   617.032       -3799.9487      0             -3640.5132      3610.2106      43243.551    
     10000   608.40581     -3546.5949      0             -3389.3883     -647.28464      45052.086    
Loop time of 263.114 on 16 procs for 10000 steps with 2000 atoms

Performance: 3.284 ns/day, 7.309 hours/ns, 38.006 timesteps/s, 76.013 katom-step/s
99.6% CPU use with 16 MPI tasks x 1 OpenMP threads

MPI task timing breakdown:
Section |  min time  |  avg time  |  max time  |%varavg| %total
---------------------------------------------------------------
Pair    | 244.97     | 246.35     | 248.72     |   7.3 | 93.63
Neigh   | 0.10723    | 0.10777    | 0.10885    |   0.1 |  0.04
Comm    | 12.789     | 15.202     | 16.403     |  29.8 |  5.78
Output  | 3.4324e-05 | 3.5837e-05 | 4.9102e-05 |   0.0 |  0.00
Modify  | 1.0323     | 1.4148     | 1.8291     |  23.9 |  0.54
Other   |            | 0.03533    |            |       |  0.01

Nlocal:            125 ave         131 max         115 min
Histogram: 1 1 0 1 0 3 4 1 4 1
Nghost:            923 ave         937 max         907 min
Histogram: 1 0 1 4 0 3 2 1 3 1
Neighs:              0 ave           0 max           0 min
Histogram: 16 0 0 0 0 0 0 0 0 0
FullNghs:      8146.88 ave        8625 max        7508 min
Histogram: 2 0 1 0 2 5 1 1 2 2

Total # of neighbors = 130350
Ave neighs/atom = 65.175
Neighbor list builds = 347
Dangerous builds = 0

#----------------------------- Run simulation ---------------------------------#
dump             d1 all custom 10000 md/data/li_bcc/dump_1.36.gz id type x y z # snapshots
run              90000
Per MPI rank memory allocation (min/avg/max) = 3.751 | 3.759 | 3.768 Mbytes
   Step          Temp          E_pair         E_mol          TotEng         Press          Volume    
     10000   608.40581     -3546.5949      0             -3389.3883     -647.28464      45052.086    
    100000   608.13678     -3540.3528      0             -3383.2158     -98.630188      44849.021    
Loop time of 2376.19 on 16 procs for 90000 steps with 2000 atoms

Performance: 3.272 ns/day, 7.334 hours/ns, 37.876 timesteps/s, 75.752 katom-step/s
99.6% CPU use with 16 MPI tasks x 1 OpenMP threads

MPI task timing breakdown:
Section |  min time  |  avg time  |  max time  |%varavg| %total
---------------------------------------------------------------
Pair    | 2217.7     | 2226.7     | 2242.7     |  12.6 | 93.71
Neigh   | 0.9762     | 0.9801     | 0.98714    |   0.3 |  0.04
Comm    | 119.03     | 135.48     | 145.2      |  54.7 |  5.70
Output  | 0.0025595  | 0.031155   | 0.059729   |   9.6 |  0.00
Modify  | 11.328     | 12.668     | 14.286     |  31.5 |  0.53
Other   |            | 0.3119     |            |       |  0.01

Nlocal:            125 ave         136 max         119 min
Histogram: 2 2 5 1 3 0 1 1 0 1
Nghost:        924.188 ave         945 max         910 min
Histogram: 1 3 2 3 2 0 2 2 0 1
Neighs:              0 ave           0 max           0 min
Histogram: 16 0 0 0 0 0 0 0 0 0
FullNghs:      8184.62 ave        8982 max        7628 min
Histogram: 1 2 3 2 4 1 1 1 0 1

Total # of neighbors = 130954
Ave neighs/atom = 65.477
Neighbor list builds = 3149
Dangerous builds = 0
undump           d1
min_modify       line forcezero
minimize         0 0 100000 100000                                                                               # minimize energy
Per MPI rank memory allocation (min/avg/max) = 4.89 | 4.895 | 4.902 Mbytes
   Step          Temp          E_pair         E_mol          TotEng         Press          Volume    
    100000   608.13678     -3540.3528      0             -3383.2158     -98.630188      44849.021    
    102037   608.13678     -3742.5515      0             -3585.4144     -5356.9428      44849.021    
Loop time of 148.107 on 16 procs for 2037 steps with 2000 atoms

99.6% CPU use with 16 MPI tasks x 1 OpenMP threads

Minimization stats:
  Stopping criterion = linesearch alpha is zero
  Energy initial, next-to-last, final = 
     -3540.35284130549  -3742.55148742236  -3742.55148742236
  Force two-norm initial, final = 19.892287 1.5973307e-13
  Force max component initial, final = 1.252614 1.0481199e-14
  Final line search alpha, max atom move = 0.46314049 4.8542677e-15
  Iterations, force evaluations = 2037 3712

MPI task timing breakdown:
Section |  min time  |  avg time  |  max time  |%varavg| %total
---------------------------------------------------------------
Pair    | 134.79     | 140.97     | 145.09     |  22.1 | 95.18
Neigh   | 0.010807   | 0.011146   | 0.011582   |   0.2 |  0.01
Comm    | 2.593      | 6.659      | 12.967     | 104.2 |  4.50
Output  | 0          | 0          | 0          |   0.0 |  0.00
Modify  | 0          | 0          | 0          |   0.0 |  0.00
Other   |            | 0.4682     |            |       |  0.32

Nlocal:            125 ave         132 max         119 min
Histogram: 1 1 0 6 1 3 2 0 1 1
Nghost:        926.562 ave         945 max         914 min
Histogram: 3 1 4 0 1 3 2 0 0 2
Neighs:              0 ave           0 max           0 min
Histogram: 16 0 0 0 0 0 0 0 0 0
FullNghs:         8012 ave        8449 max        7651 min
Histogram: 2 0 2 2 4 2 2 0 1 1

Total # of neighbors = 128192
Ave neighs/atom = 64.096
Neighbor list builds = 38
Dangerous builds = 0
write_dump       all custom md/data/li_bcc/dump_1.36_relaxed.gz id type x y z
#------------------------------------------------------------------------------#
Total wall time: 0:46:27
