LAMMPS (29 Aug 2024)
OMP_NUM_THREADS environment is not set. Defaulting to 1 thread. (src/comm.cpp:98)
  using 1 OpenMP thread(s) per MPI task
Lattice spacing in x,y,z = 3.51 3.51 3.51
Created orthogonal box = (0 0 0) to (35.1 35.1 35.1)
  2 by 2 by 4 MPI processor grid
Created 2000 atoms
  using lattice units in orthogonal box = (0 0 0) to (35.1 35.1 35.1)
  create_atoms CPU = 0.000 seconds
Reading potential file md/potentials/li_snap.snapcoeff with DATE: 2020-01-31
SNAP Element = Li, Radius 0.5, Weight 1
Reading potential file md/potentials/li_snap.snapparam with DATE: 2020-01-31
SNAP keyword rcutfac 5.1
SNAP keyword twojmax 8
SNAP keyword rfac0 0.99363
SNAP keyword rmin0 0
SNAP keyword quadraticflag 0
SNAP keyword bzeroflag 0
Neighbor list info ...
  update: every = 1 steps, delay = 0 steps, check = yes
  max neighbors/atom: 2000, page size: 100000
  master list distance cutoff = 7.1
  ghost atom cutoff = 7.1
  binsize = 3.55, bins = 10 10 10
  1 neighbor lists, perpetual/occasional/extra = 1 0 0
  (1) pair snap, perpetual
      attributes: full, newton on
      pair build: full/bin/atomonly
      stencil: full/bin/3d
      bin: standard
Setting up Verlet run ...
  Unit style    : metal
  Current step  : 0
  Time step     : 0.001
Per MPI rank memory allocation (min/avg/max) = 3.695 | 3.695 | 3.695 Mbytes
   Step          Temp          E_pair         E_mol          TotEng         Press          Volume    
         0   108.888       -3799.9487      0             -3771.813       367.09835      43243.551    
     10000   105.04395     -3772.1253      0             -3744.9829     -132.86141      42562.32     
Loop time of 266.766 on 16 procs for 10000 steps with 2000 atoms

Performance: 3.239 ns/day, 7.410 hours/ns, 37.486 timesteps/s, 74.972 katom-step/s
99.6% CPU use with 16 MPI tasks x 1 OpenMP threads

MPI task timing breakdown:
Section |  min time  |  avg time  |  max time  |%varavg| %total
---------------------------------------------------------------
Pair    | 263.98     | 264.42     | 264.81     |   1.4 | 99.12
Neigh   | 0          | 0          | 0          |   0.0 |  0.00
Comm    | 1.59       | 1.9629     | 2.391      |  16.2 |  0.74
Output  | 3.3202e-05 | 3.4766e-05 | 5.0906e-05 |   0.0 |  0.00
Modify  | 0.31856    | 0.34945    | 0.39107    |   4.7 |  0.13
Other   |            | 0.03638    |            |       |  0.01

Nlocal:            125 ave         125 max         125 min
Histogram: 16 0 0 0 0 0 0 0 0 0
Nghost:           1142 ave        1142 max        1142 min
Histogram: 16 0 0 0 0 0 0 0 0 0
Neighs:              0 ave           0 max           0 min
Histogram: 16 0 0 0 0 0 0 0 0 0
FullNghs:         8000 ave        8000 max        8000 min
Histogram: 16 0 0 0 0 0 0 0 0 0

Total # of neighbors = 128000
Ave neighs/atom = 64
Neighbor list builds = 0
Dangerous builds = 0
Setting up Verlet run ...
  Unit style    : metal
  Current step  : 10000
  Time step     : 0.001
Per MPI rank memory allocation (min/avg/max) = 3.695 | 3.697 | 3.704 Mbytes
   Step          Temp          E_pair         E_mol          TotEng         Press          Volume    
     10000   105.04395     -3772.1253      0             -3744.9829     -132.86141      42562.32     
    100000   106.20693     -3771.2387      0             -3743.7958     -14.213648      42498.222    
Loop time of 2659.95 on 16 procs for 90000 steps with 2000 atoms

Performance: 2.923 ns/day, 8.210 hours/ns, 33.835 timesteps/s, 67.670 katom-step/s
99.6% CPU use with 16 MPI tasks x 1 OpenMP threads

MPI task timing breakdown:
Section |  min time  |  avg time  |  max time  |%varavg| %total
---------------------------------------------------------------
Pair    | 2342.2     | 2435.2     | 2560.8     | 129.3 | 91.55
Neigh   | 0.0036781  | 0.003815   | 0.003919   |   0.1 |  0.00
Comm    | 56.948     | 195.65     | 311.18     | 539.2 |  7.36
Output  | 0.0026053  | 0.029446   | 0.056377   |   9.3 |  0.00
Modify  | 2.197      | 28.77      | 103.72     | 807.1 |  1.08
Other   |            | 0.335      |            |       |  0.01

Nlocal:            125 ave         139 max         117 min
Histogram: 3 2 3 1 2 2 2 0 0 1
Nghost:        1072.31 ave        1090 max        1055 min
Histogram: 1 1 3 3 1 1 0 1 4 1
Neighs:              0 ave           0 max           0 min
Histogram: 16 0 0 0 0 0 0 0 0 0
FullNghs:      7819.12 ave        8724 max        7327 min
Histogram: 3 2 3 2 2 1 2 0 0 1

Total # of neighbors = 125106
Ave neighs/atom = 62.553
Neighbor list builds = 12
Dangerous builds = 0
Setting up cg style minimization ...
  Unit style    : metal
  Current step  : 100000
Per MPI rank memory allocation (min/avg/max) = 4.829 | 4.833 | 4.841 Mbytes
   Step          Temp          E_pair         E_mol          TotEng         Press          Volume    
    100000   106.20693     -3771.2387      0             -3743.7958     -14.213648      42498.222    
    100117   106.20693     -3799.7081      0             -3772.2652      2019.7291      42498.222    
Loop time of 10.396 on 16 procs for 117 steps with 2000 atoms

99.4% CPU use with 16 MPI tasks x 1 OpenMP threads

Minimization stats:
  Stopping criterion = linesearch alpha is zero
  Energy initial, next-to-last, final = 
     -3771.23870810661  -3799.70813683025  -3799.70813683025
  Force two-norm initial, final = 8.4374507 2.0130471e-13
  Force max component initial, final = 0.45998264 1.0994244e-14
  Final line search alpha, max atom move = 0 0
  Iterations, force evaluations = 117 232

MPI task timing breakdown:
Section |  min time  |  avg time  |  max time  |%varavg| %total
---------------------------------------------------------------
Pair    | 9.1402     | 9.9262     | 10.346     |  10.7 | 95.48
Neigh   | 0          | 0          | 0          |   0.0 |  0.00
Comm    | 0.027767   | 0.44671    | 1.2383     |  50.6 |  4.30
Output  | 0          | 0          | 0          |   0.0 |  0.00
Modify  | 0          | 0          | 0          |   0.0 |  0.00
Other   |            | 0.0231     |            |       |  0.22

Nlocal:            125 ave         130 max         115 min
Histogram: 1 0 1 0 3 2 1 0 4 4
Nghost:        1068.31 ave        1085 max        1059 min
Histogram: 1 2 3 4 4 1 0 0 0 1
Neighs:              0 ave           0 max           0 min
Histogram: 16 0 0 0 0 0 0 0 0 0
FullNghs:      7815.38 ave        8142 max        7183 min
Histogram: 1 0 1 1 2 3 0 1 3 4

Total # of neighbors = 125046
Ave neighs/atom = 62.523
Neighbor list builds = 0
Dangerous builds = 0
Total wall time: 0:48:57
