LAMMPS (29 Aug 2024)
OMP_NUM_THREADS environment is not set. Defaulting to 1 thread. (src/comm.cpp:98)
  using 1 OpenMP thread(s) per MPI task

#---------------------------- Atomic setup ------------------------------------#
units            metal
timestep         0.001
boundary         p p p
lattice          bcc 3.51
Lattice spacing in x,y,z = 3.51 3.51 3.51
region           sim_box block 0 10 0 10 0 10
create_box       1 sim_box
Created orthogonal box = (0 0 0) to (35.1 35.1 35.1)
  2 by 2 by 4 MPI processor grid
create_atoms     1 box
Created 2000 atoms
  using lattice units in orthogonal box = (0 0 0) to (35.1 35.1 35.1)
  create_atoms CPU = 0.001 seconds

pair_style       snap                                             # interatomic potential (Lennard-Jones, EAM, etc.)
pair_coeff       * * ${potentials_dir}/li_snap.snapcoeff ${potentials_dir}/li_snap.snapparam Li # interatomic potential parameters (ex. eam.alloy ${potentials_dir}/Cu_u3.eam)
pair_coeff       * * md/potentials/li_snap.snapcoeff ${potentials_dir}/li_snap.snapparam Li 
pair_coeff       * * md/potentials/li_snap.snapcoeff md/potentials/li_snap.snapparam Li 
Reading potential file md/potentials/li_snap.snapcoeff with DATE: 2020-01-31
SNAP Element = Li, Radius 0.5, Weight 1
Reading potential file md/potentials/li_snap.snapparam with DATE: 2020-01-31
SNAP keyword rcutfac 5.1
SNAP keyword twojmax 8
SNAP keyword rfac0 0.99363
SNAP keyword rmin0 0
SNAP keyword quadraticflag 0
SNAP keyword bzeroflag 0
pair_modify      tail yes
neigh_modify     delay 0                                                       # neighbor list update frequency (0 = every timestep)
mass             1 6.941                                                 # atomic mass
variable         rnd equal round(random(0,999999,42))

#----------------------------- Equilibriation ---------------------------------#
velocity         all create 417.404 ${rnd} dist gaussian              # initial velocities
velocity         all create 417.404 420940 dist gaussian              
fix              f2 all nph iso 0 0 1.0        # barostat
variable         rnd equal round(random(0,999999,0))
fix              f3 all temp/csvr 417.404 417.404 0.1 ${rnd} # thermostat
fix              f3 all temp/csvr 417.404 417.404 0.1 53464 
run              10000                                           # equilibriation run
Neighbor list info ...
  update: every = 1 steps, delay = 0 steps, check = yes
  max neighbors/atom: 2000, page size: 100000
  master list distance cutoff = 7.1
  ghost atom cutoff = 7.1
  binsize = 3.55, bins = 10 10 10
  1 neighbor lists, perpetual/occasional/extra = 1 0 0
  (1) pair snap, perpetual
      attributes: full, newton on
      pair build: full/bin/atomonly
      stencil: full/bin/3d
      bin: standard
Per MPI rank memory allocation (min/avg/max) = 3.695 | 3.695 | 3.695 Mbytes
   Step          Temp          E_pair         E_mol          TotEng         Press          Volume    
         0   417.404       -3799.9487      0             -3692.0953      2336.1308      43243.551    
     10000   413.06651     -3689.5586      0             -3582.8259      474.9292       43044.959    
Loop time of 264.526 on 16 procs for 10000 steps with 2000 atoms

Performance: 3.266 ns/day, 7.348 hours/ns, 37.803 timesteps/s, 75.607 katom-step/s
99.6% CPU use with 16 MPI tasks x 1 OpenMP threads

MPI task timing breakdown:
Section |  min time  |  avg time  |  max time  |%varavg| %total
---------------------------------------------------------------
Pair    | 244.34     | 245.13     | 246.74     |   4.2 | 92.67
Neigh   | 0.084981   | 0.085626   | 0.086136   |   0.1 |  0.03
Comm    | 16.076     | 17.508     | 18.282     |  14.0 |  6.62
Output  | 3.8983e-05 | 4.0389e-05 | 5.2308e-05 |   0.0 |  0.00
Modify  | 1.3901     | 1.7632     | 2.0892     |  21.1 |  0.67
Other   |            | 0.03644    |            |       |  0.01

Nlocal:            125 ave         135 max         120 min
Histogram: 5 0 4 1 1 2 1 0 1 1
Nghost:        990.438 ave        1004 max         970 min
Histogram: 1 0 1 1 3 3 0 3 0 4
Neighs:              0 ave           0 max           0 min
Histogram: 16 0 0 0 0 0 0 0 0 0
FullNghs:      7908.12 ave        8594 max        7562 min
Histogram: 5 1 3 2 0 2 1 1 0 1

Total # of neighbors = 126530
Ave neighs/atom = 63.265
Neighbor list builds = 272
Dangerous builds = 0

#----------------------------- Run simulation ---------------------------------#
dump             d1 all custom 10000 md/data/li_bcc/dump_0.92.gz id type x y z # snapshots
run              90000
Per MPI rank memory allocation (min/avg/max) = 3.744 | 3.75 | 3.76 Mbytes
   Step          Temp          E_pair         E_mol          TotEng         Press          Volume    
     10000   413.06651     -3689.5586      0             -3582.8259      474.9292       43044.959    
    100000   423.02464     -3686.3653      0             -3577.0596     -225.5928       43313.876    
Loop time of 2388.86 on 16 procs for 90000 steps with 2000 atoms

Performance: 3.255 ns/day, 7.373 hours/ns, 37.675 timesteps/s, 75.350 katom-step/s
99.7% CPU use with 16 MPI tasks x 1 OpenMP threads

MPI task timing breakdown:
Section |  min time  |  avg time  |  max time  |%varavg| %total
---------------------------------------------------------------
Pair    | 2204.4     | 2210       | 2219.3     |   6.6 | 92.51
Neigh   | 0.78423    | 0.78996    | 0.79421    |   0.3 |  0.03
Comm    | 153.48     | 162.58     | 168.43     |  24.3 |  6.81
Output  | 0.0020605  | 0.028652   | 0.054157   |   9.1 |  0.00
Modify  | 14.832     | 15.095     | 15.361     |   4.5 |  0.63
Other   |            | 0.3179     |            |       |  0.01

Nlocal:            125 ave         137 max         115 min
Histogram: 2 0 2 2 2 5 0 1 1 1
Nghost:        982.688 ave         997 max         969 min
Histogram: 2 1 1 2 1 3 1 3 1 1
Neighs:              0 ave           0 max           0 min
Histogram: 16 0 0 0 0 0 0 0 0 0
FullNghs:      7902.62 ave        8739 max        7242 min
Histogram: 2 1 1 3 2 4 0 2 0 1

Total # of neighbors = 126442
Ave neighs/atom = 63.221
Neighbor list builds = 2503
Dangerous builds = 0
undump           d1
min_modify       line forcezero
minimize         0 0 100000 100000                                                                               # minimize energy
Per MPI rank memory allocation (min/avg/max) = 4.877 | 4.884 | 4.888 Mbytes
   Step          Temp          E_pair         E_mol          TotEng         Press          Volume    
    100000   423.02464     -3686.3653      0             -3577.0596     -225.5928       43313.876    
    100129   423.02464     -3799.9307      0             -3690.6249      2201.4064      43313.876    
Loop time of 11.0737 on 16 procs for 129 steps with 2000 atoms

99.7% CPU use with 16 MPI tasks x 1 OpenMP threads

Minimization stats:
  Stopping criterion = linesearch alpha is zero
  Energy initial, next-to-last, final = 
     -3686.36532581686  -3799.93068554503  -3799.93068554503
  Force two-norm initial, final = 16.565011 1.8602734e-13
  Force max component initial, final = 0.83960378 1.2814402e-14
  Final line search alpha, max atom move = 0 0
  Iterations, force evaluations = 129 238

MPI task timing breakdown:
Section |  min time  |  avg time  |  max time  |%varavg| %total
---------------------------------------------------------------
Pair    | 8.861      | 9.9072     | 11.057     |  15.1 | 89.47
Neigh   | 0.00026551 | 0.00029909 | 0.00033389 |   0.0 |  0.00
Comm    | 0.012574   | 1.0439     | 1.7351     |  44.0 |  9.43
Output  | 0          | 0          | 0          |   0.0 |  0.00
Modify  | 0          | 0          | 0          |   0.0 |  0.00
Other   |            | 0.1223     |            |       |  1.10

Nlocal:            125 ave         140 max         111 min
Histogram: 1 0 1 3 4 4 1 1 0 1
Nghost:        1070.19 ave        1097 max        1047 min
Histogram: 1 2 2 2 1 3 1 2 0 2
Neighs:              0 ave           0 max           0 min
Histogram: 16 0 0 0 0 0 0 0 0 0
FullNghs:      7862.88 ave        8822 max        6986 min
Histogram: 1 0 2 2 5 3 1 1 0 1

Total # of neighbors = 125806
Ave neighs/atom = 62.903
Neighbor list builds = 1
Dangerous builds = 0
write_dump       all custom md/data/li_bcc/dump_0.92_relaxed.gz id type x y z
#------------------------------------------------------------------------------#
Total wall time: 0:44:24
