LAMMPS (29 Aug 2024)
OMP_NUM_THREADS environment is not set. Defaulting to 1 thread. (src/comm.cpp:98)
  using 1 OpenMP thread(s) per MPI task
Lattice spacing in x,y,z = 3.51 3.51 3.51
Created orthogonal box = (0 0 0) to (35.1 35.1 35.1)
  2 by 2 by 4 MPI processor grid
Created 2000 atoms
  using lattice units in orthogonal box = (0 0 0) to (35.1 35.1 35.1)
  create_atoms CPU = 0.001 seconds
Reading potential file md/potentials/li_snap.snapcoeff with DATE: 2020-01-31
SNAP Element = Li, Radius 0.5, Weight 1
Reading potential file md/potentials/li_snap.snapparam with DATE: 2020-01-31
SNAP keyword rcutfac 5.1
SNAP keyword twojmax 8
SNAP keyword rfac0 0.99363
SNAP keyword rmin0 0
SNAP keyword quadraticflag 0
SNAP keyword bzeroflag 0
Neighbor list info ...
  update: every = 1 steps, delay = 0 steps, check = yes
  max neighbors/atom: 2000, page size: 100000
  master list distance cutoff = 7.1
  ghost atom cutoff = 7.1
  binsize = 3.55, bins = 10 10 10
  1 neighbor lists, perpetual/occasional/extra = 1 0 0
  (1) pair snap, perpetual
      attributes: full, newton on
      pair build: full/bin/atomonly
      stencil: full/bin/3d
      bin: standard
Setting up Verlet run ...
  Unit style    : metal
  Current step  : 0
  Time step     : 0.001
Per MPI rank memory allocation (min/avg/max) = 3.695 | 3.695 | 3.695 Mbytes
   Step          Temp          E_pair         E_mol          TotEng         Press          Volume    
         0   381.108       -3799.9487      0             -3701.4738      2104.4799      43243.551    
     10000   376.83211     -3700.8392      0             -3603.4691     -332.72529      43177.411    
Loop time of 287.044 on 16 procs for 10000 steps with 2000 atoms

Performance: 3.010 ns/day, 7.973 hours/ns, 34.838 timesteps/s, 69.676 katom-step/s
99.6% CPU use with 16 MPI tasks x 1 OpenMP threads

MPI task timing breakdown:
Section |  min time  |  avg time  |  max time  |%varavg| %total
---------------------------------------------------------------
Pair    | 264.48     | 266.09     | 268.73     |   6.0 | 92.70
Neigh   | 0.088012   | 0.088471   | 0.089017   |   0.1 |  0.03
Comm    | 16.391     | 18.895     | 20.268     |  23.3 |  6.58
Output  | 3.2701e-05 | 3.4468e-05 | 5.1507e-05 |   0.0 |  0.00
Modify  | 1.4173     | 1.938      | 2.4977     |  28.0 |  0.68
Other   |            | 0.03609    |            |       |  0.01

Nlocal:            125 ave         135 max         116 min
Histogram: 1 1 1 3 3 2 3 1 0 1
Nghost:        983.625 ave        1005 max         970 min
Histogram: 4 1 1 3 2 1 1 1 0 2
Neighs:              0 ave           0 max           0 min
Histogram: 16 0 0 0 0 0 0 0 0 0
FullNghs:      7850.62 ave        8479 max        7225 min
Histogram: 1 0 1 4 2 1 5 1 0 1

Total # of neighbors = 125610
Ave neighs/atom = 62.805
Neighbor list builds = 261
Dangerous builds = 0
Setting up Verlet run ...
  Unit style    : metal
  Current step  : 10000
  Time step     : 0.001
Per MPI rank memory allocation (min/avg/max) = 3.745 | 3.75 | 3.757 Mbytes
   Step          Temp          E_pair         E_mol          TotEng         Press          Volume    
     10000   376.83211     -3700.8392      0             -3603.4691     -332.72529      43177.411    
    100000   381.33178     -3697.4179      0             -3598.8851     -458.80056      43248.789    
Loop time of 2619.33 on 16 procs for 90000 steps with 2000 atoms

Performance: 2.969 ns/day, 8.084 hours/ns, 34.360 timesteps/s, 68.720 katom-step/s
99.6% CPU use with 16 MPI tasks x 1 OpenMP threads

MPI task timing breakdown:
Section |  min time  |  avg time  |  max time  |%varavg| %total
---------------------------------------------------------------
Pair    | 2382.4     | 2396.9     | 2544.7     |  78.3 | 91.51
Neigh   | 0.79843    | 0.80156    | 0.80507    |   0.2 |  0.03
Comm    | 62.585     | 199.31     | 225.43     | 288.3 |  7.61
Output  | 0.002209   | 0.030659   | 0.057959   |   9.4 |  0.00
Modify  | 9.6487     | 21.955     | 56.912     | 430.8 |  0.84
Other   |            | 0.3249     |            |       |  0.01

Nlocal:            125 ave         136 max         115 min
Histogram: 2 1 1 3 0 3 3 1 1 1
Nghost:         971.25 ave        1000 max         944 min
Histogram: 4 0 0 1 2 1 4 3 0 1
Neighs:              0 ave           0 max           0 min
Histogram: 16 0 0 0 0 0 0 0 0 0
FullNghs:      7866.38 ave        8608 max        7174 min
Histogram: 2 1 1 2 1 3 3 1 1 1

Total # of neighbors = 125862
Ave neighs/atom = 62.931
Neighbor list builds = 2373
Dangerous builds = 0
Setting up cg style minimization ...
  Unit style    : metal
  Current step  : 100000
Per MPI rank memory allocation (min/avg/max) = 4.878 | 4.884 | 4.89 Mbytes
   Step          Temp          E_pair         E_mol          TotEng         Press          Volume    
    100000   381.33178     -3697.4179      0             -3598.8851     -458.80056      43248.789    
    100133   381.33178     -3799.9476      0             -3701.4149      2093.2886      43248.789    
Loop time of 11.8444 on 16 procs for 133 steps with 2000 atoms

99.6% CPU use with 16 MPI tasks x 1 OpenMP threads

Minimization stats:
  Stopping criterion = linesearch alpha is zero
  Energy initial, next-to-last, final = 
     -3697.41785494984  -3799.94762610515  -3799.94762610515
  Force two-norm initial, final = 15.877324 1.804696e-13
  Force max component initial, final = 0.76542711 1.1831681e-14
  Final line search alpha, max atom move = 0 0
  Iterations, force evaluations = 133 242

MPI task timing breakdown:
Section |  min time  |  avg time  |  max time  |%varavg| %total
---------------------------------------------------------------
Pair    | 10.269     | 10.939     | 11.827     |  13.0 | 92.36
Neigh   | 0.00029141 | 0.00032193 | 0.00033995 |   0.0 |  0.00
Comm    | 0.010066   | 0.81666    | 1.5716     |  47.2 |  6.89
Output  | 0          | 0          | 0          |   0.0 |  0.00
Modify  | 0          | 0          | 0          |   0.0 |  0.00
Other   |            | 0.08795    |            |       |  0.74

Nlocal:            125 ave         137 max         112 min
Histogram: 1 0 4 0 1 3 3 2 1 1
Nghost:        1083.75 ave        1105 max        1063 min
Histogram: 1 2 3 0 1 4 1 1 2 1
Neighs:              0 ave           0 max           0 min
Histogram: 16 0 0 0 0 0 0 0 0 0
FullNghs:      7906.12 ave        8657 max        7094 min
Histogram: 1 0 4 0 1 4 2 3 0 1

Total # of neighbors = 126498
Ave neighs/atom = 63.249
Neighbor list builds = 1
Dangerous builds = 0
Total wall time: 0:48:38
