LAMMPS (29 Aug 2024)
OMP_NUM_THREADS environment is not set. Defaulting to 1 thread. (src/comm.cpp:98)
  using 1 OpenMP thread(s) per MPI task

#---------------------------- Atomic setup ------------------------------------#
units            metal
timestep         0.001
boundary         p p p
lattice          bcc 3.51
Lattice spacing in x,y,z = 3.51 3.51 3.51
region           sim_box block 0 10 0 10 0 10
create_box       1 sim_box
Created orthogonal box = (0 0 0) to (35.1 35.1 35.1)
  2 by 2 by 4 MPI processor grid
create_atoms     1 box
Created 2000 atoms
  using lattice units in orthogonal box = (0 0 0) to (35.1 35.1 35.1)
  create_atoms CPU = 0.000 seconds

pair_style       snap                                             # interatomic potential (Lennard-Jones, EAM, etc.)
pair_coeff       * * ${potentials_dir}/li_snap.snapcoeff ${potentials_dir}/li_snap.snapparam Li # interatomic potential parameters (ex. eam.alloy ${potentials_dir}/Cu_u3.eam)
pair_coeff       * * md/potentials/li_snap.snapcoeff ${potentials_dir}/li_snap.snapparam Li 
pair_coeff       * * md/potentials/li_snap.snapcoeff md/potentials/li_snap.snapparam Li 
Reading potential file md/potentials/li_snap.snapcoeff with DATE: 2020-01-31
SNAP Element = Li, Radius 0.5, Weight 1
Reading potential file md/potentials/li_snap.snapparam with DATE: 2020-01-31
SNAP keyword rcutfac 5.1
SNAP keyword twojmax 8
SNAP keyword rfac0 0.99363
SNAP keyword rmin0 0
SNAP keyword quadraticflag 0
SNAP keyword bzeroflag 0
pair_modify      tail yes
neigh_modify     delay 0                                                       # neighbor list update frequency (0 = every timestep)
mass             1 6.941                                                 # atomic mass
variable         rnd equal round(random(0,999999,42))

#----------------------------- Equilibriation ---------------------------------#
velocity         all create 508.14400000000006 ${rnd} dist gaussian              # initial velocities
velocity         all create 508.14400000000006 420940 dist gaussian              
fix              f2 all nph iso 0 0 1.0        # barostat
variable         rnd equal round(random(0,999999,0))
fix              f3 all temp/csvr 508.14400000000006 508.14400000000006 0.1 ${rnd} # thermostat
fix              f3 all temp/csvr 508.14400000000006 508.14400000000006 0.1 53464 
run              10000                                           # equilibriation run
Neighbor list info ...
  update: every = 1 steps, delay = 0 steps, check = yes
  max neighbors/atom: 2000, page size: 100000
  master list distance cutoff = 7.1
  ghost atom cutoff = 7.1
  binsize = 3.55, bins = 10 10 10
  1 neighbor lists, perpetual/occasional/extra = 1 0 0
  (1) pair snap, perpetual
      attributes: full, newton on
      pair build: full/bin/atomonly
      stencil: full/bin/3d
      bin: standard
Per MPI rank memory allocation (min/avg/max) = 3.695 | 3.695 | 3.695 Mbytes
   Step          Temp          E_pair         E_mol          TotEng         Press          Volume    
         0   508.144       -3799.9487      0             -3668.6489      2915.258       43243.551    
     10000   498.34084     -3657.4032      0             -3528.6363      299.02334      43540.738    
Loop time of 279.517 on 16 procs for 10000 steps with 2000 atoms

Performance: 3.091 ns/day, 7.764 hours/ns, 35.776 timesteps/s, 71.552 katom-step/s
99.6% CPU use with 16 MPI tasks x 1 OpenMP threads

MPI task timing breakdown:
Section |  min time  |  avg time  |  max time  |%varavg| %total
---------------------------------------------------------------
Pair    | 257.98     | 258.89     | 260.31     |   4.0 | 92.62
Neigh   | 0.10353    | 0.10428    | 0.10505    |   0.2 |  0.04
Comm    | 16.837     | 18.608     | 19.443     |  15.1 |  6.66
Output  | 3.4254e-05 | 4.5673e-05 | 0.00020491 |   0.0 |  0.00
Modify  | 1.2951     | 1.8733     | 2.4091     |  28.8 |  0.67
Other   |            | 0.03634    |            |       |  0.01

Nlocal:            125 ave         132 max         117 min
Histogram: 1 0 0 1 5 2 5 0 1 1
Nghost:        965.312 ave         978 max         951 min
Histogram: 2 2 1 1 0 0 5 1 3 1
Neighs:              0 ave           0 max           0 min
Histogram: 16 0 0 0 0 0 0 0 0 0
FullNghs:         7970 ave        8526 max        7426 min
Histogram: 1 0 1 1 6 4 1 1 0 1

Total # of neighbors = 127520
Ave neighs/atom = 63.76
Neighbor list builds = 311
Dangerous builds = 0

#----------------------------- Run simulation ---------------------------------#
dump             d1 all custom 10000 md/data/li_bcc/dump_1.12.gz id type x y z # snapshots
run              90000
Per MPI rank memory allocation (min/avg/max) = 3.75 | 3.755 | 3.76 Mbytes
   Step          Temp          E_pair         E_mol          TotEng         Press          Volume    
     10000   498.34084     -3657.4032      0             -3528.6363      299.02334      43540.738    
    100000   499.76001     -3649.955       0             -3520.8215     -32.640509      43710.968    
Loop time of 2509.18 on 16 procs for 90000 steps with 2000 atoms

Performance: 3.099 ns/day, 7.744 hours/ns, 35.868 timesteps/s, 71.736 katom-step/s
99.6% CPU use with 16 MPI tasks x 1 OpenMP threads

MPI task timing breakdown:
Section |  min time  |  avg time  |  max time  |%varavg| %total
---------------------------------------------------------------
Pair    | 2321.7     | 2328.3     | 2334       |   6.8 | 92.79
Neigh   | 0.93262    | 0.93876    | 0.94614    |   0.3 |  0.04
Comm    | 157.07     | 164.46     | 171.27     |  27.9 |  6.55
Output  | 0.0026111  | 0.030775   | 0.058016   |   9.4 |  0.00
Modify  | 13.285     | 15.131     | 16.783     |  32.0 |  0.60
Other   |            | 0.3287     |            |       |  0.01

Nlocal:            125 ave         132 max         114 min
Histogram: 1 0 1 3 2 2 0 0 3 4
Nghost:          950.5 ave         969 max         926 min
Histogram: 1 0 1 1 1 5 3 1 1 2
Neighs:              0 ave           0 max           0 min
Histogram: 16 0 0 0 0 0 0 0 0 0
FullNghs:      7972.62 ave        8533 max        7254 min
Histogram: 1 1 1 2 4 0 0 1 4 2

Total # of neighbors = 127562
Ave neighs/atom = 63.781
Neighbor list builds = 2807
Dangerous builds = 0
undump           d1
min_modify       line forcezero
minimize         0 0 100000 100000                                                                               # minimize energy
Per MPI rank memory allocation (min/avg/max) = 4.884 | 4.889 | 4.896 Mbytes
   Step          Temp          E_pair         E_mol          TotEng         Press          Volume    
    100000   499.76001     -3649.955       0             -3520.8215     -32.640509      43710.968    
    100145   499.76001     -3799.6893      0             -3670.5558      1693.876       43710.968    
Loop time of 12.8259 on 16 procs for 145 steps with 2000 atoms

99.5% CPU use with 16 MPI tasks x 1 OpenMP threads

Minimization stats:
  Stopping criterion = linesearch alpha is zero
  Energy initial, next-to-last, final = 
     -3649.95503948666  -3799.68932080113  -3799.68932080113
  Force two-norm initial, final = 18.52539 1.8973343e-13
  Force max component initial, final = 1.4323181 1.0993268e-14
  Final line search alpha, max atom move = 0 0
  Iterations, force evaluations = 145 282

MPI task timing breakdown:
Section |  min time  |  avg time  |  max time  |%varavg| %total
---------------------------------------------------------------
Pair    | 10.958     | 11.77      | 12.64      |  13.0 | 91.77
Neigh   | 0.0002864  | 0.00030507 | 0.00033048 |   0.0 |  0.00
Comm    | 0.16162    | 0.94234    | 1.723      |  48.6 |  7.35
Output  | 0          | 0          | 0          |   0.0 |  0.00
Modify  | 0          | 0          | 0          |   0.0 |  0.00
Other   |            | 0.1135     |            |       |  0.88

Nlocal:            125 ave         135 max         116 min
Histogram: 1 3 1 1 1 5 1 2 0 1
Nghost:        995.375 ave        1011 max         984 min
Histogram: 2 3 2 2 1 1 2 1 1 1
Neighs:              0 ave           0 max           0 min
Histogram: 16 0 0 0 0 0 0 0 0 0
FullNghs:       7728.5 ave        8358 max        7166 min
Histogram: 1 3 1 1 1 5 1 2 0 1

Total # of neighbors = 123656
Ave neighs/atom = 61.828
Neighbor list builds = 1
Dangerous builds = 0
write_dump       all custom md/data/li_bcc/dump_1.12_relaxed.gz id type x y z
#------------------------------------------------------------------------------#
Total wall time: 0:46:41
