LAMMPS (29 Aug 2024)
OMP_NUM_THREADS environment is not set. Defaulting to 1 thread. (src/comm.cpp:98)
  using 1 OpenMP thread(s) per MPI task

#---------------------------- Atomic setup ------------------------------------#
units            metal
timestep         0.001
boundary         p p p
lattice          bcc 3.51
Lattice spacing in x,y,z = 3.51 3.51 3.51
region           sim_box block 0 10 0 10 0 10
create_box       1 sim_box
Created orthogonal box = (0 0 0) to (35.1 35.1 35.1)
  2 by 2 by 4 MPI processor grid
create_atoms     1 box
Created 2000 atoms
  using lattice units in orthogonal box = (0 0 0) to (35.1 35.1 35.1)
  create_atoms CPU = 0.000 seconds

pair_style       snap                                             # interatomic potential (Lennard-Jones, EAM, etc.)
pair_coeff       * * ${potentials_dir}/li_snap.snapcoeff ${potentials_dir}/li_snap.snapparam Li # interatomic potential parameters (ex. eam.alloy ${potentials_dir}/Cu_u3.eam)
pair_coeff       * * md/potentials/li_snap.snapcoeff ${potentials_dir}/li_snap.snapparam Li 
pair_coeff       * * md/potentials/li_snap.snapcoeff md/potentials/li_snap.snapparam Li 
Reading potential file md/potentials/li_snap.snapcoeff with DATE: 2020-01-31
SNAP Element = Li, Radius 0.5, Weight 1
Reading potential file md/potentials/li_snap.snapparam with DATE: 2020-01-31
SNAP keyword rcutfac 5.1
SNAP keyword twojmax 8
SNAP keyword rfac0 0.99363
SNAP keyword rmin0 0
SNAP keyword quadraticflag 0
SNAP keyword bzeroflag 0
pair_modify      tail yes
neigh_modify     delay 0                                                       # neighbor list update frequency (0 = every timestep)
mass             1 6.941                                                 # atomic mass
variable         rnd equal round(random(0,999999,42))

#----------------------------- Equilibriation ---------------------------------#
velocity         all create 290.368 ${rnd} dist gaussian              # initial velocities
velocity         all create 290.368 420940 dist gaussian              
fix              f2 all nph iso 0 0 1.0        # barostat
variable         rnd equal round(random(0,999999,0))
fix              f3 all temp/csvr 290.368 290.368 0.1 ${rnd} # thermostat
fix              f3 all temp/csvr 290.368 290.368 0.1 53464 
run              10000                                           # equilibriation run
Neighbor list info ...
  update: every = 1 steps, delay = 0 steps, check = yes
  max neighbors/atom: 2000, page size: 100000
  master list distance cutoff = 7.1
  ghost atom cutoff = 7.1
  binsize = 3.55, bins = 10 10 10
  1 neighbor lists, perpetual/occasional/extra = 1 0 0
  (1) pair snap, perpetual
      attributes: full, newton on
      pair build: full/bin/atomonly
      stencil: full/bin/3d
      bin: standard
Per MPI rank memory allocation (min/avg/max) = 3.695 | 3.695 | 3.695 Mbytes
   Step          Temp          E_pair         E_mol          TotEng         Press          Volume    
         0   290.368       -3799.9487      0             -3724.9202      1525.3527      43243.551    
     10000   282.58248     -3725.1598      0             -3652.1431      585.41235      42483.632    
Loop time of 280.9 on 16 procs for 10000 steps with 2000 atoms

Performance: 3.076 ns/day, 7.803 hours/ns, 35.600 timesteps/s, 71.200 katom-step/s
99.6% CPU use with 16 MPI tasks x 1 OpenMP threads

MPI task timing breakdown:
Section |  min time  |  avg time  |  max time  |%varavg| %total
---------------------------------------------------------------
Pair    | 258.94     | 260.37     | 261.23     |   4.1 | 92.69
Neigh   | 0.071422   | 0.071972   | 0.072435   |   0.1 |  0.03
Comm    | 17.437     | 18.668     | 19.6       |  16.7 |  6.65
Output  | 4.792e-05  | 5.3376e-05 | 0.00012264 |   0.0 |  0.00
Modify  | 1.1692     | 1.7524     | 2.3943     |  34.1 |  0.62
Other   |            | 0.03725    |            |       |  0.01

Nlocal:            125 ave         133 max         118 min
Histogram: 1 2 2 2 2 0 3 1 2 1
Nghost:        1021.94 ave        1043 max        1002 min
Histogram: 1 1 3 3 0 3 0 2 1 2
Neighs:              0 ave           0 max           0 min
Histogram: 16 0 0 0 0 0 0 0 0 0
FullNghs:       7852.5 ave        8412 max        7396 min
Histogram: 1 2 3 3 0 3 0 2 1 1

Total # of neighbors = 125640
Ave neighs/atom = 62.82
Neighbor list builds = 220
Dangerous builds = 0

#----------------------------- Run simulation ---------------------------------#
dump             d1 all custom 10000 md/data/li_bcc/dump_0.64.gz id type x y z # snapshots
run              90000
Per MPI rank memory allocation (min/avg/max) = 3.736 | 3.744 | 3.76 Mbytes
   Step          Temp          E_pair         E_mol          TotEng         Press          Volume    
     10000   282.58248     -3725.1598      0             -3652.1431      585.41235      42483.632    
    100000   292.07162     -3724.4534      0             -3648.9848     -136.20385      42783.911    
Loop time of 2573.51 on 16 procs for 90000 steps with 2000 atoms

Performance: 3.022 ns/day, 7.943 hours/ns, 34.972 timesteps/s, 69.943 katom-step/s
99.6% CPU use with 16 MPI tasks x 1 OpenMP threads

MPI task timing breakdown:
Section |  min time  |  avg time  |  max time  |%varavg| %total
---------------------------------------------------------------
Pair    | 2342.2     | 2357.3     | 2503.6     |  78.2 | 91.60
Neigh   | 0.64709    | 0.65153    | 0.65707    |   0.4 |  0.03
Comm    | 59.559     | 193.9      | 220.32     | 291.0 |  7.53
Output  | 0.0026106  | 0.029662   | 0.056147   |   9.2 |  0.00
Modify  | 9.34       | 21.334     | 56.432     | 438.5 |  0.83
Other   |            | 0.3381     |            |       |  0.01

Nlocal:            125 ave         134 max         116 min
Histogram: 1 2 0 3 2 1 3 2 1 1
Nghost:         1001.5 ave        1023 max         983 min
Histogram: 1 1 1 3 5 2 0 1 0 2
Neighs:              0 ave           0 max           0 min
Histogram: 16 0 0 0 0 0 0 0 0 0
FullNghs:      7819.38 ave        8430 max        7230 min
Histogram: 1 2 0 2 3 3 2 1 1 1

Total # of neighbors = 125110
Ave neighs/atom = 62.555
Neighbor list builds = 1986
Dangerous builds = 0
undump           d1
min_modify       line forcezero
minimize         0 0 100000 100000                                                                               # minimize energy
Per MPI rank memory allocation (min/avg/max) = 4.873 | 4.879 | 4.89 Mbytes
   Step          Temp          E_pair         E_mol          TotEng         Press          Volume    
    100000   292.07162     -3724.4534      0             -3648.9848     -136.20385      42783.911    
    100118   292.07162     -3799.8911      0             -3724.4224      2601.5272      42783.911    
Loop time of 11.169 on 16 procs for 118 steps with 2000 atoms

99.2% CPU use with 16 MPI tasks x 1 OpenMP threads

Minimization stats:
  Stopping criterion = linesearch alpha is zero
  Energy initial, next-to-last, final = 
     -3724.45343733461  -3799.89110514686  -3799.89110514686
  Force two-norm initial, final = 13.964982 1.8820022e-13
  Force max component initial, final = 0.816902 1.3958886e-14
  Final line search alpha, max atom move = 0 0
  Iterations, force evaluations = 118 223

MPI task timing breakdown:
Section |  min time  |  avg time  |  max time  |%varavg| %total
---------------------------------------------------------------
Pair    | 8.8147     | 9.4796     | 10.65      |  13.0 | 84.87
Neigh   | 0          | 0          | 0          |   0.0 |  0.00
Comm    | 0.15079    | 1.3655     | 2.3293     |  45.9 | 12.23
Output  | 0          | 0          | 0          |   0.0 |  0.00
Modify  | 0          | 0          | 0          |   0.0 |  0.00
Other   |            | 0.3239     |            |       |  2.90

Nlocal:            125 ave         132 max         117 min
Histogram: 1 0 1 1 4 2 3 3 0 1
Nghost:        1006.88 ave        1028 max         996 min
Histogram: 2 2 4 3 3 0 0 1 0 1
Neighs:              0 ave           0 max           0 min
Histogram: 16 0 0 0 0 0 0 0 0 0
FullNghs:      7822.12 ave        8296 max        7308 min
Histogram: 1 0 1 2 3 2 5 1 0 1

Total # of neighbors = 125154
Ave neighs/atom = 62.577
Neighbor list builds = 0
Dangerous builds = 0
write_dump       all custom md/data/li_bcc/dump_0.64_relaxed.gz id type x y z
#------------------------------------------------------------------------------#
Total wall time: 0:47:45
