LAMMPS (29 Aug 2024)
OMP_NUM_THREADS environment is not set. Defaulting to 1 thread. (src/comm.cpp:98)
  using 1 OpenMP thread(s) per MPI task

#---------------------------- Atomic setup ------------------------------------#
units            metal
timestep         0.001
boundary         p p p
lattice          bcc 3.51
Lattice spacing in x,y,z = 3.51 3.51 3.51
region           sim_box block 0 10 0 10 0 10
create_box       1 sim_box
Created orthogonal box = (0 0 0) to (35.1 35.1 35.1)
  2 by 2 by 4 MPI processor grid
create_atoms     1 box
Created 2000 atoms
  using lattice units in orthogonal box = (0 0 0) to (35.1 35.1 35.1)
  create_atoms CPU = 0.000 seconds

pair_style       snap                                             # interatomic potential (Lennard-Jones, EAM, etc.)
pair_coeff       * * ${potentials_dir}/li_snap.snapcoeff ${potentials_dir}/li_snap.snapparam Li # interatomic potential parameters (ex. eam.alloy ${potentials_dir}/Cu_u3.eam)
pair_coeff       * * md/potentials/li_snap.snapcoeff ${potentials_dir}/li_snap.snapparam Li 
pair_coeff       * * md/potentials/li_snap.snapcoeff md/potentials/li_snap.snapparam Li 
Reading potential file md/potentials/li_snap.snapcoeff with DATE: 2020-01-31
SNAP Element = Li, Radius 0.5, Weight 1
Reading potential file md/potentials/li_snap.snapparam with DATE: 2020-01-31
SNAP keyword rcutfac 5.1
SNAP keyword twojmax 8
SNAP keyword rfac0 0.99363
SNAP keyword rmin0 0
SNAP keyword quadraticflag 0
SNAP keyword bzeroflag 0
pair_modify      tail yes
neigh_modify     delay 0                                                       # neighbor list update frequency (0 = every timestep)
mass             1 6.941                                                 # atomic mass
variable         rnd equal round(random(0,999999,42))

#----------------------------- Equilibriation ---------------------------------#
velocity         all create 199.628 ${rnd} dist gaussian              # initial velocities
velocity         all create 199.628 420940 dist gaussian              
fix              f2 all nph iso 0 0 1.0        # barostat
variable         rnd equal round(random(0,999999,0))
fix              f3 all temp/csvr 199.628 199.628 0.1 ${rnd} # thermostat
fix              f3 all temp/csvr 199.628 199.628 0.1 53464 
run              10000                                           # equilibriation run
Neighbor list info ...
  update: every = 1 steps, delay = 0 steps, check = yes
  max neighbors/atom: 2000, page size: 100000
  master list distance cutoff = 7.1
  ghost atom cutoff = 7.1
  binsize = 3.55, bins = 10 10 10
  1 neighbor lists, perpetual/occasional/extra = 1 0 0
  (1) pair snap, perpetual
      attributes: full, newton on
      pair build: full/bin/atomonly
      stencil: full/bin/3d
      bin: standard
Per MPI rank memory allocation (min/avg/max) = 3.695 | 3.695 | 3.695 Mbytes
   Step          Temp          E_pair         E_mol          TotEng         Press          Volume    
         0   199.628       -3799.9487      0             -3748.3666      946.22554      43243.551    
     10000   199.20401     -3750.7061      0             -3699.2335      68.355384      42503.322    
Loop time of 275.233 on 16 procs for 10000 steps with 2000 atoms

Performance: 3.139 ns/day, 7.645 hours/ns, 36.333 timesteps/s, 72.666 katom-step/s
99.6% CPU use with 16 MPI tasks x 1 OpenMP threads

MPI task timing breakdown:
Section |  min time  |  avg time  |  max time  |%varavg| %total
---------------------------------------------------------------
Pair    | 249.54     | 251.52     | 265.96     |  23.6 | 91.38
Neigh   | 0.050016   | 0.050612   | 0.050991   |   0.1 |  0.02
Comm    | 7.8115     | 21.471     | 23.743     |  84.2 |  7.80
Output  | 4.0566e-05 | 4.2474e-05 | 6.1615e-05 |   0.0 |  0.00
Modify  | 1.0299     | 2.1593     | 5.1155     | 116.4 |  0.78
Other   |            | 0.03439    |            |       |  0.01

Nlocal:            125 ave         133 max         117 min
Histogram: 1 2 3 2 1 0 1 1 3 2
Nghost:           1045 ave        1060 max        1031 min
Histogram: 3 2 1 2 0 2 0 1 2 3
Neighs:              0 ave           0 max           0 min
Histogram: 16 0 0 0 0 0 0 0 0 0
FullNghs:      7809.88 ave        8354 max        7278 min
Histogram: 1 2 3 3 0 0 1 1 3 2

Total # of neighbors = 124958
Ave neighs/atom = 62.479
Neighbor list builds = 163
Dangerous builds = 0

#----------------------------- Run simulation ---------------------------------#
dump             d1 all custom 10000 md/data/li_bcc/dump_0.44.gz id type x y z # snapshots
run              90000
Per MPI rank memory allocation (min/avg/max) = 3.724 | 3.734 | 3.748 Mbytes
   Step          Temp          E_pair         E_mol          TotEng         Press          Volume    
     10000   199.20401     -3750.7061      0             -3699.2335      68.355384      42503.322    
    100000   196.29458     -3747.8028      0             -3697.082      -253.50017      42548.999    
Loop time of 2460.65 on 16 procs for 90000 steps with 2000 atoms

Performance: 3.160 ns/day, 7.595 hours/ns, 36.576 timesteps/s, 73.152 katom-step/s
99.6% CPU use with 16 MPI tasks x 1 OpenMP threads

MPI task timing breakdown:
Section |  min time  |  avg time  |  max time  |%varavg| %total
---------------------------------------------------------------
Pair    | 2247.5     | 2259.7     | 2349.7     |  49.2 | 91.83
Neigh   | 0.45725    | 0.46194    | 0.46568    |   0.3 |  0.02
Comm    | 99.29      | 180.69     | 197.22     | 185.6 |  7.34
Output  | 0.0025755  | 0.028329   | 0.053879   |   9.0 |  0.00
Modify  | 10.909     | 19.495     | 43.699     | 316.0 |  0.79
Other   |            | 0.3114     |            |       |  0.01

Nlocal:            125 ave         132 max         111 min
Histogram: 2 0 0 0 1 2 1 3 4 3
Nghost:        1036.88 ave        1062 max        1013 min
Histogram: 1 1 2 1 3 3 2 2 0 1
Neighs:              0 ave           0 max           0 min
Histogram: 16 0 0 0 0 0 0 0 0 0
FullNghs:      7801.12 ave        8240 max        6902 min
Histogram: 1 1 0 0 1 2 1 3 4 3

Total # of neighbors = 124818
Ave neighs/atom = 62.409
Neighbor list builds = 1487
Dangerous builds = 0
undump           d1
min_modify       line forcezero
minimize         0 0 100000 100000                                                                               # minimize energy
Per MPI rank memory allocation (min/avg/max) = 4.86 | 4.868 | 4.882 Mbytes
   Step          Temp          E_pair         E_mol          TotEng         Press          Volume    
    100000   196.29458     -3747.8028      0             -3697.082      -253.50017      42548.999    
    100120   196.29458     -3799.7486      0             -3749.0278      2496.4789      42548.999    
Loop time of 9.90395 on 16 procs for 120 steps with 2000 atoms

99.4% CPU use with 16 MPI tasks x 1 OpenMP threads

Minimization stats:
  Stopping criterion = linesearch alpha is zero
  Energy initial, next-to-last, final = 
     -3747.80277338831  -3799.74859823687  -3799.74859823687
  Force two-norm initial, final = 11.446508 2.0456469e-13
  Force max component initial, final = 0.53791104 1.2291034e-14
  Final line search alpha, max atom move = 0 0
  Iterations, force evaluations = 120 225

MPI task timing breakdown:
Section |  min time  |  avg time  |  max time  |%varavg| %total
---------------------------------------------------------------
Pair    | 8.4788     | 9.4094     | 9.8694     |  12.5 | 95.01
Neigh   | 0          | 0          | 0          |   0.0 |  0.00
Comm    | 0.031058   | 0.47355    | 1.4215     |  55.5 |  4.78
Output  | 0          | 0          | 0          |   0.0 |  0.00
Modify  | 0          | 0          | 0          |   0.0 |  0.00
Other   |            | 0.021      |            |       |  0.21

Nlocal:            125 ave         132 max         113 min
Histogram: 1 1 0 2 1 2 1 2 3 3
Nghost:        1036.06 ave        1047 max        1018 min
Histogram: 1 1 0 0 2 3 1 4 3 1
Neighs:              0 ave           0 max           0 min
Histogram: 16 0 0 0 0 0 0 0 0 0
FullNghs:      7810.75 ave        8276 max        7008 min
Histogram: 1 1 0 2 1 2 1 1 3 4

Total # of neighbors = 124972
Ave neighs/atom = 62.486
Neighbor list builds = 0
Dangerous builds = 0
write_dump       all custom md/data/li_bcc/dump_0.44_relaxed.gz id type x y z
#------------------------------------------------------------------------------#
Total wall time: 0:45:45
