LAMMPS (29 Aug 2024)
OMP_NUM_THREADS environment is not set. Defaulting to 1 thread. (src/comm.cpp:98)
  using 1 OpenMP thread(s) per MPI task

#---------------------------- Atomic setup ------------------------------------#
units            metal
timestep         0.001
boundary         p p p
lattice          bcc 3.51
Lattice spacing in x,y,z = 3.51 3.51 3.51
region           sim_box block 0 10 0 10 0 10
create_box       1 sim_box
Created orthogonal box = (0 0 0) to (35.1 35.1 35.1)
  2 by 2 by 4 MPI processor grid
create_atoms     1 box
Created 2000 atoms
  using lattice units in orthogonal box = (0 0 0) to (35.1 35.1 35.1)
  create_atoms CPU = 0.000 seconds

pair_style       snap                                             # interatomic potential (Lennard-Jones, EAM, etc.)
pair_coeff       * * ${potentials_dir}/li_snap.snapcoeff ${potentials_dir}/li_snap.snapparam Li # interatomic potential parameters (ex. eam.alloy ${potentials_dir}/Cu_u3.eam)
pair_coeff       * * md/potentials/li_snap.snapcoeff ${potentials_dir}/li_snap.snapparam Li 
pair_coeff       * * md/potentials/li_snap.snapcoeff md/potentials/li_snap.snapparam Li 
Reading potential file md/potentials/li_snap.snapcoeff with DATE: 2020-01-31
SNAP Element = Li, Radius 0.5, Weight 1
Reading potential file md/potentials/li_snap.snapparam with DATE: 2020-01-31
SNAP keyword rcutfac 5.1
SNAP keyword twojmax 8
SNAP keyword rfac0 0.99363
SNAP keyword rmin0 0
SNAP keyword quadraticflag 0
SNAP keyword bzeroflag 0
pair_modify      tail yes
neigh_modify     delay 0                                                       # neighbor list update frequency (0 = every timestep)
mass             1 6.941                                                 # atomic mass
variable         rnd equal round(random(0,999999,42))

#----------------------------- Equilibriation ---------------------------------#
velocity         all create 54.443999999999996 ${rnd} dist gaussian              # initial velocities
velocity         all create 54.443999999999996 420940 dist gaussian              
fix              f2 all nph iso 0 0 1.0        # barostat
variable         rnd equal round(random(0,999999,0))
fix              f3 all temp/csvr 54.443999999999996 54.443999999999996 0.1 ${rnd} # thermostat
fix              f3 all temp/csvr 54.443999999999996 54.443999999999996 0.1 53464 
run              10000                                           # equilibriation run
Neighbor list info ...
  update: every = 1 steps, delay = 0 steps, check = yes
  max neighbors/atom: 2000, page size: 100000
  master list distance cutoff = 7.1
  ghost atom cutoff = 7.1
  binsize = 3.55, bins = 10 10 10
  1 neighbor lists, perpetual/occasional/extra = 1 0 0
  (1) pair snap, perpetual
      attributes: full, newton on
      pair build: full/bin/atomonly
      stencil: full/bin/3d
      bin: standard
Per MPI rank memory allocation (min/avg/max) = 3.695 | 3.695 | 3.695 Mbytes
   Step          Temp          E_pair         E_mol          TotEng         Press          Volume    
         0   54.444        -3799.9487      0             -3785.8809      19.622034      43243.551    
     10000   52.548475     -3785.9835      0             -3772.4054     -60.115326      42729.688    
Loop time of 283.467 on 16 procs for 10000 steps with 2000 atoms

Performance: 3.048 ns/day, 7.874 hours/ns, 35.277 timesteps/s, 70.555 katom-step/s
99.6% CPU use with 16 MPI tasks x 1 OpenMP threads

MPI task timing breakdown:
Section |  min time  |  avg time  |  max time  |%varavg| %total
---------------------------------------------------------------
Pair    | 280.77     | 281.34     | 282.4      |   2.3 | 99.25
Neigh   | 0          | 0          | 0          |   0.0 |  0.00
Comm    | 0.74357    | 1.7642     | 2.3725     |  30.2 |  0.62
Output  | 4.237e-05  | 4.7939e-05 | 0.0001202  |   0.0 |  0.00
Modify  | 0.24196    | 0.32387    | 0.49853    |  17.8 |  0.11
Other   |            | 0.03574    |            |       |  0.01

Nlocal:            125 ave         125 max         125 min
Histogram: 16 0 0 0 0 0 0 0 0 0
Nghost:           1142 ave        1142 max        1142 min
Histogram: 16 0 0 0 0 0 0 0 0 0
Neighs:              0 ave           0 max           0 min
Histogram: 16 0 0 0 0 0 0 0 0 0
FullNghs:         8000 ave        8000 max        8000 min
Histogram: 16 0 0 0 0 0 0 0 0 0

Total # of neighbors = 128000
Ave neighs/atom = 64
Neighbor list builds = 0
Dangerous builds = 0

#----------------------------- Run simulation ---------------------------------#
dump             d1 all custom 10000 md/data/li_bcc/dump_0.12.gz id type x y z # snapshots
run              90000
Per MPI rank memory allocation (min/avg/max) = 3.695 | 3.698 | 3.708 Mbytes
   Step          Temp          E_pair         E_mol          TotEng         Press          Volume    
     10000   52.548475     -3785.9835      0             -3772.4054     -60.115326      42729.688    
    100000   53.190866     -3785.5258      0             -3771.7818     -275.4323       42788.328    
Loop time of 2839.09 on 16 procs for 90000 steps with 2000 atoms

Performance: 2.739 ns/day, 8.763 hours/ns, 31.700 timesteps/s, 63.400 katom-step/s
99.6% CPU use with 16 MPI tasks x 1 OpenMP threads

MPI task timing breakdown:
Section |  min time  |  avg time  |  max time  |%varavg| %total
---------------------------------------------------------------
Pair    | 2307.6     | 2530.4     | 2833.3     | 263.9 | 89.13
Neigh   | 0          | 0          | 0          |   0.0 |  0.00
Comm    | 2.8962     | 275.92     | 529.11     | 911.7 |  9.72
Output  | 0.0071627  | 0.030964   | 0.057916   |   9.2 |  0.00
Modify  | 1.8574     | 32.429     | 123.95     | 927.6 |  1.14
Other   |            | 0.3297     |            |       |  0.01

Nlocal:            125 ave         140 max         114 min
Histogram: 1 3 0 5 0 3 2 1 0 1
Nghost:        1086.44 ave        1101 max        1071 min
Histogram: 1 0 2 2 3 1 2 2 1 2
Neighs:              0 ave           0 max           0 min
Histogram: 16 0 0 0 0 0 0 0 0 0
FullNghs:      7853.25 ave        8817 max        7139 min
Histogram: 1 1 2 5 1 2 2 1 0 1

Total # of neighbors = 125652
Ave neighs/atom = 62.826
Neighbor list builds = 0
Dangerous builds = 0
undump           d1
min_modify       line forcezero
minimize         0 0 100000 100000                                                                               # minimize energy
Per MPI rank memory allocation (min/avg/max) = 4.82 | 4.824 | 4.833 Mbytes
   Step          Temp          E_pair         E_mol          TotEng         Press          Volume    
    100000   53.190866     -3785.5258      0             -3771.7818     -275.4323       42788.328    
    100103   53.190866     -3799.8931      0             -3786.149       1050.8134      42788.328    
Loop time of 10.2565 on 16 procs for 103 steps with 2000 atoms

99.6% CPU use with 16 MPI tasks x 1 OpenMP threads

Minimization stats:
  Stopping criterion = linesearch alpha is zero
  Energy initial, next-to-last, final = 
     -3785.52583125777  -3799.89306982266  -3799.89306982266
  Force two-norm initial, final = 5.9566646 1.9030975e-13
  Force max component initial, final = 0.28153842 1.2119646e-14
  Final line search alpha, max atom move = 0 0
  Iterations, force evaluations = 103 215

MPI task timing breakdown:
Section |  min time  |  avg time  |  max time  |%varavg| %total
---------------------------------------------------------------
Pair    | 8.7409     | 9.6693     | 10.246     |  12.4 | 94.27
Neigh   | 0          | 0          | 0          |   0.0 |  0.00
Comm    | 0.0070337  | 0.56127    | 1.5125     |  52.0 |  5.47
Output  | 0          | 0          | 0          |   0.0 |  0.00
Modify  | 0          | 0          | 0          |   0.0 |  0.00
Other   |            | 0.02597    |            |       |  0.25

Nlocal:            125 ave         133 max         113 min
Histogram: 1 0 0 3 1 1 3 3 2 2
Nghost:        1083.81 ave        1098 max        1063 min
Histogram: 1 0 0 0 4 3 3 2 2 1
Neighs:              0 ave           0 max           0 min
Histogram: 16 0 0 0 0 0 0 0 0 0
FullNghs:      7843.62 ave        8348 max        7070 min
Histogram: 1 0 0 3 1 2 2 5 0 2

Total # of neighbors = 125498
Ave neighs/atom = 62.749
Neighbor list builds = 0
Dangerous builds = 0
write_dump       all custom md/data/li_bcc/dump_0.12_relaxed.gz id type x y z
#------------------------------------------------------------------------------#
Total wall time: 0:52:12
