LAMMPS (29 Aug 2024)
OMP_NUM_THREADS environment is not set. Defaulting to 1 thread. (src/comm.cpp:98)
  using 1 OpenMP thread(s) per MPI task
Lattice spacing in x,y,z = 3.51 3.51 3.51
Created orthogonal box = (0 0 0) to (35.1 35.1 35.1)
  2 by 2 by 4 MPI processor grid
Created 2000 atoms
  using lattice units in orthogonal box = (0 0 0) to (35.1 35.1 35.1)
  create_atoms CPU = 0.001 seconds
Reading potential file md/potentials/li_snap.snapcoeff with DATE: 2020-01-31
SNAP Element = Li, Radius 0.5, Weight 1
Reading potential file md/potentials/li_snap.snapparam with DATE: 2020-01-31
SNAP keyword rcutfac 5.1
SNAP keyword twojmax 8
SNAP keyword rfac0 0.99363
SNAP keyword rmin0 0
SNAP keyword quadraticflag 0
SNAP keyword bzeroflag 0
Neighbor list info ...
  update: every = 1 steps, delay = 0 steps, check = yes
  max neighbors/atom: 2000, page size: 100000
  master list distance cutoff = 7.1
  ghost atom cutoff = 7.1
  binsize = 3.55, bins = 10 10 10
  1 neighbor lists, perpetual/occasional/extra = 1 0 0
  (1) pair snap, perpetual
      attributes: full, newton on
      pair build: full/bin/atomonly
      stencil: full/bin/3d
      bin: standard
Setting up Verlet run ...
  Unit style    : metal
  Current step  : 0
  Time step     : 0.001
Per MPI rank memory allocation (min/avg/max) = 3.695 | 3.695 | 3.695 Mbytes
   Step          Temp          E_pair         E_mol          TotEng         Press          Volume    
         0   18.148        -3799.9487      0             -3795.2594     -212.02884      43243.551    
     10000   17.821827     -3795.3487      0             -3790.7437     -283.38954      43067.326    
Loop time of 289.069 on 16 procs for 10000 steps with 2000 atoms

Performance: 2.989 ns/day, 8.030 hours/ns, 34.594 timesteps/s, 69.188 katom-step/s
99.6% CPU use with 16 MPI tasks x 1 OpenMP threads

MPI task timing breakdown:
Section |  min time  |  avg time  |  max time  |%varavg| %total
---------------------------------------------------------------
Pair    | 286.92     | 287.25     | 287.99     |   1.5 | 99.37
Neigh   | 0          | 0          | 0          |   0.0 |  0.00
Comm    | 0.6113     | 1.4192     | 1.7786     |  23.7 |  0.49
Output  | 5.0365e-05 | 5.5378e-05 | 0.00012132 |   0.0 |  0.00
Modify  | 0.20728    | 0.36672    | 0.48071    |  17.1 |  0.13
Other   |            | 0.03485    |            |       |  0.01

Nlocal:            125 ave         125 max         125 min
Histogram: 16 0 0 0 0 0 0 0 0 0
Nghost:           1142 ave        1142 max        1142 min
Histogram: 16 0 0 0 0 0 0 0 0 0
Neighs:              0 ave           0 max           0 min
Histogram: 16 0 0 0 0 0 0 0 0 0
FullNghs:         8000 ave        8000 max        8000 min
Histogram: 16 0 0 0 0 0 0 0 0 0

Total # of neighbors = 128000
Ave neighs/atom = 64
Neighbor list builds = 0
Dangerous builds = 0
Setting up Verlet run ...
  Unit style    : metal
  Current step  : 10000
  Time step     : 0.001
Per MPI rank memory allocation (min/avg/max) = 3.695 | 3.698 | 3.703 Mbytes
   Step          Temp          E_pair         E_mol          TotEng         Press          Volume    
     10000   17.821827     -3795.3487      0             -3790.7437     -283.38954      43067.326    
    100000   17.870252     -3795.201       0             -3790.5835     -72.122902      42998.205    
Loop time of 2775.93 on 16 procs for 90000 steps with 2000 atoms

Performance: 2.801 ns/day, 8.568 hours/ns, 32.422 timesteps/s, 64.843 katom-step/s
99.6% CPU use with 16 MPI tasks x 1 OpenMP threads

MPI task timing breakdown:
Section |  min time  |  avg time  |  max time  |%varavg| %total
---------------------------------------------------------------
Pair    | 2335.9     | 2585.8     | 2770.3     | 241.5 | 93.15
Neigh   | 0          | 0          | 0          |   0.0 |  0.00
Comm    | 3.1997     | 173.77     | 412.54     | 899.5 |  6.26
Output  | 0.0057583  | 0.031549   | 0.059187   |   9.4 |  0.00
Modify  | 1.971      | 15.992     | 57.877     | 604.6 |  0.58
Other   |            | 0.3209     |            |       |  0.01

Nlocal:            125 ave         134 max         113 min
Histogram: 2 0 0 2 2 2 0 4 3 1
Nghost:        1122.25 ave        1134 max        1114 min
Histogram: 3 3 2 0 0 3 2 0 0 3
Neighs:              0 ave           0 max           0 min
Histogram: 16 0 0 0 0 0 0 0 0 0
FullNghs:      7918.88 ave        8502 max        7165 min
Histogram: 2 0 0 2 2 2 0 5 2 1

Total # of neighbors = 126702
Ave neighs/atom = 63.351
Neighbor list builds = 0
Dangerous builds = 0
Setting up cg style minimization ...
  Unit style    : metal
  Current step  : 100000
Per MPI rank memory allocation (min/avg/max) = 4.82 | 4.824 | 4.828 Mbytes
   Step          Temp          E_pair         E_mol          TotEng         Press          Volume    
    100000   17.870252     -3795.201       0             -3790.5835     -72.122902      42998.205    
    100100   17.870252     -3799.9553      0             -3795.3377      353.82229      42998.205    
Loop time of 9.41972 on 16 procs for 100 steps with 2000 atoms

99.6% CPU use with 16 MPI tasks x 1 OpenMP threads

Minimization stats:
  Stopping criterion = linesearch alpha is zero
  Energy initial, next-to-last, final = 
     -3795.20101713498  -3799.95525302138  -3799.95525302138
  Force two-norm initial, final = 3.4551488 1.7839139e-13
  Force max component initial, final = 0.18515716 1.0279104e-14
  Final line search alpha, max atom move = 0 0
  Iterations, force evaluations = 100 198

MPI task timing breakdown:
Section |  min time  |  avg time  |  max time  |%varavg| %total
---------------------------------------------------------------
Pair    | 8.2225     | 8.9308     | 9.4098     |  11.8 | 94.81
Neigh   | 0          | 0          | 0          |   0.0 |  0.00
Comm    | 0.0067212  | 0.48155    | 1.1767     |  50.9 |  5.11
Output  | 0          | 0          | 0          |   0.0 |  0.00
Modify  | 0          | 0          | 0          |   0.0 |  0.00
Other   |            | 0.007392   |            |       |  0.08

Nlocal:            125 ave         132 max         115 min
Histogram: 1 1 1 2 1 0 2 4 2 2
Nghost:        1126.75 ave        1137 max        1118 min
Histogram: 1 4 1 1 2 1 1 3 0 2
Neighs:              0 ave           0 max           0 min
Histogram: 16 0 0 0 0 0 0 0 0 0
FullNghs:      7938.62 ave        8395 max        7308 min
Histogram: 1 1 1 2 1 0 2 4 2 2

Total # of neighbors = 127018
Ave neighs/atom = 63.509
Neighbor list builds = 0
Dangerous builds = 0
Total wall time: 0:51:14
