LAMMPS (29 Aug 2024)
OMP_NUM_THREADS environment is not set. Defaulting to 1 thread. (src/comm.cpp:98)
  using 1 OpenMP thread(s) per MPI task
Lattice spacing in x,y,z = 3.51 3.51 3.51
Created orthogonal box = (0 0 0) to (35.1 35.1 35.1)
  2 by 2 by 4 MPI processor grid
Created 2000 atoms
  using lattice units in orthogonal box = (0 0 0) to (35.1 35.1 35.1)
  create_atoms CPU = 0.001 seconds
Reading potential file md/potentials/li_snap.snapcoeff with DATE: 2020-01-31
SNAP Element = Li, Radius 0.5, Weight 1
Reading potential file md/potentials/li_snap.snapparam with DATE: 2020-01-31
SNAP keyword rcutfac 5.1
SNAP keyword twojmax 8
SNAP keyword rfac0 0.99363
SNAP keyword rmin0 0
SNAP keyword quadraticflag 0
SNAP keyword bzeroflag 0
Neighbor list info ...
  update: every = 1 steps, delay = 0 steps, check = yes
  max neighbors/atom: 2000, page size: 100000
  master list distance cutoff = 7.1
  ghost atom cutoff = 7.1
  binsize = 3.55, bins = 10 10 10
  1 neighbor lists, perpetual/occasional/extra = 1 0 0
  (1) pair snap, perpetual
      attributes: full, newton on
      pair build: full/bin/atomonly
      stencil: full/bin/3d
      bin: standard
Setting up Verlet run ...
  Unit style    : metal
  Current step  : 0
  Time step     : 0.001
Per MPI rank memory allocation (min/avg/max) = 3.695 | 3.695 | 3.695 Mbytes
   Step          Temp          E_pair         E_mol          TotEng         Press          Volume    
         0   90.74         -3799.9487      0             -3776.5023      251.27291      43243.551    
     10000   89.635432     -3777.2602      0             -3754.0992      374.39774      42396.588    
Loop time of 268.529 on 16 procs for 10000 steps with 2000 atoms

Performance: 3.218 ns/day, 7.459 hours/ns, 37.240 timesteps/s, 74.480 katom-step/s
99.6% CPU use with 16 MPI tasks x 1 OpenMP threads

MPI task timing breakdown:
Section |  min time  |  avg time  |  max time  |%varavg| %total
---------------------------------------------------------------
Pair    | 265.54     | 266.05     | 266.92     |   2.7 | 99.08
Neigh   | 0          | 0          | 0          |   0.0 |  0.00
Comm    | 1.2874     | 2.0907     | 2.6001     |  30.1 |  0.78
Output  | 3.2622e-05 | 3.8174e-05 | 0.00011545 |   0.0 |  0.00
Modify  | 0.28119    | 0.3535     | 0.44416    |  10.3 |  0.13
Other   |            | 0.03372    |            |       |  0.01

Nlocal:            125 ave         125 max         125 min
Histogram: 16 0 0 0 0 0 0 0 0 0
Nghost:           1142 ave        1142 max        1142 min
Histogram: 16 0 0 0 0 0 0 0 0 0
Neighs:              0 ave           0 max           0 min
Histogram: 16 0 0 0 0 0 0 0 0 0
FullNghs:         8000 ave        8000 max        8000 min
Histogram: 16 0 0 0 0 0 0 0 0 0

Total # of neighbors = 128000
Ave neighs/atom = 64
Neighbor list builds = 0
Dangerous builds = 0
Setting up Verlet run ...
  Unit style    : metal
  Current step  : 10000
  Time step     : 0.001
Per MPI rank memory allocation (min/avg/max) = 3.695 | 3.698 | 3.704 Mbytes
   Step          Temp          E_pair         E_mol          TotEng         Press          Volume    
     10000   89.635432     -3777.2602      0             -3754.0992      374.39774      42396.588    
    100000   90.579771     -3776.5582      0             -3753.1532     -55.566393      42571.495    
Loop time of 2590.82 on 16 procs for 90000 steps with 2000 atoms

Performance: 3.001 ns/day, 7.996 hours/ns, 34.738 timesteps/s, 69.476 katom-step/s
99.6% CPU use with 16 MPI tasks x 1 OpenMP threads

MPI task timing breakdown:
Section |  min time  |  avg time  |  max time  |%varavg| %total
---------------------------------------------------------------
Pair    | 2300.8     | 2449.9     | 2562.8     | 152.5 | 94.56
Neigh   | 0.00029803 | 0.00031622 | 0.00034707 |   0.0 |  0.00
Comm    | 25.964     | 134.63     | 287.87     | 655.4 |  5.20
Output  | 0.0027211  | 0.029642   | 0.05706    |   9.3 |  0.00
Modify  | 1.7631     | 5.9111     | 15.797     | 237.7 |  0.23
Other   |            | 0.3168     |            |       |  0.01

Nlocal:            125 ave         132 max         116 min
Histogram: 1 1 2 0 1 3 2 2 2 2
Nghost:        1079.69 ave        1088 max        1071 min
Histogram: 1 2 3 0 2 0 5 0 0 3
Neighs:              0 ave           0 max           0 min
Histogram: 16 0 0 0 0 0 0 0 0 0
FullNghs:      7832.62 ave        8269 max        7268 min
Histogram: 1 1 2 0 1 3 2 2 2 2

Total # of neighbors = 125322
Ave neighs/atom = 62.661
Neighbor list builds = 1
Dangerous builds = 0
Setting up cg style minimization ...
  Unit style    : metal
  Current step  : 100000
Per MPI rank memory allocation (min/avg/max) = 4.82 | 4.825 | 4.831 Mbytes
   Step          Temp          E_pair         E_mol          TotEng         Press          Volume    
    100000   90.579771     -3776.5582      0             -3753.1532     -55.566393      42571.495    
    100115   90.579771     -3799.7654      0             -3776.3604      1762.858       42571.495    
Loop time of 10.7696 on 16 procs for 115 steps with 2000 atoms

99.6% CPU use with 16 MPI tasks x 1 OpenMP threads

Minimization stats:
  Stopping criterion = linesearch alpha is zero
  Energy initial, next-to-last, final = 
     -3776.55816280533  -3799.76543979471  -3799.76543979471
  Force two-norm initial, final = 7.6512157 1.8801431e-13
  Force max component initial, final = 0.37241014 1.0104331e-14
  Final line search alpha, max atom move = 0 0
  Iterations, force evaluations = 115 224

MPI task timing breakdown:
Section |  min time  |  avg time  |  max time  |%varavg| %total
---------------------------------------------------------------
Pair    | 9.4764     | 9.9499     | 10.759     |  10.5 | 92.39
Neigh   | 0          | 0          | 0          |   0.0 |  0.00
Comm    | 0.0074946  | 0.7149     | 1.2896     |  45.1 |  6.64
Output  | 0          | 0          | 0          |   0.0 |  0.00
Modify  | 0          | 0          | 0          |   0.0 |  0.00
Other   |            | 0.1048     |            |       |  0.97

Nlocal:            125 ave         135 max         119 min
Histogram: 1 4 2 3 1 1 3 0 0 1
Nghost:        1074.38 ave        1088 max        1066 min
Histogram: 4 3 1 2 2 0 0 0 1 3
Neighs:              0 ave           0 max           0 min
Histogram: 16 0 0 0 0 0 0 0 0 0
FullNghs:       7829.5 ave        8449 max        7432 min
Histogram: 1 3 3 3 1 1 2 1 0 1

Total # of neighbors = 125272
Ave neighs/atom = 62.636
Neighbor list builds = 0
Dangerous builds = 0
Total wall time: 0:47:50
