LAMMPS (29 Aug 2024)
OMP_NUM_THREADS environment is not set. Defaulting to 1 thread. (src/comm.cpp:98)
  using 1 OpenMP thread(s) per MPI task

#---------------------------- Atomic setup ------------------------------------#
units            metal
timestep         0.001
boundary         p p p
lattice          bcc 3.51
Lattice spacing in x,y,z = 3.51 3.51 3.51
region           sim_box block 0 10 0 10 0 10
create_box       1 sim_box
Created orthogonal box = (0 0 0) to (35.1 35.1 35.1)
  2 by 2 by 4 MPI processor grid
create_atoms     1 box
Created 2000 atoms
  using lattice units in orthogonal box = (0 0 0) to (35.1 35.1 35.1)
  create_atoms CPU = 0.001 seconds

pair_style       snap                                             # interatomic potential (Lennard-Jones, EAM, etc.)
pair_coeff       * * ${potentials_dir}/li_snap.snapcoeff ${potentials_dir}/li_snap.snapparam Li # interatomic potential parameters (ex. eam.alloy ${potentials_dir}/Cu_u3.eam)
pair_coeff       * * md/potentials/li_snap.snapcoeff ${potentials_dir}/li_snap.snapparam Li 
pair_coeff       * * md/potentials/li_snap.snapcoeff md/potentials/li_snap.snapparam Li 
Reading potential file md/potentials/li_snap.snapcoeff with DATE: 2020-01-31
SNAP Element = Li, Radius 0.5, Weight 1
Reading potential file md/potentials/li_snap.snapparam with DATE: 2020-01-31
SNAP keyword rcutfac 5.1
SNAP keyword twojmax 8
SNAP keyword rfac0 0.99363
SNAP keyword rmin0 0
SNAP keyword quadraticflag 0
SNAP keyword bzeroflag 0
pair_modify      tail yes
neigh_modify     delay 0                                                       # neighbor list update frequency (0 = every timestep)
mass             1 6.941                                                 # atomic mass
variable         rnd equal round(random(0,999999,42))

#----------------------------- Equilibriation ---------------------------------#
velocity         all create 308.516 ${rnd} dist gaussian              # initial velocities
velocity         all create 308.516 420940 dist gaussian              
fix              f2 all nph iso 0 0 1.0        # barostat
variable         rnd equal round(random(0,999999,0))
fix              f3 all temp/csvr 308.516 308.516 0.1 ${rnd} # thermostat
fix              f3 all temp/csvr 308.516 308.516 0.1 53464 
run              10000                                           # equilibriation run
Neighbor list info ...
  update: every = 1 steps, delay = 0 steps, check = yes
  max neighbors/atom: 2000, page size: 100000
  master list distance cutoff = 7.1
  ghost atom cutoff = 7.1
  binsize = 3.55, bins = 10 10 10
  1 neighbor lists, perpetual/occasional/extra = 1 0 0
  (1) pair snap, perpetual
      attributes: full, newton on
      pair build: full/bin/atomonly
      stencil: full/bin/3d
      bin: standard
Per MPI rank memory allocation (min/avg/max) = 3.695 | 3.695 | 3.695 Mbytes
   Step          Temp          E_pair         E_mol          TotEng         Press          Volume    
         0   308.516       -3799.9487      0             -3720.231       1641.1782      43243.551    
     10000   300.48319     -3720.0613      0             -3642.4191      352.60295      42603.923    
Loop time of 279.717 on 16 procs for 10000 steps with 2000 atoms

Performance: 3.089 ns/day, 7.770 hours/ns, 35.750 timesteps/s, 71.501 katom-step/s
99.6% CPU use with 16 MPI tasks x 1 OpenMP threads

MPI task timing breakdown:
Section |  min time  |  avg time  |  max time  |%varavg| %total
---------------------------------------------------------------
Pair    | 259.32     | 260.84     | 262.44     |   4.9 | 93.25
Neigh   | 0.074545   | 0.075343   | 0.075949   |   0.1 |  0.03
Comm    | 15.789     | 17.291     | 18.572     |  17.9 |  6.18
Output  | 3.8092e-05 | 4.7826e-05 | 0.00018703 |   0.0 |  0.00
Modify  | 1.3733     | 1.4787     | 1.7137     |  11.3 |  0.53
Other   |            | 0.03563    |            |       |  0.01

Nlocal:            125 ave         135 max         116 min
Histogram: 1 2 2 1 4 1 0 2 2 1
Nghost:        1004.19 ave        1018 max         990 min
Histogram: 1 0 4 1 3 0 3 0 3 1
Neighs:              0 ave           0 max           0 min
Histogram: 16 0 0 0 0 0 0 0 0 0
FullNghs:         7858 ave        8521 max        7272 min
Histogram: 2 2 1 1 4 1 0 2 2 1

Total # of neighbors = 125728
Ave neighs/atom = 62.864
Neighbor list builds = 229
Dangerous builds = 0

#----------------------------- Run simulation ---------------------------------#
dump             d1 all custom 10000 md/data/li_bcc/dump_0.68.gz id type x y z # snapshots
run              90000
Per MPI rank memory allocation (min/avg/max) = 3.737 | 3.745 | 3.753 Mbytes
   Step          Temp          E_pair         E_mol          TotEng         Press          Volume    
     10000   300.48319     -3720.0613      0             -3642.4191      352.60295      42603.923    
    100000   314.7364      -3720.2719      0             -3638.9468      47.028585      42721.027    
Loop time of 2522.85 on 16 procs for 90000 steps with 2000 atoms

Performance: 3.082 ns/day, 7.787 hours/ns, 35.674 timesteps/s, 71.348 katom-step/s
99.6% CPU use with 16 MPI tasks x 1 OpenMP threads

MPI task timing breakdown:
Section |  min time  |  avg time  |  max time  |%varavg| %total
---------------------------------------------------------------
Pair    | 2335.7     | 2342.3     | 2347.7     |   8.0 | 92.84
Neigh   | 0.67408    | 0.6791     | 0.68363    |   0.3 |  0.03
Comm    | 159.23     | 163.94     | 171.41     |  29.6 |  6.50
Output  | 0.0022106  | 0.029616   | 0.056275   |   9.2 |  0.00
Modify  | 14.698     | 15.554     | 16.473     |  19.3 |  0.62
Other   |            | 0.3192     |            |       |  0.01

Nlocal:            125 ave         133 max         116 min
Histogram: 2 3 0 0 1 2 2 2 2 2
Nghost:           1007 ave        1028 max         983 min
Histogram: 1 0 1 0 5 4 1 2 1 1
Neighs:              0 ave           0 max           0 min
Histogram: 16 0 0 0 0 0 0 0 0 0
FullNghs:      7851.75 ave        8359 max        7273 min
Histogram: 1 4 0 1 0 2 4 0 1 3

Total # of neighbors = 125628
Ave neighs/atom = 62.814
Neighbor list builds = 2066
Dangerous builds = 0
undump           d1
min_modify       line forcezero
minimize         0 0 100000 100000                                                                               # minimize energy
Per MPI rank memory allocation (min/avg/max) = 4.872 | 4.877 | 4.886 Mbytes
   Step          Temp          E_pair         E_mol          TotEng         Press          Volume    
    100000   314.7364      -3720.2719      0             -3638.9468      47.028585      42721.027    
    100123   314.7364      -3799.8602      0             -3718.5352      2888.0267      42721.027    
Loop time of 10.7299 on 16 procs for 123 steps with 2000 atoms

99.6% CPU use with 16 MPI tasks x 1 OpenMP threads

Minimization stats:
  Stopping criterion = linesearch alpha is zero
  Energy initial, next-to-last, final = 
     -3720.27189263678  -3799.86024814593  -3799.86024814593
  Force two-norm initial, final = 14.286523 1.7251378e-13
  Force max component initial, final = 0.84270536 1.2373783e-14
  Final line search alpha, max atom move = 0 0
  Iterations, force evaluations = 123 227

MPI task timing breakdown:
Section |  min time  |  avg time  |  max time  |%varavg| %total
---------------------------------------------------------------
Pair    | 9.3758     | 9.9919     | 10.707     |  12.5 | 93.12
Neigh   | 0          | 0          | 0          |   0.0 |  0.00
Comm    | 0.019437   | 0.68423    | 1.3508     |  50.8 |  6.38
Output  | 0          | 0          | 0          |   0.0 |  0.00
Modify  | 0          | 0          | 0          |   0.0 |  0.00
Other   |            | 0.05376    |            |       |  0.50

Nlocal:            125 ave         134 max         117 min
Histogram: 3 1 1 0 2 4 1 2 1 1
Nghost:        1005.75 ave        1029 max         982 min
Histogram: 2 0 0 1 7 1 2 2 0 1
Neighs:              0 ave           0 max           0 min
Histogram: 16 0 0 0 0 0 0 0 0 0
FullNghs:      7851.38 ave        8426 max        7330 min
Histogram: 3 1 0 1 2 4 1 2 1 1

Total # of neighbors = 125622
Ave neighs/atom = 62.811
Neighbor list builds = 0
Dangerous builds = 0
write_dump       all custom md/data/li_bcc/dump_0.68_relaxed.gz id type x y z
#------------------------------------------------------------------------------#
Total wall time: 0:46:53
