LAMMPS (29 Aug 2024)
OMP_NUM_THREADS environment is not set. Defaulting to 1 thread. (src/comm.cpp:98)
  using 1 OpenMP thread(s) per MPI task
Lattice spacing in x,y,z = 5.43 5.43 5.43
Created orthogonal box = (0 0 0) to (54.3 54.3 54.3)
  1 by 1 by 1 MPI processor grid
Created 8000 atoms
  using lattice units in orthogonal box = (0 0 0) to (54.3 54.3 54.3)
  create_atoms CPU = 0.001 seconds
Reading edip potential file md/potentials/si.edip with DATE: 2011-09-15
Neighbor list info ...
  update: every = 1 steps, delay = 0 steps, check = yes
  max neighbors/atom: 2000, page size: 100000
  master list distance cutoff = 5.121382
  ghost atom cutoff = 5.121382
  binsize = 2.560691, bins = 22 22 22
  1 neighbor lists, perpetual/occasional/extra = 1 0 0
  (1) pair edip, perpetual
      attributes: full, newton on
      pair build: full/bin/atomonly
      stencil: full/bin/3d
      bin: standard
Setting up Verlet run ...
  Unit style    : metal
  Current step  : 0
  Time step     : 0.001
Per MPI rank memory allocation (min/avg/max) = 4.111 | 4.111 | 4.111 Mbytes
   Step          Temp          E_pair         E_mol          TotEng         Press          Volume    
         0   674.8         -37199.627      0             -36501.916      4931.0439      160103.01    
     10000   667.07547     -36464.746      0             -35775.022      407.01085      160521.89    
Loop time of 58.2281 on 1 procs for 10000 steps with 8000 atoms

Performance: 14.838 ns/day, 1.617 hours/ns, 171.738 timesteps/s, 1.374 Matom-step/s
99.4% CPU use with 1 MPI tasks x 1 OpenMP threads

MPI task timing breakdown:
Section |  min time  |  avg time  |  max time  |%varavg| %total
---------------------------------------------------------------
Pair    | 55.614     | 55.614     | 55.614     |   0.0 | 95.51
Neigh   | 0          | 0          | 0          |   0.0 |  0.00
Comm    | 0.21089    | 0.21089    | 0.21089    |   0.0 |  0.36
Output  | 0.00015115 | 0.00015115 | 0.00015115 |   0.0 |  0.00
Modify  | 2.2202     | 2.2202     | 2.2202     |   0.0 |  3.81
Other   |            | 0.1825     |            |       |  0.31

Nlocal:           8000 ave        8000 max        8000 min
Histogram: 1 0 0 0 0 0 0 0 0 0
Nghost:           4995 ave        4995 max        4995 min
Histogram: 1 0 0 0 0 0 0 0 0 0
Neighs:              0 ave           0 max           0 min
Histogram: 1 0 0 0 0 0 0 0 0 0
FullNghs:       224000 ave      224000 max      224000 min
Histogram: 1 0 0 0 0 0 0 0 0 0

Total # of neighbors = 224000
Ave neighs/atom = 28
Neighbor list builds = 0
Dangerous builds = 0
Setting up Verlet run ...
  Unit style    : metal
  Current step  : 10000
  Time step     : 0.001
Per MPI rank memory allocation (min/avg/max) = 4.111 | 4.111 | 4.111 Mbytes
   Step          Temp          E_pair         E_mol          TotEng         Press          Volume    
     10000   667.07547     -36464.746      0             -35775.022      407.01085      160521.89    
    100000   678.56435     -36450.941      0             -35749.338     -580.40943      160689.09    
Loop time of 602.432 on 1 procs for 90000 steps with 8000 atoms

Performance: 12.908 ns/day, 1.859 hours/ns, 149.394 timesteps/s, 1.195 Matom-step/s
99.4% CPU use with 1 MPI tasks x 1 OpenMP threads

MPI task timing breakdown:
Section |  min time  |  avg time  |  max time  |%varavg| %total
---------------------------------------------------------------
Pair    | 577.91     | 577.91     | 577.91     |   0.0 | 95.93
Neigh   | 0          | 0          | 0          |   0.0 |  0.00
Comm    | 2.0032     | 2.0032     | 2.0032     |   0.0 |  0.33
Output  | 0.25512    | 0.25512    | 0.25512    |   0.0 |  0.04
Modify  | 20.584     | 20.584     | 20.584     |   0.0 |  3.42
Other   |            | 1.685      |            |       |  0.28

Nlocal:           8000 ave        8000 max        8000 min
Histogram: 1 0 0 0 0 0 0 0 0 0
Nghost:           4996 ave        4996 max        4996 min
Histogram: 1 0 0 0 0 0 0 0 0 0
Neighs:              0 ave           0 max           0 min
Histogram: 1 0 0 0 0 0 0 0 0 0
FullNghs:       224302 ave      224302 max      224302 min
Histogram: 1 0 0 0 0 0 0 0 0 0

Total # of neighbors = 224302
Ave neighs/atom = 28.03775
Neighbor list builds = 0
Dangerous builds = 0
Setting up cg style minimization ...
  Unit style    : metal
  Current step  : 100000
Per MPI rank memory allocation (min/avg/max) = 5.236 | 5.236 | 5.236 Mbytes
   Step          Temp          E_pair         E_mol          TotEng         Press          Volume    
    100000   678.56435     -36450.941      0             -35749.338     -580.40943      160689.09    
    100097   678.56435     -37199.056      0             -36497.453      1270.1543      160689.09    
Loop time of 1.26354 on 1 procs for 97 steps with 8000 atoms

99.5% CPU use with 1 MPI tasks x 1 OpenMP threads

Minimization stats:
  Stopping criterion = linesearch alpha is zero
  Energy initial, next-to-last, final = 
     -36450.9405051111  -37199.0560738852  -37199.0560738852
  Force two-norm initial, final = 159.81655 8.8303711e-05
  Force max component initial, final = 4.054106 2.2466245e-06
  Final line search alpha, max atom move = 7.1994906e-07 1.6174552e-12
  Iterations, force evaluations = 97 210

MPI task timing breakdown:
Section |  min time  |  avg time  |  max time  |%varavg| %total
---------------------------------------------------------------
Pair    | 1.2387     | 1.2387     | 1.2387     |   0.0 | 98.03
Neigh   | 0          | 0          | 0          |   0.0 |  0.00
Comm    | 0.0045741  | 0.0045741  | 0.0045741  |   0.0 |  0.36
Output  | 0          | 0          | 0          |   0.0 |  0.00
Modify  | 0          | 0          | 0          |   0.0 |  0.00
Other   |            | 0.02027    |            |       |  1.60

Nlocal:           8000 ave        8000 max        8000 min
Histogram: 1 0 0 0 0 0 0 0 0 0
Nghost:           4998 ave        4998 max        4998 min
Histogram: 1 0 0 0 0 0 0 0 0 0
Neighs:              0 ave           0 max           0 min
Histogram: 1 0 0 0 0 0 0 0 0 0
FullNghs:       224306 ave      224306 max      224306 min
Histogram: 1 0 0 0 0 0 0 0 0 0

Total # of neighbors = 224306
Ave neighs/atom = 28.03825
Neighbor list builds = 0
Dangerous builds = 0
Total wall time: 0:11:02
