LAMMPS (29 Aug 2024)
OMP_NUM_THREADS environment is not set. Defaulting to 1 thread. (src/comm.cpp:98)
  using 1 OpenMP thread(s) per MPI task

#---------------------------- Atomic setup ------------------------------------#
units            metal
timestep         0.001
boundary         p p p
lattice          diamond 5.43
Lattice spacing in x,y,z = 5.43 5.43 5.43
region           sim_box block 0 10 0 10 0 10
create_box       1 sim_box
Created orthogonal box = (0 0 0) to (54.3 54.3 54.3)
  1 by 1 by 1 MPI processor grid
create_atoms     1 box
Created 8000 atoms
  using lattice units in orthogonal box = (0 0 0) to (54.3 54.3 54.3)
  create_atoms CPU = 0.001 seconds

pair_style       edip                                             # interatomic potential (Lennard-Jones, EAM, etc.)
pair_coeff       * * ${potentials_dir}/si.edip Si # interatomic potential parameters (ex. eam.alloy Cu_u3.eam)
pair_coeff       * * md/potentials/si.edip Si 
Reading edip potential file md/potentials/si.edip with DATE: 2011-09-15
pair_modify      tail yes
neigh_modify     delay 0                                                       # neighbor list update frequency (0 = every timestep)
mass             1 28.0855                                                 # atomic mass
variable         rnd equal round(random(0,999999,42))

#----------------------------- Equilibriation ---------------------------------#
velocity         all create 742.28 ${rnd} dist gaussian              # initial velocities
velocity         all create 742.28 420940 dist gaussian              
fix              f2 all nph iso 0 0 1.0        # barostat
variable         rnd equal round(random(0,999999,0))
fix              f3 all temp/csvr 742.28 742.28 0.1 ${rnd} # thermostat
fix              f3 all temp/csvr 742.28 742.28 0.1 53464 
run              10000                                           # equilibriation run
Neighbor list info ...
  update: every = 1 steps, delay = 0 steps, check = yes
  max neighbors/atom: 2000, page size: 100000
  master list distance cutoff = 5.121382
  ghost atom cutoff = 5.121382
  binsize = 2.560691, bins = 22 22 22
  1 neighbor lists, perpetual/occasional/extra = 1 0 0
  (1) pair edip, perpetual
      attributes: full, newton on
      pair build: full/bin/atomonly
      stencil: full/bin/3d
      bin: standard
Per MPI rank memory allocation (min/avg/max) = 4.111 | 4.111 | 4.111 Mbytes
   Step          Temp          E_pair         E_mol          TotEng         Press          Volume    
         0   742.28        -37199.627      0             -36432.145      5396.5174      160103.01    
     10000   735.48504     -36390.775      0             -35630.319      280.54309      160583.67    
Loop time of 58.1342 on 1 procs for 10000 steps with 8000 atoms

Performance: 14.862 ns/day, 1.615 hours/ns, 172.016 timesteps/s, 1.376 Matom-step/s
99.5% CPU use with 1 MPI tasks x 1 OpenMP threads

MPI task timing breakdown:
Section |  min time  |  avg time  |  max time  |%varavg| %total
---------------------------------------------------------------
Pair    | 55.513     | 55.513     | 55.513     |   0.0 | 95.49
Neigh   | 0          | 0          | 0          |   0.0 |  0.00
Comm    | 0.21238    | 0.21238    | 0.21238    |   0.0 |  0.37
Output  | 0.0001424  | 0.0001424  | 0.0001424  |   0.0 |  0.00
Modify  | 2.2253     | 2.2253     | 2.2253     |   0.0 |  3.83
Other   |            | 0.1832     |            |       |  0.32

Nlocal:           8000 ave        8000 max        8000 min
Histogram: 1 0 0 0 0 0 0 0 0 0
Nghost:           4995 ave        4995 max        4995 min
Histogram: 1 0 0 0 0 0 0 0 0 0
Neighs:              0 ave           0 max           0 min
Histogram: 1 0 0 0 0 0 0 0 0 0
FullNghs:       224000 ave      224000 max      224000 min
Histogram: 1 0 0 0 0 0 0 0 0 0

Total # of neighbors = 224000
Ave neighs/atom = 28
Neighbor list builds = 0
Dangerous builds = 0

#----------------------------- Run simulation ---------------------------------#
dump             d1 all custom 10000 md/data/si_cd/dump_0.44.gz id type x y z # snapshots
run              90000
Per MPI rank memory allocation (min/avg/max) = 4.111 | 4.111 | 4.111 Mbytes
   Step          Temp          E_pair         E_mol          TotEng         Press          Volume    
     10000   735.48504     -36390.775      0             -35630.319      280.54309      160583.67    
    100000   746.32833     -36370.876      0             -35599.209      172.08381      160591.9     
Loop time of 610.696 on 1 procs for 90000 steps with 8000 atoms

Performance: 12.733 ns/day, 1.885 hours/ns, 147.373 timesteps/s, 1.179 Matom-step/s
99.5% CPU use with 1 MPI tasks x 1 OpenMP threads

MPI task timing breakdown:
Section |  min time  |  avg time  |  max time  |%varavg| %total
---------------------------------------------------------------
Pair    | 586.37     | 586.37     | 586.37     |   0.0 | 96.02
Neigh   | 0          | 0          | 0          |   0.0 |  0.00
Comm    | 1.9989     | 1.9989     | 1.9989     |   0.0 |  0.33
Output  | 0.2578     | 0.2578     | 0.2578     |   0.0 |  0.04
Modify  | 20.415     | 20.415     | 20.415     |   0.0 |  3.34
Other   |            | 1.658      |            |       |  0.27

Nlocal:           8000 ave        8000 max        8000 min
Histogram: 1 0 0 0 0 0 0 0 0 0
Nghost:           5000 ave        5000 max        5000 min
Histogram: 1 0 0 0 0 0 0 0 0 0
Neighs:              0 ave           0 max           0 min
Histogram: 1 0 0 0 0 0 0 0 0 0
FullNghs:       224538 ave      224538 max      224538 min
Histogram: 1 0 0 0 0 0 0 0 0 0

Total # of neighbors = 224538
Ave neighs/atom = 28.06725
Neighbor list builds = 0
Dangerous builds = 0
undump           d1
min_modify       line forcezero
minimize         0 0 100000 100000                                                                               # minimize energy
Per MPI rank memory allocation (min/avg/max) = 5.236 | 5.236 | 5.236 Mbytes
   Step          Temp          E_pair         E_mol          TotEng         Press          Volume    
    100000   746.32833     -36370.876      0             -35599.209      172.08381      160591.9     
    100099   746.32833     -37199.243      0             -36427.576      2346.3825      160591.9     
Loop time of 1.2448 on 1 procs for 99 steps with 8000 atoms

99.6% CPU use with 1 MPI tasks x 1 OpenMP threads

Minimization stats:
  Stopping criterion = linesearch alpha is zero
  Energy initial, next-to-last, final = 
     -36370.8761235102  -37199.2433969323  -37199.2433969323
  Force two-norm initial, final = 166.93095 9.3236978e-05
  Force max component initial, final = 4.5886691 2.6297394e-06
  Final line search alpha, max atom move = 0.0042259713 1.1113203e-08
  Iterations, force evaluations = 99 205

MPI task timing breakdown:
Section |  min time  |  avg time  |  max time  |%varavg| %total
---------------------------------------------------------------
Pair    | 1.2204     | 1.2204     | 1.2204     |   0.0 | 98.04
Neigh   | 0          | 0          | 0          |   0.0 |  0.00
Comm    | 0.0043419  | 0.0043419  | 0.0043419  |   0.0 |  0.35
Output  | 0          | 0          | 0          |   0.0 |  0.00
Modify  | 0          | 0          | 0          |   0.0 |  0.00
Other   |            | 0.02006    |            |       |  1.61

Nlocal:           8000 ave        8000 max        8000 min
Histogram: 1 0 0 0 0 0 0 0 0 0
Nghost:           5000 ave        5000 max        5000 min
Histogram: 1 0 0 0 0 0 0 0 0 0
Neighs:              0 ave           0 max           0 min
Histogram: 1 0 0 0 0 0 0 0 0 0
FullNghs:       224462 ave      224462 max      224462 min
Histogram: 1 0 0 0 0 0 0 0 0 0

Total # of neighbors = 224462
Ave neighs/atom = 28.05775
Neighbor list builds = 0
Dangerous builds = 0
write_dump       all custom md/data/si_cd/dump_0.44_relaxed.gz id type x y z
#------------------------------------------------------------------------------#
Total wall time: 0:11:10
