LAMMPS (29 Aug 2024)
OMP_NUM_THREADS environment is not set. Defaulting to 1 thread. (src/comm.cpp:98)
  using 1 OpenMP thread(s) per MPI task
Lattice spacing in x,y,z = 5.43 5.43 5.43
Created orthogonal box = (0 0 0) to (54.3 54.3 54.3)
  1 by 1 by 1 MPI processor grid
Created 8000 atoms
  using lattice units in orthogonal box = (0 0 0) to (54.3 54.3 54.3)
  create_atoms CPU = 0.001 seconds
Reading edip potential file md/potentials/si.edip with DATE: 2011-09-15
Neighbor list info ...
  update: every = 1 steps, delay = 0 steps, check = yes
  max neighbors/atom: 2000, page size: 100000
  master list distance cutoff = 5.121382
  ghost atom cutoff = 5.121382
  binsize = 2.560691, bins = 22 22 22
  1 neighbor lists, perpetual/occasional/extra = 1 0 0
  (1) pair edip, perpetual
      attributes: full, newton on
      pair build: full/bin/atomonly
      stencil: full/bin/3d
      bin: standard
Setting up Verlet run ...
  Unit style    : metal
  Current step  : 0
  Time step     : 0.001
Per MPI rank memory allocation (min/avg/max) = 4.111 | 4.111 | 4.111 Mbytes
   Step          Temp          E_pair         E_mol          TotEng         Press          Volume    
         0   1889.44       -37199.627      0             -35246.037      13309.568      160103.01    
     10000   1881.644      -34842.318      0             -32896.789     -37.789221      160450.2     
Loop time of 79.6897 on 1 procs for 10000 steps with 8000 atoms

Performance: 10.842 ns/day, 2.214 hours/ns, 125.487 timesteps/s, 1.004 Matom-step/s
99.5% CPU use with 1 MPI tasks x 1 OpenMP threads

MPI task timing breakdown:
Section |  min time  |  avg time  |  max time  |%varavg| %total
---------------------------------------------------------------
Pair    | 74.341     | 74.341     | 74.341     |   0.0 | 93.29
Neigh   | 2.6503     | 2.6503     | 2.6503     |   0.0 |  3.33
Comm    | 0.25322    | 0.25322    | 0.25322    |   0.0 |  0.32
Output  | 0.00023158 | 0.00023158 | 0.00023158 |   0.0 |  0.00
Modify  | 2.2481     | 2.2481     | 2.2481     |   0.0 |  2.82
Other   |            | 0.1965     |            |       |  0.25

Nlocal:           8000 ave        8000 max        8000 min
Histogram: 1 0 0 0 0 0 0 0 0 0
Nghost:           5107 ave        5107 max        5107 min
Histogram: 1 0 0 0 0 0 0 0 0 0
Neighs:              0 ave           0 max           0 min
Histogram: 1 0 0 0 0 0 0 0 0 0
FullNghs:       228512 ave      228512 max      228512 min
Histogram: 1 0 0 0 0 0 0 0 0 0

Total # of neighbors = 228512
Ave neighs/atom = 28.564
Neighbor list builds = 258
Dangerous builds = 0
Setting up Verlet run ...
  Unit style    : metal
  Current step  : 10000
  Time step     : 0.001
Per MPI rank memory allocation (min/avg/max) = 4.114 | 4.114 | 4.114 Mbytes
   Step          Temp          E_pair         E_mol          TotEng         Press          Volume    
     10000   1881.644      -34842.318      0             -32896.789     -37.789221      160450.2     
    100000   1880.3817     -34760.407      0             -32816.183     -4577.5869      161072.71    
Loop time of 718.888 on 1 procs for 90000 steps with 8000 atoms

Performance: 10.817 ns/day, 2.219 hours/ns, 125.193 timesteps/s, 1.002 Matom-step/s
99.5% CPU use with 1 MPI tasks x 1 OpenMP threads

MPI task timing breakdown:
Section |  min time  |  avg time  |  max time  |%varavg| %total
---------------------------------------------------------------
Pair    | 669.83     | 669.83     | 669.83     |   0.0 | 93.18
Neigh   | 24.584     | 24.584     | 24.584     |   0.0 |  3.42
Comm    | 2.3079     | 2.3079     | 2.3079     |   0.0 |  0.32
Output  | 0.24878    | 0.24878    | 0.24878    |   0.0 |  0.03
Modify  | 20.173     | 20.173     | 20.173     |   0.0 |  2.81
Other   |            | 1.741      |            |       |  0.24

Nlocal:           8000 ave        8000 max        8000 min
Histogram: 1 0 0 0 0 0 0 0 0 0
Nghost:           5111 ave        5111 max        5111 min
Histogram: 1 0 0 0 0 0 0 0 0 0
Neighs:              0 ave           0 max           0 min
Histogram: 1 0 0 0 0 0 0 0 0 0
FullNghs:       227982 ave      227982 max      227982 min
Histogram: 1 0 0 0 0 0 0 0 0 0

Total # of neighbors = 227982
Ave neighs/atom = 28.49775
Neighbor list builds = 2400
Dangerous builds = 0
Setting up cg style minimization ...
  Unit style    : metal
  Current step  : 100000
Per MPI rank memory allocation (min/avg/max) = 5.239 | 5.239 | 5.239 Mbytes
   Step          Temp          E_pair         E_mol          TotEng         Press          Volume    
    100000   1880.3817     -34760.407      0             -32816.183     -4577.5869      161072.71    
    100156   1880.3817     -37183.333      0             -35239.109      7143.8148      161072.71    
Loop time of 1.99755 on 1 procs for 156 steps with 8000 atoms

99.6% CPU use with 1 MPI tasks x 1 OpenMP threads

Minimization stats:
  Stopping criterion = linesearch alpha is zero
  Energy initial, next-to-last, final = 
     -34760.4071087374  -37183.3328792544  -37183.3328792544
  Force two-norm initial, final = 252.49224 0.00068419963
  Force max component initial, final = 6.2294189 0.0001796713
  Final line search alpha, max atom move = 0.0054384022 9.7712481e-07
  Iterations, force evaluations = 156 331

MPI task timing breakdown:
Section |  min time  |  avg time  |  max time  |%varavg| %total
---------------------------------------------------------------
Pair    | 1.9522     | 1.9522     | 1.9522     |   0.0 | 97.73
Neigh   | 0.0069433  | 0.0069433  | 0.0069433  |   0.0 |  0.35
Comm    | 0.0068659  | 0.0068659  | 0.0068659  |   0.0 |  0.34
Output  | 0          | 0          | 0          |   0.0 |  0.00
Modify  | 0          | 0          | 0          |   0.0 |  0.00
Other   |            | 0.03154    |            |       |  1.58

Nlocal:           8000 ave        8000 max        8000 min
Histogram: 1 0 0 0 0 0 0 0 0 0
Nghost:           4996 ave        4996 max        4996 min
Histogram: 1 0 0 0 0 0 0 0 0 0
Neighs:              0 ave           0 max           0 min
Histogram: 1 0 0 0 0 0 0 0 0 0
FullNghs:       223970 ave      223970 max      223970 min
Histogram: 1 0 0 0 0 0 0 0 0 0

Total # of neighbors = 223970
Ave neighs/atom = 27.99625
Neighbor list builds = 1
Dangerous builds = 0
Total wall time: 0:13:20
