LAMMPS (29 Aug 2024)
OMP_NUM_THREADS environment is not set. Defaulting to 1 thread. (src/comm.cpp:98)
  using 1 OpenMP thread(s) per MPI task
Lattice spacing in x,y,z = 5.43 5.43 5.43
Created orthogonal box = (0 0 0) to (54.3 54.3 54.3)
  1 by 1 by 1 MPI processor grid
Created 8000 atoms
  using lattice units in orthogonal box = (0 0 0) to (54.3 54.3 54.3)
  create_atoms CPU = 0.001 seconds
Reading edip potential file md/potentials/si.edip with DATE: 2011-09-15
Neighbor list info ...
  update: every = 1 steps, delay = 0 steps, check = yes
  max neighbors/atom: 2000, page size: 100000
  master list distance cutoff = 5.121382
  ghost atom cutoff = 5.121382
  binsize = 2.560691, bins = 22 22 22
  1 neighbor lists, perpetual/occasional/extra = 1 0 0
  (1) pair edip, perpetual
      attributes: full, newton on
      pair build: full/bin/atomonly
      stencil: full/bin/3d
      bin: standard
Setting up Verlet run ...
  Unit style    : metal
  Current step  : 0
  Time step     : 0.001
Per MPI rank memory allocation (min/avg/max) = 4.111 | 4.111 | 4.111 Mbytes
   Step          Temp          E_pair         E_mol          TotEng         Press          Volume    
         0   2091.88       -37199.627      0             -35036.723      14705.989      160103.01    
     10000   2081.3506     -34398.701      0             -32246.685     -543.62482      160365.94    
Loop time of 83.3801 on 1 procs for 10000 steps with 8000 atoms

Performance: 10.362 ns/day, 2.316 hours/ns, 119.933 timesteps/s, 959.462 katom-step/s
99.5% CPU use with 1 MPI tasks x 1 OpenMP threads

MPI task timing breakdown:
Section |  min time  |  avg time  |  max time  |%varavg| %total
---------------------------------------------------------------
Pair    | 77.594     | 77.594     | 77.594     |   0.0 | 93.06
Neigh   | 3.0759     | 3.0759     | 3.0759     |   0.0 |  3.69
Comm    | 0.26       | 0.26       | 0.26       |   0.0 |  0.31
Output  | 0.00024999 | 0.00024999 | 0.00024999 |   0.0 |  0.00
Modify  | 2.2461     | 2.2461     | 2.2461     |   0.0 |  2.69
Other   |            | 0.2035     |            |       |  0.24

Nlocal:           8000 ave        8000 max        8000 min
Histogram: 1 0 0 0 0 0 0 0 0 0
Nghost:           5152 ave        5152 max        5152 min
Histogram: 1 0 0 0 0 0 0 0 0 0
Neighs:              0 ave           0 max           0 min
Histogram: 1 0 0 0 0 0 0 0 0 0
FullNghs:       228524 ave      228524 max      228524 min
Histogram: 1 0 0 0 0 0 0 0 0 0

Total # of neighbors = 228524
Ave neighs/atom = 28.5655
Neighbor list builds = 292
Dangerous builds = 0
Setting up Verlet run ...
  Unit style    : metal
  Current step  : 10000
  Time step     : 0.001
Per MPI rank memory allocation (min/avg/max) = 4.114 | 4.114 | 4.114 Mbytes
   Step          Temp          E_pair         E_mol          TotEng         Press          Volume    
     10000   2081.3506     -34398.701      0             -32246.685     -543.62482      160365.94    
    100000   2128.103      -31334.448      0             -29134.092      813.65103      168271.93    
Loop time of 1085.98 on 1 procs for 90000 steps with 8000 atoms

Performance: 7.160 ns/day, 3.352 hours/ns, 82.875 timesteps/s, 662.999 katom-step/s
99.6% CPU use with 1 MPI tasks x 1 OpenMP threads

MPI task timing breakdown:
Section |  min time  |  avg time  |  max time  |%varavg| %total
---------------------------------------------------------------
Pair    | 1028.2     | 1028.2     | 1028.2     |   0.0 | 94.68
Neigh   | 33.235     | 33.235     | 33.235     |   0.0 |  3.06
Comm    | 2.4573     | 2.4573     | 2.4573     |   0.0 |  0.23
Output  | 0.26385    | 0.26385    | 0.26385    |   0.0 |  0.02
Modify  | 20.019     | 20.019     | 20.019     |   0.0 |  1.84
Other   |            | 1.844      |            |       |  0.17

Nlocal:           8000 ave        8000 max        8000 min
Histogram: 1 0 0 0 0 0 0 0 0 0
Nghost:           5371 ave        5371 max        5371 min
Histogram: 1 0 0 0 0 0 0 0 0 0
Neighs:              0 ave           0 max           0 min
Histogram: 1 0 0 0 0 0 0 0 0 0
FullNghs:       205882 ave      205882 max      205882 min
Histogram: 1 0 0 0 0 0 0 0 0 0

Total # of neighbors = 205882
Ave neighs/atom = 25.73525
Neighbor list builds = 2881
Dangerous builds = 0
Setting up cg style minimization ...
  Unit style    : metal
  Current step  : 100000
Per MPI rank memory allocation (min/avg/max) = 5.241 | 5.241 | 5.241 Mbytes
   Step          Temp          E_pair         E_mol          TotEng         Press          Volume    
    100000   2128.103      -31334.448      0             -29134.092      813.65103      168271.93    
    100915   2128.103      -33646.306      0             -31445.95       6644.4752      168271.93    
Loop time of 21.0785 on 1 procs for 915 steps with 8000 atoms

99.7% CPU use with 1 MPI tasks x 1 OpenMP threads

Minimization stats:
  Stopping criterion = linesearch alpha is zero
  Energy initial, next-to-last, final = 
     -31334.4481699644  -33646.3060412141  -33646.3060412141
  Force two-norm initial, final = 236.32213 0.0012832176
  Force max component initial, final = 7.5606461 0.00019381058
  Final line search alpha, max atom move = 0.02371273 4.5957779e-06
  Iterations, force evaluations = 915 1791

MPI task timing breakdown:
Section |  min time  |  avg time  |  max time  |%varavg| %total
---------------------------------------------------------------
Pair    | 20.812     | 20.812     | 20.812     |   0.0 | 98.73
Neigh   | 0.045666   | 0.045666   | 0.045666   |   0.0 |  0.22
Comm    | 0.039851   | 0.039851   | 0.039851   |   0.0 |  0.19
Output  | 0          | 0          | 0          |   0.0 |  0.00
Modify  | 0          | 0          | 0          |   0.0 |  0.00
Other   |            | 0.1813     |            |       |  0.86

Nlocal:           8000 ave        8000 max        8000 min
Histogram: 1 0 0 0 0 0 0 0 0 0
Nghost:           5400 ave        5400 max        5400 min
Histogram: 1 0 0 0 0 0 0 0 0 0
Neighs:              0 ave           0 max           0 min
Histogram: 1 0 0 0 0 0 0 0 0 0
FullNghs:       205648 ave      205648 max      205648 min
Histogram: 1 0 0 0 0 0 0 0 0 0

Total # of neighbors = 205648
Ave neighs/atom = 25.706
Neighbor list builds = 4
Dangerous builds = 0
Total wall time: 0:19:50
