LAMMPS (29 Aug 2024)
OMP_NUM_THREADS environment is not set. Defaulting to 1 thread. (src/comm.cpp:98)
  using 1 OpenMP thread(s) per MPI task
Lattice spacing in x,y,z = 5.43 5.43 5.43
Created orthogonal box = (0 0 0) to (54.3 54.3 54.3)
  1 by 1 by 1 MPI processor grid
Created 8000 atoms
  using lattice units in orthogonal box = (0 0 0) to (54.3 54.3 54.3)
  create_atoms CPU = 0.001 seconds
Reading edip potential file md/potentials/si.edip with DATE: 2011-09-15
Neighbor list info ...
  update: every = 1 steps, delay = 0 steps, check = yes
  max neighbors/atom: 2000, page size: 100000
  master list distance cutoff = 5.121382
  ghost atom cutoff = 5.121382
  binsize = 2.560691, bins = 22 22 22
  1 neighbor lists, perpetual/occasional/extra = 1 0 0
  (1) pair edip, perpetual
      attributes: full, newton on
      pair build: full/bin/atomonly
      stencil: full/bin/3d
      bin: standard
Setting up Verlet run ...
  Unit style    : metal
  Current step  : 0
  Time step     : 0.001
Per MPI rank memory allocation (min/avg/max) = 4.111 | 4.111 | 4.111 Mbytes
   Step          Temp          E_pair         E_mol          TotEng         Press          Volume    
         0   472.36        -37199.627      0             -36711.229      3534.6232      160103.01    
     10000   470.49241     -36698.497      0             -36212.031      427.00745      160424.25    
Loop time of 57.5485 on 1 procs for 10000 steps with 8000 atoms

Performance: 15.013 ns/day, 1.599 hours/ns, 173.767 timesteps/s, 1.390 Matom-step/s
99.5% CPU use with 1 MPI tasks x 1 OpenMP threads

MPI task timing breakdown:
Section |  min time  |  avg time  |  max time  |%varavg| %total
---------------------------------------------------------------
Pair    | 54.97      | 54.97      | 54.97      |   0.0 | 95.52
Neigh   | 0          | 0          | 0          |   0.0 |  0.00
Comm    | 0.20994    | 0.20994    | 0.20994    |   0.0 |  0.36
Output  | 0.00016541 | 0.00016541 | 0.00016541 |   0.0 |  0.00
Modify  | 2.1888     | 2.1888     | 2.1888     |   0.0 |  3.80
Other   |            | 0.18       |            |       |  0.31

Nlocal:           8000 ave        8000 max        8000 min
Histogram: 1 0 0 0 0 0 0 0 0 0
Nghost:           4995 ave        4995 max        4995 min
Histogram: 1 0 0 0 0 0 0 0 0 0
Neighs:              0 ave           0 max           0 min
Histogram: 1 0 0 0 0 0 0 0 0 0
FullNghs:       224000 ave      224000 max      224000 min
Histogram: 1 0 0 0 0 0 0 0 0 0

Total # of neighbors = 224000
Ave neighs/atom = 28
Neighbor list builds = 0
Dangerous builds = 0
Setting up Verlet run ...
  Unit style    : metal
  Current step  : 10000
  Time step     : 0.001
Per MPI rank memory allocation (min/avg/max) = 4.111 | 4.111 | 4.111 Mbytes
   Step          Temp          E_pair         E_mol          TotEng         Press          Volume    
     10000   470.49241     -36698.497      0             -36212.031      427.00745      160424.25    
    100000   476.70386     -36686.715      0             -36193.826      30.667602      160494.21    
Loop time of 594.766 on 1 procs for 90000 steps with 8000 atoms

Performance: 13.074 ns/day, 1.836 hours/ns, 151.320 timesteps/s, 1.211 Matom-step/s
99.5% CPU use with 1 MPI tasks x 1 OpenMP threads

MPI task timing breakdown:
Section |  min time  |  avg time  |  max time  |%varavg| %total
---------------------------------------------------------------
Pair    | 570.4      | 570.4      | 570.4      |   0.0 | 95.90
Neigh   | 0          | 0          | 0          |   0.0 |  0.00
Comm    | 2.015      | 2.015      | 2.015      |   0.0 |  0.34
Output  | 0.25448    | 0.25448    | 0.25448    |   0.0 |  0.04
Modify  | 20.422     | 20.422     | 20.422     |   0.0 |  3.43
Other   |            | 1.669      |            |       |  0.28

Nlocal:           8000 ave        8000 max        8000 min
Histogram: 1 0 0 0 0 0 0 0 0 0
Nghost:           4995 ave        4995 max        4995 min
Histogram: 1 0 0 0 0 0 0 0 0 0
Neighs:              0 ave           0 max           0 min
Histogram: 1 0 0 0 0 0 0 0 0 0
FullNghs:       224066 ave      224066 max      224066 min
Histogram: 1 0 0 0 0 0 0 0 0 0

Total # of neighbors = 224066
Ave neighs/atom = 28.00825
Neighbor list builds = 0
Dangerous builds = 0
Setting up cg style minimization ...
  Unit style    : metal
  Current step  : 100000
Per MPI rank memory allocation (min/avg/max) = 5.236 | 5.236 | 5.236 Mbytes
   Step          Temp          E_pair         E_mol          TotEng         Press          Volume    
    100000   476.70386     -36686.715      0             -36193.826      30.667602      160494.21    
    100094   476.70386     -37199.395      0             -36706.506      1105.1614      160494.21    
Loop time of 1.21879 on 1 procs for 94 steps with 8000 atoms

99.6% CPU use with 1 MPI tasks x 1 OpenMP threads

Minimization stats:
  Stopping criterion = linesearch alpha is zero
  Energy initial, next-to-last, final = 
     -36686.7152359421  -37199.3945941368  -37199.3945941368
  Force two-norm initial, final = 135.14463 0.00011458808
  Force max component initial, final = 3.6037533 2.9744234e-06
  Final line search alpha, max atom move = 8.750234e-06 2.6026901e-11
  Iterations, force evaluations = 94 203

MPI task timing breakdown:
Section |  min time  |  avg time  |  max time  |%varavg| %total
---------------------------------------------------------------
Pair    | 1.1944     | 1.1944     | 1.1944     |   0.0 | 98.00
Neigh   | 0          | 0          | 0          |   0.0 |  0.00
Comm    | 0.0043264  | 0.0043264  | 0.0043264  |   0.0 |  0.35
Output  | 0          | 0          | 0          |   0.0 |  0.00
Modify  | 0          | 0          | 0          |   0.0 |  0.00
Other   |            | 0.02003    |            |       |  1.64

Nlocal:           8000 ave        8000 max        8000 min
Histogram: 1 0 0 0 0 0 0 0 0 0
Nghost:           4995 ave        4995 max        4995 min
Histogram: 1 0 0 0 0 0 0 0 0 0
Neighs:              0 ave           0 max           0 min
Histogram: 1 0 0 0 0 0 0 0 0 0
FullNghs:       224056 ave      224056 max      224056 min
Histogram: 1 0 0 0 0 0 0 0 0 0

Total # of neighbors = 224056
Ave neighs/atom = 28.007
Neighbor list builds = 0
Dangerous builds = 0
Total wall time: 0:10:53
