LAMMPS (29 Aug 2024)
OMP_NUM_THREADS environment is not set. Defaulting to 1 thread. (src/comm.cpp:98)
  using 1 OpenMP thread(s) per MPI task
Lattice spacing in x,y,z = 5.43 5.43 5.43
Created orthogonal box = (0 0 0) to (54.3 54.3 54.3)
  1 by 1 by 1 MPI processor grid
Created 8000 atoms
  using lattice units in orthogonal box = (0 0 0) to (54.3 54.3 54.3)
  create_atoms CPU = 0.001 seconds
Reading edip potential file md/potentials/si.edip with DATE: 2011-09-15
Neighbor list info ...
  update: every = 1 steps, delay = 0 steps, check = yes
  max neighbors/atom: 2000, page size: 100000
  master list distance cutoff = 5.121382
  ghost atom cutoff = 5.121382
  binsize = 2.560691, bins = 22 22 22
  1 neighbor lists, perpetual/occasional/extra = 1 0 0
  (1) pair edip, perpetual
      attributes: full, newton on
      pair build: full/bin/atomonly
      stencil: full/bin/3d
      bin: standard
Setting up Verlet run ...
  Unit style    : metal
  Current step  : 0
  Time step     : 0.001
Per MPI rank memory allocation (min/avg/max) = 4.111 | 4.111 | 4.111 Mbytes
   Step          Temp          E_pair         E_mol          TotEng         Press          Volume    
         0   2699.2        -37199.627      0             -34408.784      18895.251      160103.01    
     10000   2694.4977     -30580.12       0             -27794.139     -565.5369       175007.3     
Loop time of 118.262 on 1 procs for 10000 steps with 8000 atoms

Performance: 7.306 ns/day, 3.285 hours/ns, 84.558 timesteps/s, 676.463 katom-step/s
99.5% CPU use with 1 MPI tasks x 1 OpenMP threads

MPI task timing breakdown:
Section |  min time  |  avg time  |  max time  |%varavg| %total
---------------------------------------------------------------
Pair    | 111.4      | 111.4      | 111.4      |   0.0 | 94.20
Neigh   | 4.2226     | 4.2226     | 4.2226     |   0.0 |  3.57
Comm    | 0.28045    | 0.28045    | 0.28045    |   0.0 |  0.24
Output  | 8.1392e-05 | 8.1392e-05 | 8.1392e-05 |   0.0 |  0.00
Modify  | 2.1579     | 2.1579     | 2.1579     |   0.0 |  1.82
Other   |            | 0.2023     |            |       |  0.17

Nlocal:           8000 ave        8000 max        8000 min
Histogram: 1 0 0 0 0 0 0 0 0 0
Nghost:           5207 ave        5207 max        5207 min
Histogram: 1 0 0 0 0 0 0 0 0 0
Neighs:              0 ave           0 max           0 min
Histogram: 1 0 0 0 0 0 0 0 0 0
FullNghs:       198770 ave      198770 max      198770 min
Histogram: 1 0 0 0 0 0 0 0 0 0

Total # of neighbors = 198770
Ave neighs/atom = 24.84625
Neighbor list builds = 372
Dangerous builds = 0
Setting up Verlet run ...
  Unit style    : metal
  Current step  : 10000
  Time step     : 0.001
Per MPI rank memory allocation (min/avg/max) = 4.115 | 4.115 | 4.115 Mbytes
   Step          Temp          E_pair         E_mol          TotEng         Press          Volume    
     10000   2694.4977     -30580.12       0             -27794.139     -565.5369       175007.3     
    100000   2698.9639     -30501.48       0             -27710.881     -146.41917      176374.56    
Loop time of 1106.9 on 1 procs for 90000 steps with 8000 atoms

Performance: 7.025 ns/day, 3.416 hours/ns, 81.308 timesteps/s, 650.464 katom-step/s
99.6% CPU use with 1 MPI tasks x 1 OpenMP threads

MPI task timing breakdown:
Section |  min time  |  avg time  |  max time  |%varavg| %total
---------------------------------------------------------------
Pair    | 1043.8     | 1043.8     | 1043.8     |   0.0 | 94.30
Neigh   | 38.991     | 38.991     | 38.991     |   0.0 |  3.52
Comm    | 2.5791     | 2.5791     | 2.5791     |   0.0 |  0.23
Output  | 0.26129    | 0.26129    | 0.26129    |   0.0 |  0.02
Modify  | 19.403     | 19.403     | 19.403     |   0.0 |  1.75
Other   |            | 1.861      |            |       |  0.17

Nlocal:           8000 ave        8000 max        8000 min
Histogram: 1 0 0 0 0 0 0 0 0 0
Nghost:           5231 ave        5231 max        5231 min
Histogram: 1 0 0 0 0 0 0 0 0 0
Neighs:              0 ave           0 max           0 min
Histogram: 1 0 0 0 0 0 0 0 0 0
FullNghs:       197182 ave      197182 max      197182 min
Histogram: 1 0 0 0 0 0 0 0 0 0

Total # of neighbors = 197182
Ave neighs/atom = 24.64775
Neighbor list builds = 3407
Dangerous builds = 0
Setting up cg style minimization ...
  Unit style    : metal
  Current step  : 100000
Per MPI rank memory allocation (min/avg/max) = 5.24 | 5.24 | 5.24 Mbytes
   Step          Temp          E_pair         E_mol          TotEng         Press          Volume    
    100000   2698.9639     -30501.48       0             -27710.881     -146.41917      176374.56    
    101117   2698.9639     -33346.403      0             -30555.804      7186.4425      176374.56    
Loop time of 32.164 on 1 procs for 1117 steps with 8000 atoms

99.7% CPU use with 1 MPI tasks x 1 OpenMP threads

Minimization stats:
  Stopping criterion = linesearch alpha is zero
  Energy initial, next-to-last, final = 
     -30501.4802335985  -33346.4030496372  -33346.4030496372
  Force two-norm initial, final = 259.73606 0.0020065694
  Force max component initial, final = 8.9851537 0.00080084097
  Final line search alpha, max atom move = 0.0068431576 5.480281e-06
  Iterations, force evaluations = 1117 2772

MPI task timing breakdown:
Section |  min time  |  avg time  |  max time  |%varavg| %total
---------------------------------------------------------------
Pair    | 31.787     | 31.787     | 31.787     |   0.0 | 98.83
Neigh   | 0.057687   | 0.057687   | 0.057687   |   0.0 |  0.18
Comm    | 0.064438   | 0.064438   | 0.064438   |   0.0 |  0.20
Output  | 0          | 0          | 0          |   0.0 |  0.00
Modify  | 0          | 0          | 0          |   0.0 |  0.00
Other   |            | 0.2551     |            |       |  0.79

Nlocal:           8000 ave        8000 max        8000 min
Histogram: 1 0 0 0 0 0 0 0 0 0
Nghost:           5241 ave        5241 max        5241 min
Histogram: 1 0 0 0 0 0 0 0 0 0
Neighs:              0 ave           0 max           0 min
Histogram: 1 0 0 0 0 0 0 0 0 0
FullNghs:       197152 ave      197152 max      197152 min
Histogram: 1 0 0 0 0 0 0 0 0 0

Total # of neighbors = 197152
Ave neighs/atom = 24.644
Neighbor list builds = 5
Dangerous builds = 0
Total wall time: 0:20:57
