LAMMPS (29 Aug 2024)
OMP_NUM_THREADS environment is not set. Defaulting to 1 thread. (src/comm.cpp:98)
  using 1 OpenMP thread(s) per MPI task
Lattice spacing in x,y,z = 5.43 5.43 5.43
Created orthogonal box = (0 0 0) to (54.3 54.3 54.3)
  1 by 1 by 1 MPI processor grid
Created 8000 atoms
  using lattice units in orthogonal box = (0 0 0) to (54.3 54.3 54.3)
  create_atoms CPU = 0.001 seconds
Reading edip potential file md/potentials/si.edip with DATE: 2011-09-15
Neighbor list info ...
  update: every = 1 steps, delay = 0 steps, check = yes
  max neighbors/atom: 2000, page size: 100000
  master list distance cutoff = 5.121382
  ghost atom cutoff = 5.121382
  binsize = 2.560691, bins = 22 22 22
  1 neighbor lists, perpetual/occasional/extra = 1 0 0
  (1) pair edip, perpetual
      attributes: full, newton on
      pair build: full/bin/atomonly
      stencil: full/bin/3d
      bin: standard
Setting up Verlet run ...
  Unit style    : metal
  Current step  : 0
  Time step     : 0.001
Per MPI rank memory allocation (min/avg/max) = 4.111 | 4.111 | 4.111 Mbytes
   Step          Temp          E_pair         E_mol          TotEng         Press          Volume    
         0   1754.48       -37199.627      0             -35385.579      12378.621      160103.01    
     10000   1765.3953     -35071.665      0             -33246.331      122.46936      160545.28    
Loop time of 77.312 on 1 procs for 10000 steps with 8000 atoms

Performance: 11.176 ns/day, 2.148 hours/ns, 129.346 timesteps/s, 1.035 Matom-step/s
99.5% CPU use with 1 MPI tasks x 1 OpenMP threads

MPI task timing breakdown:
Section |  min time  |  avg time  |  max time  |%varavg| %total
---------------------------------------------------------------
Pair    | 72.222     | 72.222     | 72.222     |   0.0 | 93.42
Neigh   | 2.4145     | 2.4145     | 2.4145     |   0.0 |  3.12
Comm    | 0.24645    | 0.24645    | 0.24645    |   0.0 |  0.32
Output  | 0.00022308 | 0.00022308 | 0.00022308 |   0.0 |  0.00
Modify  | 2.2346     | 2.2346     | 2.2346     |   0.0 |  2.89
Other   |            | 0.1938     |            |       |  0.25

Nlocal:           8000 ave        8000 max        8000 min
Histogram: 1 0 0 0 0 0 0 0 0 0
Nghost:           5108 ave        5108 max        5108 min
Histogram: 1 0 0 0 0 0 0 0 0 0
Neighs:              0 ave           0 max           0 min
Histogram: 1 0 0 0 0 0 0 0 0 0
FullNghs:       227946 ave      227946 max      227946 min
Histogram: 1 0 0 0 0 0 0 0 0 0

Total # of neighbors = 227946
Ave neighs/atom = 28.49325
Neighbor list builds = 241
Dangerous builds = 0
Setting up Verlet run ...
  Unit style    : metal
  Current step  : 10000
  Time step     : 0.001
Per MPI rank memory allocation (min/avg/max) = 4.113 | 4.113 | 4.113 Mbytes
   Step          Temp          E_pair         E_mol          TotEng         Press          Volume    
     10000   1765.3953     -35071.665      0             -33246.331      122.46936      160545.28    
    100000   1775.3029     -35018.11       0             -33182.532     -1240.9839      160707.15    
Loop time of 702.767 on 1 procs for 90000 steps with 8000 atoms

Performance: 11.065 ns/day, 2.169 hours/ns, 128.065 timesteps/s, 1.025 Matom-step/s
99.5% CPU use with 1 MPI tasks x 1 OpenMP threads

MPI task timing breakdown:
Section |  min time  |  avg time  |  max time  |%varavg| %total
---------------------------------------------------------------
Pair    | 656.11     | 656.11     | 656.11     |   0.0 | 93.36
Neigh   | 22.176     | 22.176     | 22.176     |   0.0 |  3.16
Comm    | 2.2491     | 2.2491     | 2.2491     |   0.0 |  0.32
Output  | 0.24766    | 0.24766    | 0.24766    |   0.0 |  0.04
Modify  | 20.254     | 20.254     | 20.254     |   0.0 |  2.88
Other   |            | 1.728      |            |       |  0.25

Nlocal:           8000 ave        8000 max        8000 min
Histogram: 1 0 0 0 0 0 0 0 0 0
Nghost:           5085 ave        5085 max        5085 min
Histogram: 1 0 0 0 0 0 0 0 0 0
Neighs:              0 ave           0 max           0 min
Histogram: 1 0 0 0 0 0 0 0 0 0
FullNghs:       228026 ave      228026 max      228026 min
Histogram: 1 0 0 0 0 0 0 0 0 0

Total # of neighbors = 228026
Ave neighs/atom = 28.50325
Neighbor list builds = 2208
Dangerous builds = 0
Setting up cg style minimization ...
  Unit style    : metal
  Current step  : 100000
Per MPI rank memory allocation (min/avg/max) = 5.239 | 5.239 | 5.239 Mbytes
   Step          Temp          E_pair         E_mol          TotEng         Press          Volume    
    100000   1775.3029     -35018.11       0             -33182.532     -1240.9839      160707.15    
    100118   1775.3029     -37199.017      0             -35363.439      8693.6451      160707.15    
Loop time of 1.55923 on 1 procs for 118 steps with 8000 atoms

99.6% CPU use with 1 MPI tasks x 1 OpenMP threads

Minimization stats:
  Stopping criterion = linesearch alpha is zero
  Energy initial, next-to-last, final = 
     -35018.1102396704  -37199.0170442022  -37199.0170442022
  Force two-norm initial, final = 243.04274 0.00011677182
  Force max component initial, final = 6.7868027 3.8972618e-06
  Final line search alpha, max atom move = 0.0078610886 3.063672e-08
  Iterations, force evaluations = 118 229

MPI task timing breakdown:
Section |  min time  |  avg time  |  max time  |%varavg| %total
---------------------------------------------------------------
Pair    | 1.5306     | 1.5306     | 1.5306     |   0.0 | 98.16
Neigh   | 0          | 0          | 0          |   0.0 |  0.00
Comm    | 0.0049487  | 0.0049487  | 0.0049487  |   0.0 |  0.32
Output  | 0          | 0          | 0          |   0.0 |  0.00
Modify  | 0          | 0          | 0          |   0.0 |  0.00
Other   |            | 0.02371    |            |       |  1.52

Nlocal:           8000 ave        8000 max        8000 min
Histogram: 1 0 0 0 0 0 0 0 0 0
Nghost:           5085 ave        5085 max        5085 min
Histogram: 1 0 0 0 0 0 0 0 0 0
Neighs:              0 ave           0 max           0 min
Histogram: 1 0 0 0 0 0 0 0 0 0
FullNghs:       228034 ave      228034 max      228034 min
Histogram: 1 0 0 0 0 0 0 0 0 0

Total # of neighbors = 228034
Ave neighs/atom = 28.50425
Neighbor list builds = 0
Dangerous builds = 0
Total wall time: 0:13:01
