LAMMPS (29 Aug 2024)
OMP_NUM_THREADS environment is not set. Defaulting to 1 thread. (src/comm.cpp:98)
  using 1 OpenMP thread(s) per MPI task

#---------------------------- Atomic setup ------------------------------------#
units            metal
timestep         0.001
boundary         p p p
lattice          diamond 5.43
Lattice spacing in x,y,z = 5.43 5.43 5.43
region           sim_box block 0 10 0 10 0 10
create_box       1 sim_box
Created orthogonal box = (0 0 0) to (54.3 54.3 54.3)
  1 by 1 by 1 MPI processor grid
create_atoms     1 box
Created 8000 atoms
  using lattice units in orthogonal box = (0 0 0) to (54.3 54.3 54.3)
  create_atoms CPU = 0.001 seconds

pair_style       edip                                             # interatomic potential (Lennard-Jones, EAM, etc.)
pair_coeff       * * ${potentials_dir}/si.edip Si # interatomic potential parameters (ex. eam.alloy Cu_u3.eam)
pair_coeff       * * md/potentials/si.edip Si 
Reading edip potential file md/potentials/si.edip with DATE: 2011-09-15
pair_modify      tail yes
neigh_modify     delay 0                                                       # neighbor list update frequency (0 = every timestep)
mass             1 28.0855                                                 # atomic mass
variable         rnd equal round(random(0,999999,42))

#----------------------------- Equilibriation ---------------------------------#
velocity         all create 2226.84 ${rnd} dist gaussian              # initial velocities
velocity         all create 2226.84 420940 dist gaussian              
fix              f2 all nph iso 0 0 1.0        # barostat
variable         rnd equal round(random(0,999999,0))
fix              f3 all temp/csvr 2226.84 2226.84 0.1 ${rnd} # thermostat
fix              f3 all temp/csvr 2226.84 2226.84 0.1 53464 
run              10000                                           # equilibriation run
Neighbor list info ...
  update: every = 1 steps, delay = 0 steps, check = yes
  max neighbors/atom: 2000, page size: 100000
  master list distance cutoff = 5.121382
  ghost atom cutoff = 5.121382
  binsize = 2.560691, bins = 22 22 22
  1 neighbor lists, perpetual/occasional/extra = 1 0 0
  (1) pair edip, perpetual
      attributes: full, newton on
      pair build: full/bin/atomonly
      stencil: full/bin/3d
      bin: standard
Per MPI rank memory allocation (min/avg/max) = 4.111 | 4.111 | 4.111 Mbytes
   Step          Temp          E_pair         E_mol          TotEng         Press          Volume    
         0   2226.84       -37199.627      0             -34897.181      15636.936      160103.01    
     10000   2207.9191     -31193.207      0             -28910.325      1158.0797      169268.96    
Loop time of 96.052 on 1 procs for 10000 steps with 8000 atoms

Performance: 8.995 ns/day, 2.668 hours/ns, 104.110 timesteps/s, 832.882 katom-step/s
99.5% CPU use with 1 MPI tasks x 1 OpenMP threads

MPI task timing breakdown:
Section |  min time  |  avg time  |  max time  |%varavg| %total
---------------------------------------------------------------
Pair    | 90.088     | 90.088     | 90.088     |   0.0 | 93.79
Neigh   | 3.3553     | 3.3553     | 3.3553     |   0.0 |  3.49
Comm    | 0.26336    | 0.26336    | 0.26336    |   0.0 |  0.27
Output  | 7.6243e-05 | 7.6243e-05 | 7.6243e-05 |   0.0 |  0.00
Modify  | 2.1472     | 2.1472     | 2.1472     |   0.0 |  2.24
Other   |            | 0.198      |            |       |  0.21

Nlocal:           8000 ave        8000 max        8000 min
Histogram: 1 0 0 0 0 0 0 0 0 0
Nghost:           5282 ave        5282 max        5282 min
Histogram: 1 0 0 0 0 0 0 0 0 0
Neighs:              0 ave           0 max           0 min
Histogram: 1 0 0 0 0 0 0 0 0 0
FullNghs:       205084 ave      205084 max      205084 min
Histogram: 1 0 0 0 0 0 0 0 0 0

Total # of neighbors = 205084
Ave neighs/atom = 25.6355
Neighbor list builds = 312
Dangerous builds = 0

#----------------------------- Run simulation ---------------------------------#
dump             d1 all custom 10000 md/data/si_cd/dump_1.32.gz id type x y z # snapshots
run              90000
Per MPI rank memory allocation (min/avg/max) = 4.116 | 4.116 | 4.116 Mbytes
   Step          Temp          E_pair         E_mol          TotEng         Press          Volume    
     10000   2207.9191     -31193.207      0             -28910.325      1158.0797      169268.96    
    100000   2258.8146     -31116.17       0             -28780.664      1175.8339      170576.95    
Loop time of 1103.49 on 1 procs for 90000 steps with 8000 atoms

Performance: 7.047 ns/day, 3.406 hours/ns, 81.559 timesteps/s, 652.473 katom-step/s
99.6% CPU use with 1 MPI tasks x 1 OpenMP threads

MPI task timing breakdown:
Section |  min time  |  avg time  |  max time  |%varavg| %total
---------------------------------------------------------------
Pair    | 1045.1     | 1045.1     | 1045.1     |   0.0 | 94.71
Neigh   | 34.448     | 34.448     | 34.448     |   0.0 |  3.12
Comm    | 2.4619     | 2.4619     | 2.4619     |   0.0 |  0.22
Output  | 0.26223    | 0.26223    | 0.26223    |   0.0 |  0.02
Modify  | 19.447     | 19.447     | 19.447     |   0.0 |  1.76
Other   |            | 1.748      |            |       |  0.16

Nlocal:           8000 ave        8000 max        8000 min
Histogram: 1 0 0 0 0 0 0 0 0 0
Nghost:           5341 ave        5341 max        5341 min
Histogram: 1 0 0 0 0 0 0 0 0 0
Neighs:              0 ave           0 max           0 min
Histogram: 1 0 0 0 0 0 0 0 0 0
FullNghs:       203404 ave      203404 max      203404 min
Histogram: 1 0 0 0 0 0 0 0 0 0

Total # of neighbors = 203404
Ave neighs/atom = 25.4255
Neighbor list builds = 3038
Dangerous builds = 0
undump           d1
min_modify       line forcezero
minimize         0 0 100000 100000                                                                               # minimize energy
Per MPI rank memory allocation (min/avg/max) = 5.241 | 5.241 | 5.241 Mbytes
   Step          Temp          E_pair         E_mol          TotEng         Press          Volume    
    100000   2258.8146     -31116.17       0             -28780.664      1175.8339      170576.95    
    101623   2258.8146     -33555.282      0             -31219.776      6654.987       170576.95    
Loop time of 45.0991 on 1 procs for 1623 steps with 8000 atoms

99.6% CPU use with 1 MPI tasks x 1 OpenMP threads

Minimization stats:
  Stopping criterion = linesearch alpha is zero
  Energy initial, next-to-last, final = 
     -31116.1697219578   -33555.281996675   -33555.281996675
  Force two-norm initial, final = 242.1053 0.0018371022
  Force max component initial, final = 6.7326365 0.0006665545
  Final line search alpha, max atom move = 0.010287774 6.8573621e-06
  Iterations, force evaluations = 1623 3833

MPI task timing breakdown:
Section |  min time  |  avg time  |  max time  |%varavg| %total
---------------------------------------------------------------
Pair    | 44.557     | 44.557     | 44.557     |   0.0 | 98.80
Neigh   | 0.089829   | 0.089829   | 0.089829   |   0.0 |  0.20
Comm    | 0.090091   | 0.090091   | 0.090091   |   0.0 |  0.20
Output  | 0          | 0          | 0          |   0.0 |  0.00
Modify  | 0          | 0          | 0          |   0.0 |  0.00
Other   |            | 0.3625     |            |       |  0.80

Nlocal:           8000 ave        8000 max        8000 min
Histogram: 1 0 0 0 0 0 0 0 0 0
Nghost:           5352 ave        5352 max        5352 min
Histogram: 1 0 0 0 0 0 0 0 0 0
Neighs:              0 ave           0 max           0 min
Histogram: 1 0 0 0 0 0 0 0 0 0
FullNghs:       203192 ave      203192 max      203192 min
Histogram: 1 0 0 0 0 0 0 0 0 0

Total # of neighbors = 203192
Ave neighs/atom = 25.399
Neighbor list builds = 8
Dangerous builds = 0
write_dump       all custom md/data/si_cd/dump_1.32_relaxed.gz id type x y z
#------------------------------------------------------------------------------#
Total wall time: 0:20:44
