LAMMPS (29 Aug 2024)
OMP_NUM_THREADS environment is not set. Defaulting to 1 thread. (src/comm.cpp:98)
  using 1 OpenMP thread(s) per MPI task

#---------------------------- Atomic setup ------------------------------------#
units            metal
timestep         0.001
boundary         p p p
lattice          diamond 5.43
Lattice spacing in x,y,z = 5.43 5.43 5.43
region           sim_box block 0 10 0 10 0 10
create_box       1 sim_box
Created orthogonal box = (0 0 0) to (54.3 54.3 54.3)
  1 by 1 by 1 MPI processor grid
create_atoms     1 box
Created 8000 atoms
  using lattice units in orthogonal box = (0 0 0) to (54.3 54.3 54.3)
  create_atoms CPU = 0.001 seconds

pair_style       edip                                             # interatomic potential (Lennard-Jones, EAM, etc.)
pair_coeff       * * ${potentials_dir}/si.edip Si # interatomic potential parameters (ex. eam.alloy Cu_u3.eam)
pair_coeff       * * md/potentials/si.edip Si 
Reading edip potential file md/potentials/si.edip with DATE: 2011-09-15
pair_modify      tail yes
neigh_modify     delay 0                                                       # neighbor list update frequency (0 = every timestep)
mass             1 28.0855                                                 # atomic mass
variable         rnd equal round(random(0,999999,42))

#----------------------------- Equilibriation ---------------------------------#
velocity         all create 202.44 ${rnd} dist gaussian              # initial velocities
velocity         all create 202.44 420940 dist gaussian              
fix              f2 all nph iso 0 0 1.0        # barostat
variable         rnd equal round(random(0,999999,0))
fix              f3 all temp/csvr 202.44 202.44 0.1 ${rnd} # thermostat
fix              f3 all temp/csvr 202.44 202.44 0.1 53464 
run              10000                                           # equilibriation run
Neighbor list info ...
  update: every = 1 steps, delay = 0 steps, check = yes
  max neighbors/atom: 2000, page size: 100000
  master list distance cutoff = 5.121382
  ghost atom cutoff = 5.121382
  binsize = 2.560691, bins = 22 22 22
  1 neighbor lists, perpetual/occasional/extra = 1 0 0
  (1) pair edip, perpetual
      attributes: full, newton on
      pair build: full/bin/atomonly
      stencil: full/bin/3d
      bin: standard
Per MPI rank memory allocation (min/avg/max) = 4.111 | 4.111 | 4.111 Mbytes
   Step          Temp          E_pair         E_mol          TotEng         Press          Volume    
         0   202.44        -37199.627      0             -36990.313      1672.7289      160103.01    
     10000   202.28046     -36990.567      0             -36781.418     -230.00679      160353.19    
Loop time of 57.6876 on 1 procs for 10000 steps with 8000 atoms

Performance: 14.977 ns/day, 1.602 hours/ns, 173.347 timesteps/s, 1.387 Matom-step/s
99.5% CPU use with 1 MPI tasks x 1 OpenMP threads

MPI task timing breakdown:
Section |  min time  |  avg time  |  max time  |%varavg| %total
---------------------------------------------------------------
Pair    | 55.113     | 55.113     | 55.113     |   0.0 | 95.54
Neigh   | 0          | 0          | 0          |   0.0 |  0.00
Comm    | 0.21131    | 0.21131    | 0.21131    |   0.0 |  0.37
Output  | 0.00017337 | 0.00017337 | 0.00017337 |   0.0 |  0.00
Modify  | 2.186      | 2.186      | 2.186      |   0.0 |  3.79
Other   |            | 0.1772     |            |       |  0.31

Nlocal:           8000 ave        8000 max        8000 min
Histogram: 1 0 0 0 0 0 0 0 0 0
Nghost:           4995 ave        4995 max        4995 min
Histogram: 1 0 0 0 0 0 0 0 0 0
Neighs:              0 ave           0 max           0 min
Histogram: 1 0 0 0 0 0 0 0 0 0
FullNghs:       224000 ave      224000 max      224000 min
Histogram: 1 0 0 0 0 0 0 0 0 0

Total # of neighbors = 224000
Ave neighs/atom = 28
Neighbor list builds = 0
Dangerous builds = 0

#----------------------------- Run simulation ---------------------------------#
dump             d1 all custom 10000 md/data/si_cd/dump_0.12.gz id type x y z # snapshots
run              90000
Per MPI rank memory allocation (min/avg/max) = 4.111 | 4.111 | 4.111 Mbytes
   Step          Temp          E_pair         E_mol          TotEng         Press          Volume    
     10000   202.28046     -36990.567      0             -36781.418     -230.00679      160353.19    
    100000   201.79        -36981.657      0             -36773.016      451.7261       160238.94    
Loop time of 584.004 on 1 procs for 90000 steps with 8000 atoms

Performance: 13.315 ns/day, 1.802 hours/ns, 154.109 timesteps/s, 1.233 Matom-step/s
99.5% CPU use with 1 MPI tasks x 1 OpenMP threads

MPI task timing breakdown:
Section |  min time  |  avg time  |  max time  |%varavg| %total
---------------------------------------------------------------
Pair    | 559.68     | 559.68     | 559.68     |   0.0 | 95.83
Neigh   | 0          | 0          | 0          |   0.0 |  0.00
Comm    | 1.936      | 1.936      | 1.936      |   0.0 |  0.33
Output  | 0.2538     | 0.2538     | 0.2538     |   0.0 |  0.04
Modify  | 20.506     | 20.506     | 20.506     |   0.0 |  3.51
Other   |            | 1.631      |            |       |  0.28

Nlocal:           8000 ave        8000 max        8000 min
Histogram: 1 0 0 0 0 0 0 0 0 0
Nghost:           4995 ave        4995 max        4995 min
Histogram: 1 0 0 0 0 0 0 0 0 0
Neighs:              0 ave           0 max           0 min
Histogram: 1 0 0 0 0 0 0 0 0 0
FullNghs:       224000 ave      224000 max      224000 min
Histogram: 1 0 0 0 0 0 0 0 0 0

Total # of neighbors = 224000
Ave neighs/atom = 28
Neighbor list builds = 0
Dangerous builds = 0
undump           d1
min_modify       line forcezero
minimize         0 0 100000 100000                                                                               # minimize energy
Per MPI rank memory allocation (min/avg/max) = 5.236 | 5.236 | 5.236 Mbytes
   Step          Temp          E_pair         E_mol          TotEng         Press          Volume    
    100000   201.79        -36981.657      0             -36773.016      451.7261       160238.94    
    100092   201.79        -37199.614      0             -36990.973      814.43717      160238.94    
Loop time of 1.18923 on 1 procs for 92 steps with 8000 atoms

99.6% CPU use with 1 MPI tasks x 1 OpenMP threads

Minimization stats:
  Stopping criterion = linesearch alpha is zero
  Energy initial, next-to-last, final = 
     -36981.6567580047  -37199.6138287357  -37199.6138287357
  Force two-norm initial, final = 89.981192 8.514877e-05
  Force max component initial, final = 2.6073805 2.1982619e-06
  Final line search alpha, max atom move = 1.1337672e-07 2.4923173e-13
  Iterations, force evaluations = 92 197

MPI task timing breakdown:
Section |  min time  |  avg time  |  max time  |%varavg| %total
---------------------------------------------------------------
Pair    | 1.1649     | 1.1649     | 1.1649     |   0.0 | 97.96
Neigh   | 0          | 0          | 0          |   0.0 |  0.00
Comm    | 0.0042529  | 0.0042529  | 0.0042529  |   0.0 |  0.36
Output  | 0          | 0          | 0          |   0.0 |  0.00
Modify  | 0          | 0          | 0          |   0.0 |  0.00
Other   |            | 0.02006    |            |       |  1.69

Nlocal:           8000 ave        8000 max        8000 min
Histogram: 1 0 0 0 0 0 0 0 0 0
Nghost:           4995 ave        4995 max        4995 min
Histogram: 1 0 0 0 0 0 0 0 0 0
Neighs:              0 ave           0 max           0 min
Histogram: 1 0 0 0 0 0 0 0 0 0
FullNghs:       224000 ave      224000 max      224000 min
Histogram: 1 0 0 0 0 0 0 0 0 0

Total # of neighbors = 224000
Ave neighs/atom = 28
Neighbor list builds = 0
Dangerous builds = 0
write_dump       all custom md/data/si_cd/dump_0.12_relaxed.gz id type x y z
#------------------------------------------------------------------------------#
Total wall time: 0:10:43
