LAMMPS (29 Aug 2024)
OMP_NUM_THREADS environment is not set. Defaulting to 1 thread. (src/comm.cpp:98)
  using 1 OpenMP thread(s) per MPI task
Lattice spacing in x,y,z = 5.43 5.43 5.43
Created orthogonal box = (0 0 0) to (54.3 54.3 54.3)
  1 by 1 by 1 MPI processor grid
Created 8000 atoms
  using lattice units in orthogonal box = (0 0 0) to (54.3 54.3 54.3)
  create_atoms CPU = 0.001 seconds
Reading edip potential file md/potentials/si.edip with DATE: 2011-09-15
Neighbor list info ...
  update: every = 1 steps, delay = 0 steps, check = yes
  max neighbors/atom: 2000, page size: 100000
  master list distance cutoff = 5.121382
  ghost atom cutoff = 5.121382
  binsize = 2.560691, bins = 22 22 22
  1 neighbor lists, perpetual/occasional/extra = 1 0 0
  (1) pair edip, perpetual
      attributes: full, newton on
      pair build: full/bin/atomonly
      stencil: full/bin/3d
      bin: standard
Setting up Verlet run ...
  Unit style    : metal
  Current step  : 0
  Time step     : 0.001
Per MPI rank memory allocation (min/avg/max) = 4.111 | 4.111 | 4.111 Mbytes
   Step          Temp          E_pair         E_mol          TotEng         Press          Volume    
         0   269.92        -37199.627      0             -36920.542      2138.2025      160103.01    
     10000   269.06215     -36917.46       0             -36639.263     -215.96706      160384.25    
Loop time of 57.9708 on 1 procs for 10000 steps with 8000 atoms

Performance: 14.904 ns/day, 1.610 hours/ns, 172.501 timesteps/s, 1.380 Matom-step/s
99.5% CPU use with 1 MPI tasks x 1 OpenMP threads

MPI task timing breakdown:
Section |  min time  |  avg time  |  max time  |%varavg| %total
---------------------------------------------------------------
Pair    | 55.397     | 55.397     | 55.397     |   0.0 | 95.56
Neigh   | 0          | 0          | 0          |   0.0 |  0.00
Comm    | 0.20642    | 0.20642    | 0.20642    |   0.0 |  0.36
Output  | 0.00017936 | 0.00017936 | 0.00017936 |   0.0 |  0.00
Modify  | 2.1907     | 2.1907     | 2.1907     |   0.0 |  3.78
Other   |            | 0.1763     |            |       |  0.30

Nlocal:           8000 ave        8000 max        8000 min
Histogram: 1 0 0 0 0 0 0 0 0 0
Nghost:           4995 ave        4995 max        4995 min
Histogram: 1 0 0 0 0 0 0 0 0 0
Neighs:              0 ave           0 max           0 min
Histogram: 1 0 0 0 0 0 0 0 0 0
FullNghs:       224000 ave      224000 max      224000 min
Histogram: 1 0 0 0 0 0 0 0 0 0

Total # of neighbors = 224000
Ave neighs/atom = 28
Neighbor list builds = 0
Dangerous builds = 0
Setting up Verlet run ...
  Unit style    : metal
  Current step  : 10000
  Time step     : 0.001
Per MPI rank memory allocation (min/avg/max) = 4.111 | 4.111 | 4.111 Mbytes
   Step          Temp          E_pair         E_mol          TotEng         Press          Volume    
     10000   269.06215     -36917.46       0             -36639.263     -215.96706      160384.25    
    100000   271.43301     -36910.743      0             -36630.095      164.10031      160336.09    
Loop time of 586.481 on 1 procs for 90000 steps with 8000 atoms

Performance: 13.259 ns/day, 1.810 hours/ns, 153.458 timesteps/s, 1.228 Matom-step/s
99.5% CPU use with 1 MPI tasks x 1 OpenMP threads

MPI task timing breakdown:
Section |  min time  |  avg time  |  max time  |%varavg| %total
---------------------------------------------------------------
Pair    | 562.21     | 562.21     | 562.21     |   0.0 | 95.86
Neigh   | 0          | 0          | 0          |   0.0 |  0.00
Comm    | 1.9439     | 1.9439     | 1.9439     |   0.0 |  0.33
Output  | 0.25663    | 0.25663    | 0.25663    |   0.0 |  0.04
Modify  | 20.44      | 20.44      | 20.44      |   0.0 |  3.49
Other   |            | 1.63       |            |       |  0.28

Nlocal:           8000 ave        8000 max        8000 min
Histogram: 1 0 0 0 0 0 0 0 0 0
Nghost:           4995 ave        4995 max        4995 min
Histogram: 1 0 0 0 0 0 0 0 0 0
Neighs:              0 ave           0 max           0 min
Histogram: 1 0 0 0 0 0 0 0 0 0
FullNghs:       224000 ave      224000 max      224000 min
Histogram: 1 0 0 0 0 0 0 0 0 0

Total # of neighbors = 224000
Ave neighs/atom = 28
Neighbor list builds = 0
Dangerous builds = 0
Setting up cg style minimization ...
  Unit style    : metal
  Current step  : 100000
Per MPI rank memory allocation (min/avg/max) = 5.236 | 5.236 | 5.236 Mbytes
   Step          Temp          E_pair         E_mol          TotEng         Press          Volume    
    100000   271.43301     -36910.743      0             -36630.095      164.10031      160336.09    
    100094   271.43301     -37199.56       0             -36918.912      684.43386      160336.09    
Loop time of 1.1981 on 1 procs for 94 steps with 8000 atoms

99.5% CPU use with 1 MPI tasks x 1 OpenMP threads

Minimization stats:
  Stopping criterion = linesearch alpha is zero
  Energy initial, next-to-last, final = 
     -36910.7432975486    -37199.56047742    -37199.56047742
  Force two-norm initial, final = 102.76832 7.6123143e-05
  Force max component initial, final = 2.8845385 2.016058e-06
  Final line search alpha, max atom move = 0.0082384773 1.6609249e-08
  Iterations, force evaluations = 94 201

MPI task timing breakdown:
Section |  min time  |  avg time  |  max time  |%varavg| %total
---------------------------------------------------------------
Pair    | 1.1737     | 1.1737     | 1.1737     |   0.0 | 97.97
Neigh   | 0          | 0          | 0          |   0.0 |  0.00
Comm    | 0.0043453  | 0.0043453  | 0.0043453  |   0.0 |  0.36
Output  | 0          | 0          | 0          |   0.0 |  0.00
Modify  | 0          | 0          | 0          |   0.0 |  0.00
Other   |            | 0.02002    |            |       |  1.67

Nlocal:           8000 ave        8000 max        8000 min
Histogram: 1 0 0 0 0 0 0 0 0 0
Nghost:           4995 ave        4995 max        4995 min
Histogram: 1 0 0 0 0 0 0 0 0 0
Neighs:              0 ave           0 max           0 min
Histogram: 1 0 0 0 0 0 0 0 0 0
FullNghs:       224002 ave      224002 max      224002 min
Histogram: 1 0 0 0 0 0 0 0 0 0

Total # of neighbors = 224002
Ave neighs/atom = 28.00025
Neighbor list builds = 0
Dangerous builds = 0
Total wall time: 0:10:45
