LAMMPS (29 Aug 2024)
OMP_NUM_THREADS environment is not set. Defaulting to 1 thread. (src/comm.cpp:98)
  using 1 OpenMP thread(s) per MPI task
Lattice spacing in x,y,z = 5.43 5.43 5.43
Created orthogonal box = (0 0 0) to (54.3 54.3 54.3)
  1 by 1 by 1 MPI processor grid
Created 8000 atoms
  using lattice units in orthogonal box = (0 0 0) to (54.3 54.3 54.3)
  create_atoms CPU = 0.001 seconds
Reading edip potential file md/potentials/si.edip with DATE: 2011-09-15
Neighbor list info ...
  update: every = 1 steps, delay = 0 steps, check = yes
  max neighbors/atom: 2000, page size: 100000
  master list distance cutoff = 5.121382
  ghost atom cutoff = 5.121382
  binsize = 2.560691, bins = 22 22 22
  1 neighbor lists, perpetual/occasional/extra = 1 0 0
  (1) pair edip, perpetual
      attributes: full, newton on
      pair build: full/bin/atomonly
      stencil: full/bin/3d
      bin: standard
Setting up Verlet run ...
  Unit style    : metal
  Current step  : 0
  Time step     : 0.001
Per MPI rank memory allocation (min/avg/max) = 4.111 | 4.111 | 4.111 Mbytes
   Step          Temp          E_pair         E_mol          TotEng         Press          Volume    
         0   944.72        -37199.627      0             -36222.832      6792.9381      160103.01    
     10000   941.75204     -36151.63       0             -35177.904      21.56334       160704.62    
Loop time of 58.5386 on 1 procs for 10000 steps with 8000 atoms

Performance: 14.759 ns/day, 1.626 hours/ns, 170.828 timesteps/s, 1.367 Matom-step/s
99.5% CPU use with 1 MPI tasks x 1 OpenMP threads

MPI task timing breakdown:
Section |  min time  |  avg time  |  max time  |%varavg| %total
---------------------------------------------------------------
Pair    | 55.922     | 55.922     | 55.922     |   0.0 | 95.53
Neigh   | 0          | 0          | 0          |   0.0 |  0.00
Comm    | 0.20977    | 0.20977    | 0.20977    |   0.0 |  0.36
Output  | 0.00018621 | 0.00018621 | 0.00018621 |   0.0 |  0.00
Modify  | 2.2263     | 2.2263     | 2.2263     |   0.0 |  3.80
Other   |            | 0.1803     |            |       |  0.31

Nlocal:           8000 ave        8000 max        8000 min
Histogram: 1 0 0 0 0 0 0 0 0 0
Nghost:           4995 ave        4995 max        4995 min
Histogram: 1 0 0 0 0 0 0 0 0 0
Neighs:              0 ave           0 max           0 min
Histogram: 1 0 0 0 0 0 0 0 0 0
FullNghs:       224000 ave      224000 max      224000 min
Histogram: 1 0 0 0 0 0 0 0 0 0

Total # of neighbors = 224000
Ave neighs/atom = 28
Neighbor list builds = 0
Dangerous builds = 0
Setting up Verlet run ...
  Unit style    : metal
  Current step  : 10000
  Time step     : 0.001
Per MPI rank memory allocation (min/avg/max) = 4.111 | 4.111 | 4.111 Mbytes
   Step          Temp          E_pair         E_mol          TotEng         Press          Volume    
     10000   941.75204     -36151.63       0             -35177.904      21.56334       160704.62    
    100000   959.09201     -36134.747      0             -35143.092     -141.79431      160721.55    
Loop time of 621.944 on 1 procs for 90000 steps with 8000 atoms

Performance: 12.503 ns/day, 1.920 hours/ns, 144.708 timesteps/s, 1.158 Matom-step/s
99.5% CPU use with 1 MPI tasks x 1 OpenMP threads

MPI task timing breakdown:
Section |  min time  |  avg time  |  max time  |%varavg| %total
---------------------------------------------------------------
Pair    | 596.07     | 596.07     | 596.07     |   0.0 | 95.84
Neigh   | 1.4973     | 1.4973     | 1.4973     |   0.0 |  0.24
Comm    | 2.0566     | 2.0566     | 2.0566     |   0.0 |  0.33
Output  | 0.2563     | 0.2563     | 0.2563     |   0.0 |  0.04
Modify  | 20.39      | 20.39      | 20.39      |   0.0 |  3.28
Other   |            | 1.669      |            |       |  0.27

Nlocal:           8000 ave        8000 max        8000 min
Histogram: 1 0 0 0 0 0 0 0 0 0
Nghost:           5000 ave        5000 max        5000 min
Histogram: 1 0 0 0 0 0 0 0 0 0
Neighs:              0 ave           0 max           0 min
Histogram: 1 0 0 0 0 0 0 0 0 0
FullNghs:       224952 ave      224952 max      224952 min
Histogram: 1 0 0 0 0 0 0 0 0 0

Total # of neighbors = 224952
Ave neighs/atom = 28.119
Neighbor list builds = 165
Dangerous builds = 0
Setting up cg style minimization ...
  Unit style    : metal
  Current step  : 100000
Per MPI rank memory allocation (min/avg/max) = 5.236 | 5.236 | 5.236 Mbytes
   Step          Temp          E_pair         E_mol          TotEng         Press          Volume    
    100000   959.09201     -36134.747      0             -35143.092     -141.79431      160721.55    
    100100   959.09201     -37198.985      0             -36207.33       2994.0923      160721.55    
Loop time of 1.28965 on 1 procs for 100 steps with 8000 atoms

99.6% CPU use with 1 MPI tasks x 1 OpenMP threads

Minimization stats:
  Stopping criterion = linesearch alpha is zero
  Energy initial, next-to-last, final = 
     -36134.7467980117   -37198.985134513   -37198.985134513
  Force two-norm initial, final = 187.24031 8.9036272e-05
  Force max component initial, final = 4.3732598 2.4106667e-06
  Final line search alpha, max atom move = 4.5398743e-07 1.0944124e-12
  Iterations, force evaluations = 100 208

MPI task timing breakdown:
Section |  min time  |  avg time  |  max time  |%varavg| %total
---------------------------------------------------------------
Pair    | 1.2647     | 1.2647     | 1.2647     |   0.0 | 98.06
Neigh   | 0          | 0          | 0          |   0.0 |  0.00
Comm    | 0.004507   | 0.004507   | 0.004507   |   0.0 |  0.35
Output  | 0          | 0          | 0          |   0.0 |  0.00
Modify  | 0          | 0          | 0          |   0.0 |  0.00
Other   |            | 0.02048    |            |       |  1.59

Nlocal:           8000 ave        8000 max        8000 min
Histogram: 1 0 0 0 0 0 0 0 0 0
Nghost:           5003 ave        5003 max        5003 min
Histogram: 1 0 0 0 0 0 0 0 0 0
Neighs:              0 ave           0 max           0 min
Histogram: 1 0 0 0 0 0 0 0 0 0
FullNghs:       224910 ave      224910 max      224910 min
Histogram: 1 0 0 0 0 0 0 0 0 0

Total # of neighbors = 224910
Ave neighs/atom = 28.11375
Neighbor list builds = 0
Dangerous builds = 0
Total wall time: 0:11:21
