LAMMPS (29 Aug 2024)
OMP_NUM_THREADS environment is not set. Defaulting to 1 thread. (src/comm.cpp:98)
  using 1 OpenMP thread(s) per MPI task
Lattice spacing in x,y,z = 5.43 5.43 5.43
Created orthogonal box = (0 0 0) to (54.3 54.3 54.3)
  1 by 1 by 1 MPI processor grid
Created 8000 atoms
  using lattice units in orthogonal box = (0 0 0) to (54.3 54.3 54.3)
  create_atoms CPU = 0.001 seconds
Reading edip potential file md/potentials/si.edip with DATE: 2011-09-15
Neighbor list info ...
  update: every = 1 steps, delay = 0 steps, check = yes
  max neighbors/atom: 2000, page size: 100000
  master list distance cutoff = 5.121382
  ghost atom cutoff = 5.121382
  binsize = 2.560691, bins = 22 22 22
  1 neighbor lists, perpetual/occasional/extra = 1 0 0
  (1) pair edip, perpetual
      attributes: full, newton on
      pair build: full/bin/atomonly
      stencil: full/bin/3d
      bin: standard
Setting up Verlet run ...
  Unit style    : metal
  Current step  : 0
  Time step     : 0.001
Per MPI rank memory allocation (min/avg/max) = 4.111 | 4.111 | 4.111 Mbytes
   Step          Temp          E_pair         E_mol          TotEng         Press          Volume    
         0   607.32        -37199.627      0             -36571.687      4465.5703      160103.01    
     10000   599.44667     -36543.168      0             -35923.369     -865.22126      160701.36    
Loop time of 57.6587 on 1 procs for 10000 steps with 8000 atoms

Performance: 14.985 ns/day, 1.602 hours/ns, 173.435 timesteps/s, 1.387 Matom-step/s
99.5% CPU use with 1 MPI tasks x 1 OpenMP threads

MPI task timing breakdown:
Section |  min time  |  avg time  |  max time  |%varavg| %total
---------------------------------------------------------------
Pair    | 55.067     | 55.067     | 55.067     |   0.0 | 95.51
Neigh   | 0          | 0          | 0          |   0.0 |  0.00
Comm    | 0.20941    | 0.20941    | 0.20941    |   0.0 |  0.36
Output  | 0.00017566 | 0.00017566 | 0.00017566 |   0.0 |  0.00
Modify  | 2.202      | 2.202      | 2.202      |   0.0 |  3.82
Other   |            | 0.18       |            |       |  0.31

Nlocal:           8000 ave        8000 max        8000 min
Histogram: 1 0 0 0 0 0 0 0 0 0
Nghost:           4995 ave        4995 max        4995 min
Histogram: 1 0 0 0 0 0 0 0 0 0
Neighs:              0 ave           0 max           0 min
Histogram: 1 0 0 0 0 0 0 0 0 0
FullNghs:       224000 ave      224000 max      224000 min
Histogram: 1 0 0 0 0 0 0 0 0 0

Total # of neighbors = 224000
Ave neighs/atom = 28
Neighbor list builds = 0
Dangerous builds = 0
Setting up Verlet run ...
  Unit style    : metal
  Current step  : 10000
  Time step     : 0.001
Per MPI rank memory allocation (min/avg/max) = 4.111 | 4.111 | 4.111 Mbytes
   Step          Temp          E_pair         E_mol          TotEng         Press          Volume    
     10000   599.44667     -36543.168      0             -35923.369     -865.22126      160701.36    
    100000   614.09323     -36534.681      0             -35899.738     -985.94209      160729.81    
Loop time of 599.387 on 1 procs for 90000 steps with 8000 atoms

Performance: 12.973 ns/day, 1.850 hours/ns, 150.153 timesteps/s, 1.201 Matom-step/s
99.5% CPU use with 1 MPI tasks x 1 OpenMP threads

MPI task timing breakdown:
Section |  min time  |  avg time  |  max time  |%varavg| %total
---------------------------------------------------------------
Pair    | 575.05     | 575.05     | 575.05     |   0.0 | 95.94
Neigh   | 0          | 0          | 0          |   0.0 |  0.00
Comm    | 1.9815     | 1.9815     | 1.9815     |   0.0 |  0.33
Output  | 0.25551    | 0.25551    | 0.25551    |   0.0 |  0.04
Modify  | 20.427     | 20.427     | 20.427     |   0.0 |  3.41
Other   |            | 1.676      |            |       |  0.28

Nlocal:           8000 ave        8000 max        8000 min
Histogram: 1 0 0 0 0 0 0 0 0 0
Nghost:           4995 ave        4995 max        4995 min
Histogram: 1 0 0 0 0 0 0 0 0 0
Neighs:              0 ave           0 max           0 min
Histogram: 1 0 0 0 0 0 0 0 0 0
FullNghs:       224178 ave      224178 max      224178 min
Histogram: 1 0 0 0 0 0 0 0 0 0

Total # of neighbors = 224178
Ave neighs/atom = 28.02225
Neighbor list builds = 0
Dangerous builds = 0
Setting up cg style minimization ...
  Unit style    : metal
  Current step  : 100000
Per MPI rank memory allocation (min/avg/max) = 5.236 | 5.236 | 5.236 Mbytes
   Step          Temp          E_pair         E_mol          TotEng         Press          Volume    
    100000   614.09323     -36534.681      0             -35899.738     -985.94209      160729.81    
    100094   614.09323     -37198.966      0             -36564.024      571.66635      160729.81    
Loop time of 1.18056 on 1 procs for 94 steps with 8000 atoms

99.5% CPU use with 1 MPI tasks x 1 OpenMP threads

Minimization stats:
  Stopping criterion = linesearch alpha is zero
  Energy initial, next-to-last, final = 
     -36534.6806796079  -37198.9664269707  -37198.9664269707
  Force two-norm initial, final = 151.97626 0.00016302078
  Force max component initial, final = 3.7020675 4.687072e-06
  Final line search alpha, max atom move = 8.4803305e-06 3.974792e-11
  Iterations, force evaluations = 94 197

MPI task timing breakdown:
Section |  min time  |  avg time  |  max time  |%varavg| %total
---------------------------------------------------------------
Pair    | 1.1567     | 1.1567     | 1.1567     |   0.0 | 97.98
Neigh   | 0          | 0          | 0          |   0.0 |  0.00
Comm    | 0.0042637  | 0.0042637  | 0.0042637  |   0.0 |  0.36
Output  | 0          | 0          | 0          |   0.0 |  0.00
Modify  | 0          | 0          | 0          |   0.0 |  0.00
Other   |            | 0.01957    |            |       |  1.66

Nlocal:           8000 ave        8000 max        8000 min
Histogram: 1 0 0 0 0 0 0 0 0 0
Nghost:           4997 ave        4997 max        4997 min
Histogram: 1 0 0 0 0 0 0 0 0 0
Neighs:              0 ave           0 max           0 min
Histogram: 1 0 0 0 0 0 0 0 0 0
FullNghs:       224232 ave      224232 max      224232 min
Histogram: 1 0 0 0 0 0 0 0 0 0

Total # of neighbors = 224232
Ave neighs/atom = 28.029
Neighbor list builds = 0
Dangerous builds = 0
Total wall time: 0:10:58
