LAMMPS (29 Aug 2024)
OMP_NUM_THREADS environment is not set. Defaulting to 1 thread. (src/comm.cpp:98)
  using 1 OpenMP thread(s) per MPI task

#---------------------------- Atomic setup ------------------------------------#
units            metal
timestep         0.001
boundary         p p p
lattice          hcp 2.951
Lattice spacing in x,y,z = 2.951 5.1112819 4.8189628
region           sim_box block 0 10 0 10 0 10
create_box       1 sim_box
Created orthogonal box = (0 0 0) to (29.51 51.112819 48.189628)
  2 by 4 by 2 MPI processor grid
create_atoms     1 box
Created 4000 atoms
  using lattice units in orthogonal box = (0 0 0) to (29.51 51.112819 48.189628)
  create_atoms CPU = 0.001 seconds

pair_style       meam/spline                                             # interatomic potential (Lennard-Jones, EAM, etc.)
pair_coeff       * * ${potentials_dir}/ti_meam.spline Ti # interatomic potential parameters (ex. eam.alloy ${potentials_dir}/Cu_u3.eam)
pair_coeff       * * md/potentials/ti_meam.spline Ti 
Reading meam/spline potential file md/potentials/ti_meam.spline with DATE: 2012-02-01
pair_modify      tail yes
neigh_modify     delay 0                                                       # neighbor list update frequency (0 = every timestep)
mass             1 47.867                                                 # atomic mass
variable         rnd equal round(random(0,999999,42))

#----------------------------- Equilibriation ---------------------------------#
velocity         all create 2717.3999999999996 ${rnd} dist gaussian              # initial velocities
velocity         all create 2717.3999999999996 420940 dist gaussian              
fix              f2 all nph iso 0 0 1.0        # barostat
variable         rnd equal round(random(0,999999,0))
fix              f3 all temp/csvr 2717.3999999999996 2717.3999999999996 0.1 ${rnd} # thermostat
fix              f3 all temp/csvr 2717.3999999999996 2717.3999999999996 0.1 53464 
run              10000                                           # equilibriation run
Neighbor list info ...
  update: every = 1 steps, delay = 0 steps, check = yes
  max neighbors/atom: 2000, page size: 100000
  master list distance cutoff = 7.5
  ghost atom cutoff = 7.5
  binsize = 3.75, bins = 8 14 13
  2 neighbor lists, perpetual/occasional/extra = 2 0 0
  (1) pair meam/spline, perpetual
      attributes: full, newton on
      pair build: full/bin/atomonly
      stencil: full/bin/3d
      bin: standard
  (2) pair meam/spline, perpetual, half/full from (1)
      attributes: half, newton on
      pair build: halffull/newton
      stencil: none
      bin: none
Per MPI rank memory allocation (min/avg/max) = 3.859 | 3.864 | 3.87 Mbytes
   Step          Temp          E_pair         E_mol          TotEng         Press          Volume    
         0   2717.4        -19273.463      0             -17868.808     -22352.179      72686.31     
     10000   2689.0374     -17303.894      0             -15913.9       -506.43815      76096.312    
Loop time of 59.2369 on 16 procs for 10000 steps with 4000 atoms

Performance: 14.586 ns/day, 1.645 hours/ns, 168.814 timesteps/s, 675.255 katom-step/s
99.6% CPU use with 16 MPI tasks x 1 OpenMP threads

MPI task timing breakdown:
Section |  min time  |  avg time  |  max time  |%varavg| %total
---------------------------------------------------------------
Pair    | 57.475     | 57.622     | 57.787     |   1.6 | 97.27
Neigh   | 0.25153    | 0.25507    | 0.25803    |   0.4 |  0.43
Comm    | 0.90617    | 1.054      | 1.2096     |  10.7 |  1.78
Output  | 3.5045e-05 | 3.6654e-05 | 4.9212e-05 |   0.0 |  0.00
Modify  | 0.23656    | 0.26805    | 0.31707    |   4.8 |  0.45
Other   |            | 0.03774    |            |       |  0.06

Nlocal:            250 ave         258 max         239 min
Histogram: 1 0 1 0 4 3 4 0 1 2
Nghost:        1490.25 ave        1502 max        1480 min
Histogram: 3 2 0 0 4 2 1 1 1 2
Neighs:        11399.2 ave       11956 max       10773 min
Histogram: 1 0 1 2 2 5 2 1 1 1
FullNghs:      22798.5 ave       23973 max       21556 min
Histogram: 1 0 1 2 6 2 1 1 1 1

Total # of neighbors = 364776
Ave neighs/atom = 91.194
Neighbor list builds = 292
Dangerous builds = 0

#----------------------------- Run simulation ---------------------------------#
dump             d1 all custom 10000 md/data/ti_hcp/dump_1.4.gz id type x y z # snapshots
run              90000
Per MPI rank memory allocation (min/avg/max) = 3.86 | 3.868 | 3.873 Mbytes
   Step          Temp          E_pair         E_mol          TotEng         Press          Volume    
     10000   2689.0374     -17303.894      0             -15913.9       -506.43815      76096.312    
    100000   2717.9485     -17268.267      0             -15863.328     -2357.4268      76277.889    
Loop time of 530.729 on 16 procs for 90000 steps with 4000 atoms

Performance: 14.652 ns/day, 1.638 hours/ns, 169.578 timesteps/s, 678.312 katom-step/s
99.6% CPU use with 16 MPI tasks x 1 OpenMP threads

MPI task timing breakdown:
Section |  min time  |  avg time  |  max time  |%varavg| %total
---------------------------------------------------------------
Pair    | 515.6      | 516.14     | 516.52     |   1.3 | 97.25
Neigh   | 2.271      | 2.298      | 2.3274     |   1.1 |  0.43
Comm    | 9.1051     | 9.4309     | 9.8064     |   6.0 |  1.78
Output  | 0.0085255  | 0.054866   | 0.081567   |  10.4 |  0.01
Modify  | 2.164      | 2.4664     | 2.81       |  12.7 |  0.46
Other   |            | 0.3368     |            |       |  0.06

Nlocal:            250 ave         268 max         238 min
Histogram: 1 3 2 2 3 1 0 3 0 1
Nghost:        1487.25 ave        1503 max        1457 min
Histogram: 1 0 0 1 2 2 2 2 3 3
Neighs:        11388.9 ave       12313 max       10785 min
Histogram: 2 2 3 3 2 0 1 2 0 1
FullNghs:      22777.8 ave       24624 max       21485 min
Histogram: 1 2 4 2 3 0 1 1 1 1

Total # of neighbors = 364444
Ave neighs/atom = 91.111
Neighbor list builds = 2645
Dangerous builds = 0
undump           d1
min_modify       line forcezero
minimize         0 0 100000 100000                                                                               # minimize energy
Per MPI rank memory allocation (min/avg/max) = 4.985 | 4.994 | 4.999 Mbytes
   Step          Temp          E_pair         E_mol          TotEng         Press          Volume    
    100000   2717.9485     -17268.267      0             -15863.328     -2357.4268      76277.889    
    101680   2717.9485     -18855.01       0             -17450.072     -35561.838      76277.889    
Loop time of 20.783 on 16 procs for 1680 steps with 4000 atoms

99.7% CPU use with 16 MPI tasks x 1 OpenMP threads

Minimization stats:
  Stopping criterion = linesearch alpha is zero
  Energy initial, next-to-last, final = 
     -17268.2667943857  -18855.0104605759  -18855.0104605759
  Force two-norm initial, final = 125.55014 5.0425214e-05
  Force max component initial, final = 9.5571916 1.308312e-05
  Final line search alpha, max atom move = 0.14223406 1.8608652e-06
  Iterations, force evaluations = 1680 3150

MPI task timing breakdown:
Section |  min time  |  avg time  |  max time  |%varavg| %total
---------------------------------------------------------------
Pair    | 20.398     | 20.457     | 20.518     |   1.0 | 98.43
Neigh   | 0.012667   | 0.012939   | 0.013181   |   0.1 |  0.06
Comm    | 0.18956    | 0.25209    | 0.31248    |   8.2 |  1.21
Output  | 0          | 0          | 0          |   0.0 |  0.00
Modify  | 0          | 0          | 0          |   0.0 |  0.00
Other   |            | 0.0611     |            |       |  0.29

Nlocal:            250 ave         255 max         245 min
Histogram: 2 1 1 2 1 1 3 1 1 3
Nghost:        1490.25 ave        1496 max        1483 min
Histogram: 2 0 1 4 1 0 2 1 2 3
Neighs:        11266.9 ave       11546 max       10883 min
Histogram: 1 0 1 2 3 1 2 2 3 1
FullNghs:      22533.8 ave       23066 max       21836 min
Histogram: 1 1 1 1 3 1 3 1 0 4

Total # of neighbors = 360540
Ave neighs/atom = 90.135
Neighbor list builds = 15
Dangerous builds = 0
write_dump       all custom md/data/ti_hcp/dump_1.4_relaxed.gz id type x y z
#------------------------------------------------------------------------------#
Total wall time: 0:10:10
