LAMMPS (29 Aug 2024)
OMP_NUM_THREADS environment is not set. Defaulting to 1 thread. (src/comm.cpp:98)
  using 1 OpenMP thread(s) per MPI task
Lattice spacing in x,y,z = 2.951 5.1112819 4.8189628
Created orthogonal box = (0 0 0) to (29.51 51.112819 48.189628)
  2 by 4 by 2 MPI processor grid
Created 4000 atoms
  using lattice units in orthogonal box = (0 0 0) to (29.51 51.112819 48.189628)
  create_atoms CPU = 0.001 seconds
Reading meam/spline potential file md/potentials/ti_meam.spline with DATE: 2012-02-01
Neighbor list info ...
  update: every = 1 steps, delay = 0 steps, check = yes
  max neighbors/atom: 2000, page size: 100000
  master list distance cutoff = 7.5
  ghost atom cutoff = 7.5
  binsize = 3.75, bins = 8 14 13
  2 neighbor lists, perpetual/occasional/extra = 2 0 0
  (1) pair meam/spline, perpetual
      attributes: full, newton on
      pair build: full/bin/atomonly
      stencil: full/bin/3d
      bin: standard
  (2) pair meam/spline, perpetual, half/full from (1)
      attributes: half, newton on
      pair build: halffull/newton
      stencil: none
      bin: none
Setting up Verlet run ...
  Unit style    : metal
  Current step  : 0
  Time step     : 0.001
Per MPI rank memory allocation (min/avg/max) = 3.859 | 3.864 | 3.87 Mbytes
   Step          Temp          E_pair         E_mol          TotEng         Press          Volume    
         0   1941          -19273.463      0             -18270.138     -28249.68       72686.31     
     10000   1914.2282     -18264.336      0             -17274.849      404.98019      74452.285    
Loop time of 64.5601 on 16 procs for 10000 steps with 4000 atoms

Performance: 13.383 ns/day, 1.793 hours/ns, 154.894 timesteps/s, 619.577 katom-step/s
99.6% CPU use with 16 MPI tasks x 1 OpenMP threads

MPI task timing breakdown:
Section |  min time  |  avg time  |  max time  |%varavg| %total
---------------------------------------------------------------
Pair    | 62.993     | 63.113     | 63.217     |   1.1 | 97.76
Neigh   | 0.21275    | 0.21697    | 0.21986    |   0.4 |  0.34
Comm    | 0.83021    | 0.93062    | 1.0527     |   8.8 |  1.44
Output  | 5.6075e-05 | 5.761e-05  | 7.0332e-05 |   0.0 |  0.00
Modify  | 0.25431    | 0.26207    | 0.27335    |   1.3 |  0.41
Other   |            | 0.03768    |            |       |  0.06

Nlocal:            250 ave         258 max         241 min
Histogram: 2 0 1 1 3 3 1 2 2 1
Nghost:        1542.25 ave        1550 max        1530 min
Histogram: 1 0 1 2 0 3 1 2 3 3
Neighs:        11600.9 ave       11929 max       11145 min
Histogram: 2 0 1 1 3 1 2 1 1 4
FullNghs:      23201.8 ave       23944 max       22437 min
Histogram: 2 0 2 4 0 2 1 1 2 2

Total # of neighbors = 371228
Ave neighs/atom = 92.807
Neighbor list builds = 241
Dangerous builds = 0
Setting up Verlet run ...
  Unit style    : metal
  Current step  : 10000
  Time step     : 0.001
Per MPI rank memory allocation (min/avg/max) = 3.859 | 3.868 | 3.873 Mbytes
   Step          Temp          E_pair         E_mol          TotEng         Press          Volume    
     10000   1914.2282     -18264.336      0             -17274.849      404.98019      74452.285    
    100000   1916.997      -18232.938      0             -17242.021     -980.38274      74607.81     
Loop time of 580.277 on 16 procs for 90000 steps with 4000 atoms

Performance: 13.400 ns/day, 1.791 hours/ns, 155.098 timesteps/s, 620.393 katom-step/s
99.6% CPU use with 16 MPI tasks x 1 OpenMP threads

MPI task timing breakdown:
Section |  min time  |  avg time  |  max time  |%varavg| %total
---------------------------------------------------------------
Pair    | 566.91     | 567.25     | 567.84     |   1.4 | 97.75
Neigh   | 1.9463     | 1.9872     | 2.0222     |   1.4 |  0.34
Comm    | 7.716      | 8.3147     | 8.684      |  11.4 |  1.43
Output  | 0.0084487  | 0.054987   | 0.082501   |  10.8 |  0.01
Modify  | 2.2917     | 2.3352     | 2.3903     |   1.9 |  0.40
Other   |            | 0.338      |            |       |  0.06

Nlocal:            250 ave         266 max         245 min
Histogram: 8 1 2 2 1 1 0 0 0 1
Nghost:        1544.81 ave        1558 max        1529 min
Histogram: 2 1 1 1 1 1 3 5 0 1
Neighs:        11593.2 ave       12413 max       11204 min
Histogram: 3 3 3 1 3 2 0 0 0 1
FullNghs:      23186.4 ave       24786 max       22635 min
Histogram: 6 3 0 4 1 1 0 0 0 1

Total # of neighbors = 370982
Ave neighs/atom = 92.7455
Neighbor list builds = 2203
Dangerous builds = 0
Setting up cg style minimization ...
  Unit style    : metal
  Current step  : 100000
Per MPI rank memory allocation (min/avg/max) = 4.984 | 4.993 | 4.998 Mbytes
   Step          Temp          E_pair         E_mol          TotEng         Press          Volume    
    100000   1916.997      -18232.938      0             -17242.021     -980.38274      74607.81     
    100356   1916.997      -19206.813      0             -18215.896     -45578.32       74607.81     
Loop time of 5.00276 on 16 procs for 356 steps with 4000 atoms

99.4% CPU use with 16 MPI tasks x 1 OpenMP threads

Minimization stats:
  Stopping criterion = linesearch alpha is zero
  Energy initial, next-to-last, final = 
     -18232.9380625647  -19206.8131026068  -19206.8131026068
  Force two-norm initial, final = 97.968333 0.00011058076
  Force max component initial, final = 5.8513472 5.5776345e-05
  Final line search alpha, max atom move = 0.21014111 1.1720903e-05
  Iterations, force evaluations = 356 707

MPI task timing breakdown:
Section |  min time  |  avg time  |  max time  |%varavg| %total
---------------------------------------------------------------
Pair    | 4.8433     | 4.9015     | 4.9533     |   1.9 | 97.98
Neigh   | 0.0017156  | 0.0017915  | 0.0020402  |   0.2 |  0.04
Comm    | 0.036154   | 0.084053   | 0.13653    |  13.8 |  1.68
Output  | 0          | 0          | 0          |   0.0 |  0.00
Modify  | 0          | 0          | 0          |   0.0 |  0.00
Other   |            | 0.01546    |            |       |  0.31

Nlocal:            250 ave         261 max         244 min
Histogram: 3 4 2 1 2 1 0 1 1 1
Nghost:        1600.31 ave        1615 max        1576 min
Histogram: 1 0 0 2 1 1 5 3 1 2
Neighs:        11204.4 ave       11768 max       10693 min
Histogram: 1 1 2 3 2 3 1 1 1 1
FullNghs:      22408.9 ave       23427 max       21863 min
Histogram: 3 4 2 1 2 1 1 0 1 1

Total # of neighbors = 358542
Ave neighs/atom = 89.6355
Neighbor list builds = 2
Dangerous builds = 0
Total wall time: 0:10:49
