LAMMPS (29 Aug 2024)
OMP_NUM_THREADS environment is not set. Defaulting to 1 thread. (src/comm.cpp:98)
  using 1 OpenMP thread(s) per MPI task
Lattice spacing in x,y,z = 2.951 5.1112819 4.8189628
Created orthogonal box = (0 0 0) to (29.51 51.112819 48.189628)
  2 by 4 by 2 MPI processor grid
Created 4000 atoms
  using lattice units in orthogonal box = (0 0 0) to (29.51 51.112819 48.189628)
  create_atoms CPU = 0.001 seconds
Reading meam/spline potential file md/potentials/ti_meam.spline with DATE: 2012-02-01
Neighbor list info ...
  update: every = 1 steps, delay = 0 steps, check = yes
  max neighbors/atom: 2000, page size: 100000
  master list distance cutoff = 7.5
  ghost atom cutoff = 7.5
  binsize = 3.75, bins = 8 14 13
  2 neighbor lists, perpetual/occasional/extra = 2 0 0
  (1) pair meam/spline, perpetual
      attributes: full, newton on
      pair build: full/bin/atomonly
      stencil: full/bin/3d
      bin: standard
  (2) pair meam/spline, perpetual, half/full from (1)
      attributes: half, newton on
      pair build: halffull/newton
      stencil: none
      bin: none
Setting up Verlet run ...
  Unit style    : metal
  Current step  : 0
  Time step     : 0.001
Per MPI rank memory allocation (min/avg/max) = 3.859 | 3.864 | 3.87 Mbytes
   Step          Temp          E_pair         E_mol          TotEng         Press          Volume    
         0   621.12        -19273.463      0             -18952.399     -38275.433      72686.31     
     10000   610.92466     -19008.48       0             -18692.686     -833.78519      71420.585    
Loop time of 71.5399 on 16 procs for 10000 steps with 4000 atoms

Performance: 12.077 ns/day, 1.987 hours/ns, 139.782 timesteps/s, 559.128 katom-step/s
99.7% CPU use with 16 MPI tasks x 1 OpenMP threads

MPI task timing breakdown:
Section |  min time  |  avg time  |  max time  |%varavg| %total
---------------------------------------------------------------
Pair    | 70.303     | 70.339     | 70.371     |   0.2 | 98.32
Neigh   | 0.088247   | 0.090649   | 0.093873   |   0.5 |  0.13
Comm    | 0.80222    | 0.83412    | 0.86256    |   1.9 |  1.17
Output  | 3.9895e-05 | 4.9348e-05 | 0.00018306 |   0.0 |  0.00
Modify  | 0.23072    | 0.2404     | 0.24597    |   1.1 |  0.34
Other   |            | 0.03591    |            |       |  0.05

Nlocal:            250 ave         261 max         234 min
Histogram: 1 1 0 1 2 4 0 3 2 2
Nghost:        1636.56 ave        1649 max        1614 min
Histogram: 1 0 1 1 2 0 2 4 2 3
Neighs:        11981.4 ave       12597 max       11127 min
Histogram: 1 0 1 2 3 2 2 1 2 2
FullNghs:      23962.9 ave       25131 max       22234 min
Histogram: 1 0 1 2 0 5 1 2 2 2

Total # of neighbors = 383406
Ave neighs/atom = 95.8515
Neighbor list builds = 98
Dangerous builds = 0
Setting up Verlet run ...
  Unit style    : metal
  Current step  : 10000
  Time step     : 0.001
Per MPI rank memory allocation (min/avg/max) = 3.859 | 3.868 | 3.874 Mbytes
   Step          Temp          E_pair         E_mol          TotEng         Press          Volume    
     10000   610.92466     -19008.48       0             -18692.686     -833.78519      71420.585    
    100000   618.93734     -19002.204      0             -18682.268     -2808.1822      71609.872    
Loop time of 643.252 on 16 procs for 90000 steps with 4000 atoms

Performance: 12.089 ns/day, 1.985 hours/ns, 139.914 timesteps/s, 559.656 katom-step/s
99.7% CPU use with 16 MPI tasks x 1 OpenMP threads

MPI task timing breakdown:
Section |  min time  |  avg time  |  max time  |%varavg| %total
---------------------------------------------------------------
Pair    | 631.57     | 631.94     | 632.26     |   0.8 | 98.24
Neigh   | 0.82568    | 0.84619    | 0.87366    |   1.7 |  0.13
Comm    | 7.5859     | 7.835      | 8.1932     |   5.8 |  1.22
Output  | 0.0077561  | 0.053743   | 0.0816     |  10.9 |  0.01
Modify  | 2.1307     | 2.25       | 2.3231     |   3.9 |  0.35
Other   |            | 0.3276     |            |       |  0.05

Nlocal:            250 ave         258 max         240 min
Histogram: 1 1 1 2 1 2 3 2 0 3
Nghost:        1632.75 ave        1645 max        1620 min
Histogram: 2 0 2 0 3 1 4 3 0 1
Neighs:        11957.4 ave       12315 max       11515 min
Histogram: 2 0 3 0 1 1 4 1 1 3
FullNghs:      23914.8 ave       24796 max       22980 min
Histogram: 1 2 2 0 2 3 2 1 2 1

Total # of neighbors = 382636
Ave neighs/atom = 95.659
Neighbor list builds = 920
Dangerous builds = 0
Setting up cg style minimization ...
  Unit style    : metal
  Current step  : 100000
Per MPI rank memory allocation (min/avg/max) = 4.984 | 4.993 | 4.999 Mbytes
   Step          Temp          E_pair         E_mol          TotEng         Press          Volume    
    100000   618.93734     -19002.204      0             -18682.268     -2808.1822      71609.872    
    100072   618.93734     -19297.752      0             -18977.816     -24293.277      71609.872    
Loop time of 1.01905 on 16 procs for 72 steps with 4000 atoms

99.7% CPU use with 16 MPI tasks x 1 OpenMP threads

Minimization stats:
  Stopping criterion = linesearch alpha is zero
  Energy initial, next-to-last, final = 
     -19002.2038470469  -19297.7522005296  -19297.7522005296
  Force two-norm initial, final = 54.273746 5.5595081e-06
  Force max component initial, final = 2.2575225 1.8681558e-07
  Final line search alpha, max atom move = 9.3806729e-06 1.7524559e-12
  Iterations, force evaluations = 72 150

MPI task timing breakdown:
Section |  min time  |  avg time  |  max time  |%varavg| %total
---------------------------------------------------------------
Pair    | 1.0066     | 1.0081     | 1.01       |   0.1 | 98.93
Neigh   | 0          | 0          | 0          |   0.0 |  0.00
Comm    | 0.0066855  | 0.0084664  | 0.0095025  |   0.9 |  0.83
Output  | 0          | 0          | 0          |   0.0 |  0.00
Modify  | 0          | 0          | 0          |   0.0 |  0.00
Other   |            | 0.002459   |            |       |  0.24

Nlocal:            250 ave         256 max         242 min
Histogram: 2 0 2 2 1 0 2 3 1 3
Nghost:        1633.88 ave        1643 max        1617 min
Histogram: 1 1 0 1 0 1 4 4 0 4
Neighs:        11950.7 ave       12338 max       11595 min
Histogram: 3 1 3 0 1 1 1 3 2 1
FullNghs:      23901.4 ave       24570 max       23111 min
Histogram: 2 0 2 3 0 2 1 1 2 3

Total # of neighbors = 382422
Ave neighs/atom = 95.6055
Neighbor list builds = 0
Dangerous builds = 0
Total wall time: 0:11:55
