LAMMPS (29 Aug 2024)
OMP_NUM_THREADS environment is not set. Defaulting to 1 thread. (src/comm.cpp:98)
  using 1 OpenMP thread(s) per MPI task
Lattice spacing in x,y,z = 2.951 5.1112819 4.8189628
Created orthogonal box = (0 0 0) to (29.51 51.112819 48.189628)
  2 by 4 by 2 MPI processor grid
Created 4000 atoms
  using lattice units in orthogonal box = (0 0 0) to (29.51 51.112819 48.189628)
  create_atoms CPU = 0.001 seconds
Reading meam/spline potential file md/potentials/ti_meam.spline with DATE: 2012-02-01
Neighbor list info ...
  update: every = 1 steps, delay = 0 steps, check = yes
  max neighbors/atom: 2000, page size: 100000
  master list distance cutoff = 7.5
  ghost atom cutoff = 7.5
  binsize = 3.75, bins = 8 14 13
  2 neighbor lists, perpetual/occasional/extra = 2 0 0
  (1) pair meam/spline, perpetual
      attributes: full, newton on
      pair build: full/bin/atomonly
      stencil: full/bin/3d
      bin: standard
  (2) pair meam/spline, perpetual, half/full from (1)
      attributes: half, newton on
      pair build: halffull/newton
      stencil: none
      bin: none
Setting up Verlet run ...
  Unit style    : metal
  Current step  : 0
  Time step     : 0.001
Per MPI rank memory allocation (min/avg/max) = 3.859 | 3.864 | 3.87 Mbytes
   Step          Temp          E_pair         E_mol          TotEng         Press          Volume    
         0   1785.72       -19273.463      0             -18350.404     -29429.181      72686.31     
     10000   1768.1376     -18366.019      0             -17452.049      2456.1224      73942.462    
Loop time of 65.4199 on 16 procs for 10000 steps with 4000 atoms

Performance: 13.207 ns/day, 1.817 hours/ns, 152.859 timesteps/s, 611.435 katom-step/s
99.6% CPU use with 16 MPI tasks x 1 OpenMP threads

MPI task timing breakdown:
Section |  min time  |  avg time  |  max time  |%varavg| %total
---------------------------------------------------------------
Pair    | 63.826     | 63.985     | 64.063     |   1.1 | 97.81
Neigh   | 0.20495    | 0.20913    | 0.21298    |   0.5 |  0.32
Comm    | 0.86357    | 0.94611    | 1.0981     |   8.5 |  1.45
Output  | 3.0157e-05 | 4.1483e-05 | 0.00020443 |   0.0 |  0.00
Modify  | 0.23561    | 0.24339    | 0.25057    |   1.1 |  0.37
Other   |            | 0.03573    |            |       |  0.05

Nlocal:            250 ave         263 max         238 min
Histogram: 2 0 0 4 3 2 3 0 1 1
Nghost:        1544.56 ave        1566 max        1523 min
Histogram: 1 1 2 3 0 1 4 2 1 1
Neighs:          11675 ave       12408 max       11092 min
Histogram: 2 1 1 1 4 4 1 1 0 1
FullNghs:        23350 ave       24789 max       22084 min
Histogram: 2 0 2 0 5 3 1 2 0 1

Total # of neighbors = 373600
Ave neighs/atom = 93.4
Neighbor list builds = 233
Dangerous builds = 0
Setting up Verlet run ...
  Unit style    : metal
  Current step  : 10000
  Time step     : 0.001
Per MPI rank memory allocation (min/avg/max) = 3.859 | 3.868 | 3.873 Mbytes
   Step          Temp          E_pair         E_mol          TotEng         Press          Volume    
     10000   1768.1376     -18366.019      0             -17452.049      2456.1224      73942.462    
    100000   1802.5719     -18353.938      0             -17422.168      1790.8064      74080.134    
Loop time of 585.032 on 16 procs for 90000 steps with 4000 atoms

Performance: 13.292 ns/day, 1.806 hours/ns, 153.838 timesteps/s, 615.351 katom-step/s
99.6% CPU use with 16 MPI tasks x 1 OpenMP threads

MPI task timing breakdown:
Section |  min time  |  avg time  |  max time  |%varavg| %total
---------------------------------------------------------------
Pair    | 571.89     | 572.39     | 572.78     |   1.3 | 97.84
Neigh   | 1.844      | 1.8812     | 1.9163     |   1.5 |  0.32
Comm    | 7.7559     | 8.1799     | 8.6821     |  10.9 |  1.40
Output  | 0.0080226  | 0.054075   | 0.08197    |  10.8 |  0.01
Modify  | 2.1428     | 2.2086     | 2.2393     |   1.9 |  0.38
Other   |            | 0.3217     |            |       |  0.05

Nlocal:            250 ave         260 max         239 min
Histogram: 1 0 2 3 2 2 1 2 1 2
Nghost:        1541.38 ave        1553 max        1530 min
Histogram: 2 1 2 1 2 1 2 2 1 2
Neighs:        11622.7 ave       12143 max       11102 min
Histogram: 1 2 0 4 1 2 3 0 0 3
FullNghs:      23245.4 ave       24157 max       22181 min
Histogram: 1 1 1 4 1 0 4 1 0 3

Total # of neighbors = 371926
Ave neighs/atom = 92.9815
Neighbor list builds = 2102
Dangerous builds = 0
Setting up cg style minimization ...
  Unit style    : metal
  Current step  : 100000
Per MPI rank memory allocation (min/avg/max) = 4.984 | 4.993 | 4.998 Mbytes
   Step          Temp          E_pair         E_mol          TotEng         Press          Volume    
    100000   1802.5719     -18353.938      0             -17422.168      1790.8064      74080.134    
    100126   1802.5719     -19229.585      0             -18297.815     -42240.394      74080.134    
Loop time of 1.75335 on 16 procs for 126 steps with 4000 atoms

99.6% CPU use with 16 MPI tasks x 1 OpenMP threads

Minimization stats:
  Stopping criterion = linesearch alpha is zero
  Energy initial, next-to-last, final = 
     -18353.9382382386  -19229.5846505157  -19229.5846505157
  Force two-norm initial, final = 94.511394 7.4801495e-06
  Force max component initial, final = 4.5613094 3.0077621e-07
  Final line search alpha, max atom move = 8.9021334e-06 2.6775499e-12
  Iterations, force evaluations = 126 255

MPI task timing breakdown:
Section |  min time  |  avg time  |  max time  |%varavg| %total
---------------------------------------------------------------
Pair    | 1.7216     | 1.7306     | 1.7364     |   0.4 | 98.70
Neigh   | 0.00081915 | 0.00087407 | 0.00091397 |   0.0 |  0.05
Comm    | 0.012263   | 0.017503   | 0.025998   |   3.6 |  1.00
Output  | 0          | 0          | 0          |   0.0 |  0.00
Modify  | 0          | 0          | 0          |   0.0 |  0.00
Other   |            | 0.004342   |            |       |  0.25

Nlocal:            250 ave         262 max         234 min
Histogram: 1 1 2 1 0 1 5 1 2 2
Nghost:        1573.69 ave        1600 max        1555 min
Histogram: 1 4 3 0 2 1 2 0 1 2
Neighs:        11292.9 ave       11860 max       10581 min
Histogram: 2 0 1 2 1 3 1 3 1 2
FullNghs:      22585.8 ave       23791 max       21162 min
Histogram: 2 0 2 1 1 1 4 2 0 3

Total # of neighbors = 361372
Ave neighs/atom = 90.343
Neighbor list builds = 1
Dangerous builds = 0
Total wall time: 0:10:52
