LAMMPS (29 Aug 2024)
OMP_NUM_THREADS environment is not set. Defaulting to 1 thread. (src/comm.cpp:98)
  using 1 OpenMP thread(s) per MPI task
Lattice spacing in x,y,z = 2.951 5.1112819 4.8189628
Created orthogonal box = (0 0 0) to (29.51 51.112819 48.189628)
  2 by 4 by 2 MPI processor grid
Created 4000 atoms
  using lattice units in orthogonal box = (0 0 0) to (29.51 51.112819 48.189628)
  create_atoms CPU = 0.001 seconds
Reading meam/spline potential file md/potentials/ti_meam.spline with DATE: 2012-02-01
Neighbor list info ...
  update: every = 1 steps, delay = 0 steps, check = yes
  max neighbors/atom: 2000, page size: 100000
  master list distance cutoff = 7.5
  ghost atom cutoff = 7.5
  binsize = 3.75, bins = 8 14 13
  2 neighbor lists, perpetual/occasional/extra = 2 0 0
  (1) pair meam/spline, perpetual
      attributes: full, newton on
      pair build: full/bin/atomonly
      stencil: full/bin/3d
      bin: standard
  (2) pair meam/spline, perpetual, half/full from (1)
      attributes: half, newton on
      pair build: halffull/newton
      stencil: none
      bin: none
Setting up Verlet run ...
  Unit style    : metal
  Current step  : 0
  Time step     : 0.001
Per MPI rank memory allocation (min/avg/max) = 3.859 | 3.864 | 3.87 Mbytes
   Step          Temp          E_pair         E_mol          TotEng         Press          Volume    
         0   2562.12       -19273.463      0             -17949.074     -23531.679      72686.31     
     10000   2523.5812     -17384.654      0             -16080.186      2612.6368      75520.246    
Loop time of 59.8543 on 16 procs for 10000 steps with 4000 atoms

Performance: 14.435 ns/day, 1.663 hours/ns, 167.072 timesteps/s, 668.290 katom-step/s
99.6% CPU use with 16 MPI tasks x 1 OpenMP threads

MPI task timing breakdown:
Section |  min time  |  avg time  |  max time  |%varavg| %total
---------------------------------------------------------------
Pair    | 58.338     | 58.451     | 58.565     |   1.0 | 97.66
Neigh   | 0.24564    | 0.25018    | 0.25654    |   0.5 |  0.42
Comm    | 0.76259    | 0.86763    | 0.97778    |   7.6 |  1.45
Output  | 3.2992e-05 | 4.4249e-05 | 0.00020299 |   0.0 |  0.00
Modify  | 0.23558    | 0.2482     | 0.2575     |   1.5 |  0.41
Other   |            | 0.03678    |            |       |  0.06

Nlocal:            250 ave         255 max         242 min
Histogram: 1 0 1 1 1 2 4 2 1 3
Nghost:        1500.75 ave        1514 max        1489 min
Histogram: 1 1 4 0 3 0 4 0 2 1
Neighs:        11505.4 ave       11836 max       11037 min
Histogram: 1 0 1 2 2 1 3 3 1 2
FullNghs:      23010.8 ave       23610 max       22077 min
Histogram: 1 0 1 2 2 2 0 3 3 2

Total # of neighbors = 368172
Ave neighs/atom = 92.043
Neighbor list builds = 282
Dangerous builds = 0
Setting up Verlet run ...
  Unit style    : metal
  Current step  : 10000
  Time step     : 0.001
Per MPI rank memory allocation (min/avg/max) = 3.86 | 3.868 | 3.873 Mbytes
   Step          Temp          E_pair         E_mol          TotEng         Press          Volume    
     10000   2523.5812     -17384.654      0             -16080.186      2612.6368      75520.246    
    100000   2530.0817     -17339.919      0             -16032.091      336.40867      75828.271    
Loop time of 537.889 on 16 procs for 90000 steps with 4000 atoms

Performance: 14.457 ns/day, 1.660 hours/ns, 167.321 timesteps/s, 669.283 katom-step/s
99.6% CPU use with 16 MPI tasks x 1 OpenMP threads

MPI task timing breakdown:
Section |  min time  |  avg time  |  max time  |%varavg| %total
---------------------------------------------------------------
Pair    | 524.86     | 525.08     | 525.25     |   0.5 | 97.62
Neigh   | 2.2385     | 2.2738     | 2.3399     |   1.6 |  0.42
Comm    | 7.7476     | 7.8787     | 8.0173     |   3.1 |  1.46
Output  | 0.0085713  | 0.055726   | 0.081751   |  10.4 |  0.01
Modify  | 2.1971     | 2.2689     | 2.3357     |   3.1 |  0.42
Other   |            | 0.3332     |            |       |  0.06

Nlocal:            250 ave         255 max         241 min
Histogram: 2 0 1 0 1 2 1 4 0 5
Nghost:         1497.5 ave        1516 max        1477 min
Histogram: 1 0 4 2 0 0 6 0 1 2
Neighs:        11452.4 ave       11838 max       10934 min
Histogram: 2 0 1 1 2 2 2 2 2 2
FullNghs:      22904.8 ave       23628 max       21850 min
Histogram: 2 0 0 1 2 2 3 2 1 3

Total # of neighbors = 366476
Ave neighs/atom = 91.619
Neighbor list builds = 2554
Dangerous builds = 0
Setting up cg style minimization ...
  Unit style    : metal
  Current step  : 100000
Per MPI rank memory allocation (min/avg/max) = 4.985 | 4.993 | 4.998 Mbytes
   Step          Temp          E_pair         E_mol          TotEng         Press          Volume    
    100000   2530.0817     -17339.919      0             -16032.091      336.40867      75828.271    
    101188   2530.0817     -18874.226      0             -17566.398     -32929.539      75828.271    
Loop time of 14.7261 on 16 procs for 1188 steps with 4000 atoms

99.6% CPU use with 16 MPI tasks x 1 OpenMP threads

Minimization stats:
  Stopping criterion = linesearch alpha is zero
  Energy initial, next-to-last, final = 
     -17339.9193183312  -18874.2256236589  -18874.2256236589
  Force two-norm initial, final = 118.44799 1.1234907e-05
  Force max component initial, final = 7.207455 1.8270388e-06
  Final line search alpha, max atom move = 2.6904899e-07 4.9156294e-13
  Iterations, force evaluations = 1188 2110

MPI task timing breakdown:
Section |  min time  |  avg time  |  max time  |%varavg| %total
---------------------------------------------------------------
Pair    | 14.143     | 14.461     | 14.58      |   4.6 | 98.20
Neigh   | 0.012121   | 0.012463   | 0.012884   |   0.2 |  0.08
Comm    | 0.098498   | 0.21014    | 0.51654    |  36.8 |  1.43
Output  | 0          | 0          | 0          |   0.0 |  0.00
Modify  | 0          | 0          | 0          |   0.0 |  0.00
Other   |            | 0.04204    |            |       |  0.29

Nlocal:            250 ave         261 max         241 min
Histogram: 1 0 3 2 1 6 1 1 0 1
Nghost:         1494.5 ave        1510 max        1481 min
Histogram: 1 1 3 3 2 2 0 1 2 1
Neighs:        11357.7 ave       11811 max       10955 min
Histogram: 1 1 2 1 4 2 4 0 0 1
FullNghs:      22715.4 ave       23670 max       21909 min
Histogram: 1 1 2 2 2 5 2 0 0 1

Total # of neighbors = 363446
Ave neighs/atom = 90.8615
Neighbor list builds = 14
Dangerous builds = 0
Total wall time: 0:10:12
