LAMMPS (29 Aug 2024)
OMP_NUM_THREADS environment is not set. Defaulting to 1 thread. (src/comm.cpp:98)
  using 1 OpenMP thread(s) per MPI task
Lattice spacing in x,y,z = 2.951 5.1112819 4.8189628
Created orthogonal box = (0 0 0) to (29.51 51.112819 48.189628)
  2 by 4 by 2 MPI processor grid
Created 4000 atoms
  using lattice units in orthogonal box = (0 0 0) to (29.51 51.112819 48.189628)
  create_atoms CPU = 0.001 seconds
Reading meam/spline potential file md/potentials/ti_meam.spline with DATE: 2012-02-01
Neighbor list info ...
  update: every = 1 steps, delay = 0 steps, check = yes
  max neighbors/atom: 2000, page size: 100000
  master list distance cutoff = 7.5
  ghost atom cutoff = 7.5
  binsize = 3.75, bins = 8 14 13
  2 neighbor lists, perpetual/occasional/extra = 2 0 0
  (1) pair meam/spline, perpetual
      attributes: full, newton on
      pair build: full/bin/atomonly
      stencil: full/bin/3d
      bin: standard
  (2) pair meam/spline, perpetual, half/full from (1)
      attributes: half, newton on
      pair build: halffull/newton
      stencil: none
      bin: none
Setting up Verlet run ...
  Unit style    : metal
  Current step  : 0
  Time step     : 0.001
Per MPI rank memory allocation (min/avg/max) = 3.859 | 3.864 | 3.87 Mbytes
   Step          Temp          E_pair         E_mol          TotEng         Press          Volume    
         0   854.04        -19273.463      0             -18832         -36506.182      72686.31     
     10000   833.41903     -18884.295      0             -18453.492     -2799.0373      72209.806    
Loop time of 71.5697 on 16 procs for 10000 steps with 4000 atoms

Performance: 12.072 ns/day, 1.988 hours/ns, 139.724 timesteps/s, 558.896 katom-step/s
99.6% CPU use with 16 MPI tasks x 1 OpenMP threads

MPI task timing breakdown:
Section |  min time  |  avg time  |  max time  |%varavg| %total
---------------------------------------------------------------
Pair    | 70.119     | 70.227     | 70.319     |   0.8 | 98.12
Neigh   | 0.13011    | 0.13274    | 0.13622    |   0.5 |  0.19
Comm    | 0.83696    | 0.92883    | 1.037      |   6.9 |  1.30
Output  | 3.1028e-05 | 3.5959e-05 | 0.00010292 |   0.0 |  0.00
Modify  | 0.23898    | 0.24477    | 0.2526     |   0.8 |  0.34
Other   |            | 0.03597    |            |       |  0.05

Nlocal:            250 ave         257 max         241 min
Histogram: 2 1 1 1 3 1 0 0 3 4
Nghost:        1613.19 ave        1629 max        1605 min
Histogram: 3 2 4 4 0 0 0 1 1 1
Neighs:        11951.1 ave       12342 max       11553 min
Histogram: 3 1 2 2 0 1 0 2 3 2
FullNghs:      23902.1 ave       24641 max       23061 min
Histogram: 3 1 1 1 2 1 0 1 3 3

Total # of neighbors = 382434
Ave neighs/atom = 95.6085
Neighbor list builds = 144
Dangerous builds = 0
Setting up Verlet run ...
  Unit style    : metal
  Current step  : 10000
  Time step     : 0.001
Per MPI rank memory allocation (min/avg/max) = 3.859 | 3.868 | 3.873 Mbytes
   Step          Temp          E_pair         E_mol          TotEng         Press          Volume    
     10000   833.41903     -18884.295      0             -18453.492     -2799.0373      72209.806    
    100000   845.60621     -18878.283      0             -18441.18      -1309.0095      72140.67     
Loop time of 638.017 on 16 procs for 90000 steps with 4000 atoms

Performance: 12.188 ns/day, 1.969 hours/ns, 141.062 timesteps/s, 564.248 katom-step/s
99.6% CPU use with 16 MPI tasks x 1 OpenMP threads

MPI task timing breakdown:
Section |  min time  |  avg time  |  max time  |%varavg| %total
---------------------------------------------------------------
Pair    | 625.37     | 626.23     | 626.87     |   2.2 | 98.15
Neigh   | 1.1737     | 1.1979     | 1.2252     |   1.5 |  0.19
Comm    | 7.3568     | 7.9444     | 8.7351     |  18.8 |  1.25
Output  | 0.0082529  | 0.054543   | 0.082252   |  10.8 |  0.01
Modify  | 2.1595     | 2.2625     | 2.3708     |   4.1 |  0.35
Other   |            | 0.3262     |            |       |  0.05

Nlocal:            250 ave         260 max         242 min
Histogram: 1 4 3 0 0 3 1 0 3 1
Nghost:        1617.06 ave        1628 max        1599 min
Histogram: 1 0 1 1 2 1 4 1 2 3
Neighs:        11921.2 ave       12516 max       11496 min
Histogram: 3 2 2 1 0 4 0 2 1 1
FullNghs:      23842.4 ave       24932 max       23031 min
Histogram: 2 3 3 0 1 3 0 1 2 1

Total # of neighbors = 381478
Ave neighs/atom = 95.3695
Neighbor list builds = 1307
Dangerous builds = 0
Setting up cg style minimization ...
  Unit style    : metal
  Current step  : 100000
Per MPI rank memory allocation (min/avg/max) = 4.984 | 4.993 | 4.998 Mbytes
   Step          Temp          E_pair         E_mol          TotEng         Press          Volume    
    100000   845.60621     -18878.283      0             -18441.18      -1309.0095      72140.67     
    100078   845.60621     -19286.945      0             -18849.841     -29646.602      72140.67     
Loop time of 1.05081 on 16 procs for 78 steps with 4000 atoms

99.6% CPU use with 16 MPI tasks x 1 OpenMP threads

Minimization stats:
  Stopping criterion = linesearch alpha is zero
  Energy initial, next-to-last, final = 
     -18878.2834776312  -19286.9446536545  -19286.9446536545
  Force two-norm initial, final = 63.876946 1.969057e-06
  Force max component initial, final = 2.8212988 7.7132689e-08
  Final line search alpha, max atom move = 0.00043419573 3.3490684e-11
  Iterations, force evaluations = 78 151

MPI task timing breakdown:
Section |  min time  |  avg time  |  max time  |%varavg| %total
---------------------------------------------------------------
Pair    | 1.0253     | 1.0355     | 1.0405     |   0.5 | 98.55
Neigh   | 0          | 0          | 0          |   0.0 |  0.00
Comm    | 0.0074772  | 0.012379   | 0.021632   |   4.3 |  1.18
Output  | 0          | 0          | 0          |   0.0 |  0.00
Modify  | 0          | 0          | 0          |   0.0 |  0.00
Other   |            | 0.002883   |            |       |  0.27

Nlocal:            250 ave         261 max         244 min
Histogram: 4 2 2 1 2 2 1 1 0 1
Nghost:        1609.31 ave        1620 max        1590 min
Histogram: 1 0 0 1 1 3 1 6 1 2
Neighs:        11919.4 ave       12552 max       11575 min
Histogram: 2 3 3 1 3 2 1 0 0 1
FullNghs:      23838.9 ave       25032 max       23089 min
Histogram: 3 2 2 1 3 2 1 1 0 1

Total # of neighbors = 381422
Ave neighs/atom = 95.3555
Neighbor list builds = 0
Dangerous builds = 0
Total wall time: 0:11:50
