LAMMPS (29 Aug 2024)
OMP_NUM_THREADS environment is not set. Defaulting to 1 thread. (src/comm.cpp:98)
  using 1 OpenMP thread(s) per MPI task

#---------------------------- Atomic setup ------------------------------------#
units            metal
timestep         0.001
boundary         p p p
lattice          hcp 2.951
Lattice spacing in x,y,z = 2.951 5.1112819 4.8189628
region           sim_box block 0 10 0 10 0 10
create_box       1 sim_box
Created orthogonal box = (0 0 0) to (29.51 51.112819 48.189628)
  2 by 4 by 2 MPI processor grid
create_atoms     1 box
Created 4000 atoms
  using lattice units in orthogonal box = (0 0 0) to (29.51 51.112819 48.189628)
  create_atoms CPU = 0.001 seconds

pair_style       meam/spline                                             # interatomic potential (Lennard-Jones, EAM, etc.)
pair_coeff       * * ${potentials_dir}/ti_meam.spline Ti # interatomic potential parameters (ex. eam.alloy ${potentials_dir}/Cu_u3.eam)
pair_coeff       * * md/potentials/ti_meam.spline Ti 
Reading meam/spline potential file md/potentials/ti_meam.spline with DATE: 2012-02-01
pair_modify      tail yes
neigh_modify     delay 0                                                       # neighbor list update frequency (0 = every timestep)
mass             1 47.867                                                 # atomic mass
variable         rnd equal round(random(0,999999,42))

#----------------------------- Equilibriation ---------------------------------#
velocity         all create 698.76 ${rnd} dist gaussian              # initial velocities
velocity         all create 698.76 420940 dist gaussian              
fix              f2 all nph iso 0 0 1.0        # barostat
variable         rnd equal round(random(0,999999,0))
fix              f3 all temp/csvr 698.76 698.76 0.1 ${rnd} # thermostat
fix              f3 all temp/csvr 698.76 698.76 0.1 53464 
run              10000                                           # equilibriation run
Neighbor list info ...
  update: every = 1 steps, delay = 0 steps, check = yes
  max neighbors/atom: 2000, page size: 100000
  master list distance cutoff = 7.5
  ghost atom cutoff = 7.5
  binsize = 3.75, bins = 8 14 13
  2 neighbor lists, perpetual/occasional/extra = 2 0 0
  (1) pair meam/spline, perpetual
      attributes: full, newton on
      pair build: full/bin/atomonly
      stencil: full/bin/3d
      bin: standard
  (2) pair meam/spline, perpetual, half/full from (1)
      attributes: half, newton on
      pair build: halffull/newton
      stencil: none
      bin: none
Per MPI rank memory allocation (min/avg/max) = 3.859 | 3.864 | 3.87 Mbytes
   Step          Temp          E_pair         E_mol          TotEng         Press          Volume    
         0   698.76        -19273.463      0             -18912.266     -37685.682      72686.31     
     10000   689.83985     -18971.014      0             -18614.428     -699.99145      71647.287    
Loop time of 71.6182 on 16 procs for 10000 steps with 4000 atoms

Performance: 12.064 ns/day, 1.989 hours/ns, 139.629 timesteps/s, 558.517 katom-step/s
99.6% CPU use with 16 MPI tasks x 1 OpenMP threads

MPI task timing breakdown:
Section |  min time  |  avg time  |  max time  |%varavg| %total
---------------------------------------------------------------
Pair    | 70.185     | 70.284     | 70.345     |   0.6 | 98.14
Neigh   | 0.10858    | 0.11189    | 0.11722    |   0.7 |  0.16
Comm    | 0.86799    | 0.92695    | 1.0193     |   5.1 |  1.29
Output  | 4.4052e-05 | 5.3236e-05 | 0.00018484 |   0.0 |  0.00
Modify  | 0.24631    | 0.2571     | 0.26754    |   1.4 |  0.36
Other   |            | 0.0386     |            |       |  0.05

Nlocal:            250 ave         264 max         232 min
Histogram: 1 0 1 0 2 7 2 2 0 1
Nghost:        1635.25 ave        1653 max        1616 min
Histogram: 1 1 1 2 3 2 2 1 2 1
Neighs:        11970.6 ave       12690 max       10947 min
Histogram: 1 0 1 0 1 3 7 1 1 1
FullNghs:      23941.2 ave       25419 max       22031 min
Histogram: 1 0 1 0 1 7 3 1 1 1

Total # of neighbors = 383060
Ave neighs/atom = 95.765
Neighbor list builds = 121
Dangerous builds = 0

#----------------------------- Run simulation ---------------------------------#
dump             d1 all custom 10000 md/data/ti_hcp/dump_0.36.gz id type x y z # snapshots
run              90000
Per MPI rank memory allocation (min/avg/max) = 3.859 | 3.868 | 3.874 Mbytes
   Step          Temp          E_pair         E_mol          TotEng         Press          Volume    
     10000   689.83985     -18971.014      0             -18614.428     -699.99145      71647.287    
    100000   692.73639     -18959.968      0             -18601.884      218.23825      71615.651    
Loop time of 645.093 on 16 procs for 90000 steps with 4000 atoms

Performance: 12.054 ns/day, 1.991 hours/ns, 139.515 timesteps/s, 558.059 katom-step/s
99.6% CPU use with 16 MPI tasks x 1 OpenMP threads

MPI task timing breakdown:
Section |  min time  |  avg time  |  max time  |%varavg| %total
---------------------------------------------------------------
Pair    | 632.62     | 633.07     | 633.29     |   0.9 | 98.14
Neigh   | 0.98673    | 1.0124     | 1.0556     |   1.9 |  0.16
Comm    | 8.0459     | 8.2894     | 8.6912     |   7.3 |  1.28
Output  | 0.0081042  | 0.054221   | 0.082003   |  10.9 |  0.01
Modify  | 2.2095     | 2.3241     | 2.4215     |   3.8 |  0.36
Other   |            | 0.3442     |            |       |  0.05

Nlocal:            250 ave         265 max         239 min
Histogram: 1 1 1 5 2 4 1 0 0 1
Nghost:        1629.06 ave        1651 max        1605 min
Histogram: 2 1 0 2 1 4 2 2 1 1
Neighs:        11993.6 ave       12767 max       11404 min
Histogram: 1 1 1 4 5 1 2 0 0 1
FullNghs:      23987.2 ave       25604 max       22770 min
Histogram: 1 1 2 4 2 4 1 0 0 1

Total # of neighbors = 383796
Ave neighs/atom = 95.949
Neighbor list builds = 1099
Dangerous builds = 0
undump           d1
min_modify       line forcezero
minimize         0 0 100000 100000                                                                               # minimize energy
Per MPI rank memory allocation (min/avg/max) = 4.984 | 4.993 | 4.999 Mbytes
   Step          Temp          E_pair         E_mol          TotEng         Press          Volume    
    100000   692.73639     -18959.968      0             -18601.884      218.23825      71615.651    
    100073   692.73639     -19297.647      0             -18939.564     -23803.439      71615.651    
Loop time of 0.99799 on 16 procs for 73 steps with 4000 atoms

99.7% CPU use with 16 MPI tasks x 1 OpenMP threads

Minimization stats:
  Stopping criterion = linesearch alpha is zero
  Energy initial, next-to-last, final = 
     -18959.9676514368  -19297.6472080094  -19297.6472080094
  Force two-norm initial, final = 58.615119 6.1643777e-06
  Force max component initial, final = 2.4166004 2.1471147e-07
  Final line search alpha, max atom move = 6.4709524e-07 1.3893877e-13
  Iterations, force evaluations = 73 146

MPI task timing breakdown:
Section |  min time  |  avg time  |  max time  |%varavg| %total
---------------------------------------------------------------
Pair    | 0.9795     | 0.98536    | 0.98835    |   0.3 | 98.73
Neigh   | 0          | 0          | 0          |   0.0 |  0.00
Comm    | 0.0071812  | 0.01006    | 0.0155     |   2.7 |  1.01
Output  | 0          | 0          | 0          |   0.0 |  0.00
Modify  | 0          | 0          | 0          |   0.0 |  0.00
Other   |            | 0.002572   |            |       |  0.26

Nlocal:            250 ave         257 max         242 min
Histogram: 2 0 1 3 3 1 0 0 4 2
Nghost:        1633.44 ave        1645 max        1622 min
Histogram: 3 1 0 2 1 1 3 3 1 1
Neighs:        11996.4 ave       12475 max       11566 min
Histogram: 1 3 1 3 1 1 1 3 1 1
FullNghs:      23992.8 ave       24926 max       23207 min
Histogram: 2 0 5 2 1 0 0 4 1 1

Total # of neighbors = 383884
Ave neighs/atom = 95.971
Neighbor list builds = 0
Dangerous builds = 0
write_dump       all custom md/data/ti_hcp/dump_0.36_relaxed.gz id type x y z
#------------------------------------------------------------------------------#
Total wall time: 0:11:57
