LAMMPS (29 Aug 2024)
OMP_NUM_THREADS environment is not set. Defaulting to 1 thread. (src/comm.cpp:98)
  using 1 OpenMP thread(s) per MPI task
Lattice spacing in x,y,z = 2.951 5.1112819 4.8189628
Created orthogonal box = (0 0 0) to (29.51 51.112819 48.189628)
  2 by 4 by 2 MPI processor grid
Created 4000 atoms
  using lattice units in orthogonal box = (0 0 0) to (29.51 51.112819 48.189628)
  create_atoms CPU = 0.001 seconds
Reading meam/spline potential file md/potentials/ti_meam.spline with DATE: 2012-02-01
Neighbor list info ...
  update: every = 1 steps, delay = 0 steps, check = yes
  max neighbors/atom: 2000, page size: 100000
  master list distance cutoff = 7.5
  ghost atom cutoff = 7.5
  binsize = 3.75, bins = 8 14 13
  2 neighbor lists, perpetual/occasional/extra = 2 0 0
  (1) pair meam/spline, perpetual
      attributes: full, newton on
      pair build: full/bin/atomonly
      stencil: full/bin/3d
      bin: standard
  (2) pair meam/spline, perpetual, half/full from (1)
      attributes: half, newton on
      pair build: halffull/newton
      stencil: none
      bin: none
Setting up Verlet run ...
  Unit style    : metal
  Current step  : 0
  Time step     : 0.001
Per MPI rank memory allocation (min/avg/max) = 3.859 | 3.864 | 3.87 Mbytes
   Step          Temp          E_pair         E_mol          TotEng         Press          Volume    
         0   155.28        -19273.463      0             -19193.197     -41813.933      72686.31     
     10000   153.91528     -19236.455      0             -19156.894     -496.11179      70119.274    
Loop time of 71.1078 on 16 procs for 10000 steps with 4000 atoms

Performance: 12.151 ns/day, 1.975 hours/ns, 140.632 timesteps/s, 562.527 katom-step/s
99.6% CPU use with 16 MPI tasks x 1 OpenMP threads

MPI task timing breakdown:
Section |  min time  |  avg time  |  max time  |%varavg| %total
---------------------------------------------------------------
Pair    | 69.862     | 70.08      | 70.242     |   1.5 | 98.55
Neigh   | 0.00096246 | 0.0010192  | 0.0010712  |   0.1 |  0.00
Comm    | 0.5688     | 0.72431    | 0.93056    |  13.7 |  1.02
Output  | 3.3353e-05 | 3.857e-05  | 0.00010856 |   0.0 |  0.00
Modify  | 0.25678    | 0.26336    | 0.27617    |   1.4 |  0.37
Other   |            | 0.03942    |            |       |  0.06

Nlocal:            250 ave         258 max         240 min
Histogram: 2 0 1 2 1 3 2 1 2 2
Nghost:        1642.62 ave        1657 max        1629 min
Histogram: 1 0 3 2 4 2 1 0 2 1
Neighs:        12037.8 ave       12434 max       11585 min
Histogram: 2 0 2 1 2 4 0 2 1 2
FullNghs:      24075.6 ave       24857 max       23125 min
Histogram: 2 0 1 2 2 3 1 1 2 2

Total # of neighbors = 385210
Ave neighs/atom = 96.3025
Neighbor list builds = 1
Dangerous builds = 0
Setting up Verlet run ...
  Unit style    : metal
  Current step  : 10000
  Time step     : 0.001
Per MPI rank memory allocation (min/avg/max) = 3.859 | 3.868 | 3.873 Mbytes
   Step          Temp          E_pair         E_mol          TotEng         Press          Volume    
     10000   153.91528     -19236.455      0             -19156.894     -496.11179      70119.274    
    100000   157.29344     -19235.831      0             -19154.525     -1095.8731      70164.944    
Loop time of 618.714 on 16 procs for 90000 steps with 4000 atoms

Performance: 12.568 ns/day, 1.910 hours/ns, 145.463 timesteps/s, 581.852 katom-step/s
99.6% CPU use with 16 MPI tasks x 1 OpenMP threads

MPI task timing breakdown:
Section |  min time  |  avg time  |  max time  |%varavg| %total
---------------------------------------------------------------
Pair    | 604.83     | 608.66     | 610.78     |   8.8 | 98.37
Neigh   | 0          | 0          | 0          |   0.0 |  0.00
Comm    | 5.0676     | 7.4492     | 11.2       |  79.2 |  1.20
Output  | 0.0075127  | 0.052803   | 0.081328   |  11.0 |  0.01
Modify  | 1.9855     | 2.209      | 2.4696     |  11.9 |  0.36
Other   |            | 0.3437     |            |       |  0.06

Nlocal:            250 ave         260 max         240 min
Histogram: 1 1 1 4 1 1 2 3 0 2
Nghost:        1650.56 ave        1666 max        1635 min
Histogram: 1 2 3 0 0 3 2 3 1 1
Neighs:        12064.4 ave       12474 max       11535 min
Histogram: 1 1 1 2 3 0 2 0 4 2
FullNghs:      24128.9 ave       25151 max       23131 min
Histogram: 1 1 1 5 0 2 2 2 1 1

Total # of neighbors = 386062
Ave neighs/atom = 96.5155
Neighbor list builds = 0
Dangerous builds = 0
Setting up cg style minimization ...
  Unit style    : metal
  Current step  : 100000
Per MPI rank memory allocation (min/avg/max) = 4.984 | 4.993 | 4.999 Mbytes
   Step          Temp          E_pair         E_mol          TotEng         Press          Volume    
    100000   157.29344     -19235.831      0             -19154.525     -1095.8731      70164.944    
    100069   157.29344     -19314.692      0             -19233.385     -6827.8207      70164.944    
Loop time of 1.03468 on 16 procs for 69 steps with 4000 atoms

99.6% CPU use with 16 MPI tasks x 1 OpenMP threads

Minimization stats:
  Stopping criterion = linesearch alpha is zero
  Energy initial, next-to-last, final = 
     -19235.8313569038  -19314.6917463553  -19314.6917463553
  Force two-norm initial, final = 25.712818 2.8174024e-06
  Force max component initial, final = 0.86922597 1.0743801e-07
  Final line search alpha, max atom move = 0.020852531 2.2403545e-09
  Iterations, force evaluations = 69 148

MPI task timing breakdown:
Section |  min time  |  avg time  |  max time  |%varavg| %total
---------------------------------------------------------------
Pair    | 0.99887    | 1.0171     | 1.025      |   1.0 | 98.30
Neigh   | 0          | 0          | 0          |   0.0 |  0.00
Comm    | 0.007462   | 0.014666   | 0.031757   |   7.9 |  1.42
Output  | 0          | 0          | 0          |   0.0 |  0.00
Modify  | 0          | 0          | 0          |   0.0 |  0.00
Other   |            | 0.002952   |            |       |  0.29

Nlocal:            250 ave         264 max         237 min
Histogram: 1 2 1 2 3 1 2 3 0 1
Nghost:           1654 ave        1666 max        1642 min
Histogram: 3 0 1 2 1 1 3 4 0 1
Neighs:        12051.1 ave       12741 max       11300 min
Histogram: 1 0 2 2 2 3 1 3 1 1
FullNghs:      24102.2 ave       25506 max       22761 min
Histogram: 1 2 1 2 2 2 2 3 0 1

Total # of neighbors = 385636
Ave neighs/atom = 96.409
Neighbor list builds = 0
Dangerous builds = 0
Total wall time: 0:11:30
