LAMMPS (29 Aug 2024)
OMP_NUM_THREADS environment is not set. Defaulting to 1 thread. (src/comm.cpp:98)
  using 1 OpenMP thread(s) per MPI task
Lattice spacing in x,y,z = 2.951 5.1112819 4.8189628
Created orthogonal box = (0 0 0) to (29.51 51.112819 48.189628)
  2 by 4 by 2 MPI processor grid
Created 4000 atoms
  using lattice units in orthogonal box = (0 0 0) to (29.51 51.112819 48.189628)
  create_atoms CPU = 0.001 seconds
Reading meam/spline potential file md/potentials/ti_meam.spline with DATE: 2012-02-01
Neighbor list info ...
  update: every = 1 steps, delay = 0 steps, check = yes
  max neighbors/atom: 2000, page size: 100000
  master list distance cutoff = 7.5
  ghost atom cutoff = 7.5
  binsize = 3.75, bins = 8 14 13
  2 neighbor lists, perpetual/occasional/extra = 2 0 0
  (1) pair meam/spline, perpetual
      attributes: full, newton on
      pair build: full/bin/atomonly
      stencil: full/bin/3d
      bin: standard
  (2) pair meam/spline, perpetual, half/full from (1)
      attributes: half, newton on
      pair build: halffull/newton
      stencil: none
      bin: none
Setting up Verlet run ...
  Unit style    : metal
  Current step  : 0
  Time step     : 0.001
Per MPI rank memory allocation (min/avg/max) = 3.859 | 3.864 | 3.87 Mbytes
   Step          Temp          E_pair         E_mol          TotEng         Press          Volume    
         0   2484.48       -19273.463      0             -17989.207     -24121.429      72686.31     
     10000   2433.4032     -17431.109      0             -16173.255     -899.61787      75668.794    
Loop time of 60.0644 on 16 procs for 10000 steps with 4000 atoms

Performance: 14.385 ns/day, 1.668 hours/ns, 166.488 timesteps/s, 665.952 katom-step/s
99.6% CPU use with 16 MPI tasks x 1 OpenMP threads

MPI task timing breakdown:
Section |  min time  |  avg time  |  max time  |%varavg| %total
---------------------------------------------------------------
Pair    | 58.565     | 58.722     | 58.83      |   1.2 | 97.77
Neigh   | 0.24129    | 0.24491    | 0.24828    |   0.4 |  0.41
Comm    | 0.71054    | 0.82106    | 0.97676    |  10.6 |  1.37
Output  | 3.1409e-05 | 3.7217e-05 | 0.00011748 |   0.0 |  0.00
Modify  | 0.23574    | 0.24103    | 0.24514    |   0.7 |  0.40
Other   |            | 0.03493    |            |       |  0.06

Nlocal:            250 ave         261 max         237 min
Histogram: 1 1 1 0 1 5 3 2 1 1
Nghost:        1493.81 ave        1504 max        1479 min
Histogram: 1 0 1 1 2 2 2 4 2 1
Neighs:        11468.4 ave       12095 max       10788 min
Histogram: 1 1 1 0 1 8 2 0 0 2
FullNghs:      22936.9 ave       24241 max       21689 min
Histogram: 2 1 0 0 6 3 2 0 0 2

Total # of neighbors = 366990
Ave neighs/atom = 91.7475
Neighbor list builds = 277
Dangerous builds = 0
Setting up Verlet run ...
  Unit style    : metal
  Current step  : 10000
  Time step     : 0.001
Per MPI rank memory allocation (min/avg/max) = 3.86 | 3.868 | 3.873 Mbytes
   Step          Temp          E_pair         E_mol          TotEng         Press          Volume    
     10000   2433.4032     -17431.109      0             -16173.255     -899.61787      75668.794    
    100000   2444.2346     -17363.559      0             -16100.106     -2488.7535      75674.283    
Loop time of 538.753 on 16 procs for 90000 steps with 4000 atoms

Performance: 14.433 ns/day, 1.663 hours/ns, 167.052 timesteps/s, 668.209 katom-step/s
99.6% CPU use with 16 MPI tasks x 1 OpenMP threads

MPI task timing breakdown:
Section |  min time  |  avg time  |  max time  |%varavg| %total
---------------------------------------------------------------
Pair    | 526.21     | 526.66     | 526.95     |   1.0 | 97.76
Neigh   | 2.2111     | 2.2332     | 2.2501     |   0.8 |  0.41
Comm    | 6.9659     | 7.3052     | 7.8287     |   9.3 |  1.36
Output  | 0.0086431  | 0.056013   | 0.082208   |  10.4 |  0.01
Modify  | 2.1089     | 2.1789     | 2.2374     |   2.8 |  0.40
Other   |            | 0.3183     |            |       |  0.06

Nlocal:            250 ave         255 max         242 min
Histogram: 2 0 1 0 0 1 6 3 0 3
Nghost:        1497.19 ave        1517 max        1479 min
Histogram: 1 3 1 1 2 1 2 4 0 1
Neighs:        11480.8 ave       11787 max       11100 min
Histogram: 2 0 1 0 2 2 4 3 1 1
FullNghs:      22961.5 ave       23657 max       22097 min
Histogram: 1 1 1 0 1 3 6 1 1 1

Total # of neighbors = 367384
Ave neighs/atom = 91.846
Neighbor list builds = 2515
Dangerous builds = 0
Setting up cg style minimization ...
  Unit style    : metal
  Current step  : 100000
Per MPI rank memory allocation (min/avg/max) = 4.985 | 4.994 | 4.998 Mbytes
   Step          Temp          E_pair         E_mol          TotEng         Press          Volume    
    100000   2444.2346     -17363.559      0             -16100.106     -2488.7535      75674.283    
    101910   2444.2346     -18875.226      0             -17611.774     -31661.268      75674.283    
Loop time of 26.3982 on 16 procs for 1910 steps with 4000 atoms

99.6% CPU use with 16 MPI tasks x 1 OpenMP threads

Minimization stats:
  Stopping criterion = linesearch alpha is zero
  Energy initial, next-to-last, final = 
     -17363.5588386912  -18875.2264456938  -18875.2264456938
  Force two-norm initial, final = 116.61682 1.1464634e-05
  Force max component initial, final = 6.6109602 2.5679814e-06
  Final line search alpha, max atom move = 0.018091633 4.6458977e-08
  Iterations, force evaluations = 1910 3703

MPI task timing breakdown:
Section |  min time  |  avg time  |  max time  |%varavg| %total
---------------------------------------------------------------
Pair    | 24.918     | 25.652     | 26.182     |   8.3 | 97.17
Neigh   | 0.01576    | 0.016133   | 0.016591   |   0.2 |  0.06
Comm    | 0.14579    | 0.59668    | 1.3959     |  60.8 |  2.26
Output  | 0          | 0          | 0          |   0.0 |  0.00
Modify  | 0          | 0          | 0          |   0.0 |  0.00
Other   |            | 0.1331     |            |       |  0.50

Nlocal:            250 ave         256 max         240 min
Histogram: 1 0 0 2 0 3 4 2 2 2
Nghost:        1493.88 ave        1509 max        1480 min
Histogram: 3 0 2 2 1 1 2 3 0 2
Neighs:        11404.1 ave       11715 max       10972 min
Histogram: 1 0 0 3 2 2 2 4 1 1
FullNghs:      22808.2 ave       23428 max       21907 min
Histogram: 1 0 1 2 1 2 3 4 1 1

Total # of neighbors = 364932
Ave neighs/atom = 91.233
Neighbor list builds = 18
Dangerous builds = 0
Total wall time: 0:10:25
