LAMMPS (29 Aug 2024)
OMP_NUM_THREADS environment is not set. Defaulting to 1 thread. (src/comm.cpp:98)
  using 1 OpenMP thread(s) per MPI task

#---------------------------- Atomic setup ------------------------------------#
units            metal
timestep         0.001
boundary         p p p
lattice          hcp 2.951
Lattice spacing in x,y,z = 2.951 5.1112819 4.8189628
region           sim_box block 0 10 0 10 0 10
create_box       1 sim_box
Created orthogonal box = (0 0 0) to (29.51 51.112819 48.189628)
  2 by 4 by 2 MPI processor grid
create_atoms     1 box
Created 4000 atoms
  using lattice units in orthogonal box = (0 0 0) to (29.51 51.112819 48.189628)
  create_atoms CPU = 0.001 seconds

pair_style       meam/spline                                             # interatomic potential (Lennard-Jones, EAM, etc.)
pair_coeff       * * ${potentials_dir}/ti_meam.spline Ti # interatomic potential parameters (ex. eam.alloy ${potentials_dir}/Cu_u3.eam)
pair_coeff       * * md/potentials/ti_meam.spline Ti 
Reading meam/spline potential file md/potentials/ti_meam.spline with DATE: 2012-02-01
pair_modify      tail yes
neigh_modify     delay 0                                                       # neighbor list update frequency (0 = every timestep)
mass             1 47.867                                                 # atomic mass
variable         rnd equal round(random(0,999999,42))

#----------------------------- Equilibriation ---------------------------------#
velocity         all create 1319.88 ${rnd} dist gaussian              # initial velocities
velocity         all create 1319.88 420940 dist gaussian              
fix              f2 all nph iso 0 0 1.0        # barostat
variable         rnd equal round(random(0,999999,0))
fix              f3 all temp/csvr 1319.88 1319.88 0.1 ${rnd} # thermostat
fix              f3 all temp/csvr 1319.88 1319.88 0.1 53464 
run              10000                                           # equilibriation run
Neighbor list info ...
  update: every = 1 steps, delay = 0 steps, check = yes
  max neighbors/atom: 2000, page size: 100000
  master list distance cutoff = 7.5
  ghost atom cutoff = 7.5
  binsize = 3.75, bins = 8 14 13
  2 neighbor lists, perpetual/occasional/extra = 2 0 0
  (1) pair meam/spline, perpetual
      attributes: full, newton on
      pair build: full/bin/atomonly
      stencil: full/bin/3d
      bin: standard
  (2) pair meam/spline, perpetual, half/full from (1)
      attributes: half, newton on
      pair build: halffull/newton
      stencil: none
      bin: none
Per MPI rank memory allocation (min/avg/max) = 3.859 | 3.864 | 3.87 Mbytes
   Step          Temp          E_pair         E_mol          TotEng         Press          Volume    
         0   1319.88       -19273.463      0             -18591.202     -32967.681      72686.31     
     10000   1289.7127     -18629.977      0             -17963.309     -1292.5056      73226.178    
Loop time of 68.584 on 16 procs for 10000 steps with 4000 atoms

Performance: 12.598 ns/day, 1.905 hours/ns, 145.807 timesteps/s, 583.227 katom-step/s
99.6% CPU use with 16 MPI tasks x 1 OpenMP threads

MPI task timing breakdown:
Section |  min time  |  avg time  |  max time  |%varavg| %total
---------------------------------------------------------------
Pair    | 67.013     | 67.179     | 67.316     |   1.3 | 97.95
Neigh   | 0.17175    | 0.17549    | 0.17877    |   0.5 |  0.26
Comm    | 0.79885    | 0.93975    | 1.1098     |  11.4 |  1.37
Output  | 3.2591e-05 | 4.2698e-05 | 0.0001831  |   0.0 |  0.00
Modify  | 0.24761    | 0.25237    | 0.25603    |   0.5 |  0.37
Other   |            | 0.03749    |            |       |  0.05

Nlocal:            250 ave         256 max         242 min
Histogram: 1 0 2 3 1 3 0 0 2 4
Nghost:        1578.19 ave        1591 max        1570 min
Histogram: 5 0 1 1 4 2 1 1 0 1
Neighs:        11767.6 ave       12198 max       11369 min
Histogram: 2 0 3 1 3 2 1 2 1 1
FullNghs:      23535.2 ave       24331 max       22568 min
Histogram: 1 0 2 4 0 3 0 1 3 2

Total # of neighbors = 376564
Ave neighs/atom = 94.141
Neighbor list builds = 193
Dangerous builds = 0

#----------------------------- Run simulation ---------------------------------#
dump             d1 all custom 10000 md/data/ti_hcp/dump_0.68.gz id type x y z # snapshots
run              90000
Per MPI rank memory allocation (min/avg/max) = 3.859 | 3.868 | 3.873 Mbytes
   Step          Temp          E_pair         E_mol          TotEng         Press          Volume    
     10000   1289.7127     -18629.977      0             -17963.309     -1292.5056      73226.178    
    100000   1320.134      -18623.002      0             -17940.609     -1720.2063      73358.822    
Loop time of 614.661 on 16 procs for 90000 steps with 4000 atoms

Performance: 12.651 ns/day, 1.897 hours/ns, 146.422 timesteps/s, 585.689 katom-step/s
99.6% CPU use with 16 MPI tasks x 1 OpenMP threads

MPI task timing breakdown:
Section |  min time  |  avg time  |  max time  |%varavg| %total
---------------------------------------------------------------
Pair    | 599.84     | 602.09     | 603.16     |   5.2 | 97.96
Neigh   | 1.5594     | 1.5909     | 1.6198     |   1.6 |  0.26
Comm    | 7.1714     | 8.2928     | 10.541     |  44.6 |  1.35
Output  | 0.0081819  | 0.054477   | 0.082164   |  10.8 |  0.01
Modify  | 2.1853     | 2.2931     | 2.3511     |   3.4 |  0.37
Other   |            | 0.3381     |            |       |  0.06

Nlocal:            250 ave         263 max         238 min
Histogram: 2 0 1 1 4 1 6 0 0 1
Nghost:        1572.75 ave        1588 max        1549 min
Histogram: 3 0 0 0 0 1 6 2 2 2
Neighs:        11745.5 ave       12443 max       11109 min
Histogram: 2 1 1 2 1 3 3 2 0 1
FullNghs:        23491 ave       24883 max       22337 min
Histogram: 2 2 0 3 1 2 5 0 0 1

Total # of neighbors = 375856
Ave neighs/atom = 93.964
Neighbor list builds = 1755
Dangerous builds = 0
undump           d1
min_modify       line forcezero
minimize         0 0 100000 100000                                                                               # minimize energy
Per MPI rank memory allocation (min/avg/max) = 4.984 | 4.993 | 4.998 Mbytes
   Step          Temp          E_pair         E_mol          TotEng         Press          Volume    
    100000   1320.134      -18623.002      0             -17940.609     -1720.2063      73358.822    
    100092   1320.134      -19253.735      0             -18571.343     -40949.103      73358.822    
Loop time of 1.24952 on 16 procs for 92 steps with 4000 atoms

99.6% CPU use with 16 MPI tasks x 1 OpenMP threads

Minimization stats:
  Stopping criterion = linesearch alpha is zero
  Energy initial, next-to-last, final = 
     -18623.0016627826  -19253.7348400841  -19253.7348400841
  Force two-norm initial, final = 79.874864 5.9975718e-06
  Force max component initial, final = 3.3622968 2.7305509e-07
  Final line search alpha, max atom move = 0.42619194 1.1637388e-07
  Iterations, force evaluations = 92 181

MPI task timing breakdown:
Section |  min time  |  avg time  |  max time  |%varavg| %total
---------------------------------------------------------------
Pair    | 1.2272     | 1.2318     | 1.2368     |   0.3 | 98.58
Neigh   | 0.0008233  | 0.00087987 | 0.00092758 |   0.0 |  0.07
Comm    | 0.0089627  | 0.01333    | 0.017268   |   2.3 |  1.07
Output  | 0          | 0          | 0          |   0.0 |  0.00
Modify  | 0          | 0          | 0          |   0.0 |  0.00
Other   |            | 0.003534   |            |       |  0.28

Nlocal:            250 ave         259 max         233 min
Histogram: 1 0 0 2 2 1 2 1 4 3
Nghost:        1616.75 ave        1632 max        1603 min
Histogram: 1 4 2 0 1 1 3 2 0 2
Neighs:        11496.4 ave       12139 max       10356 min
Histogram: 1 1 1 0 0 3 3 1 4 2
FullNghs:      22992.8 ave       23826 max       21427 min
Histogram: 1 0 0 2 2 1 2 1 4 3

Total # of neighbors = 367884
Ave neighs/atom = 91.971
Neighbor list builds = 1
Dangerous builds = 0
write_dump       all custom md/data/ti_hcp/dump_0.68_relaxed.gz id type x y z
#------------------------------------------------------------------------------#
Total wall time: 0:11:24
