LAMMPS (29 Aug 2024)
OMP_NUM_THREADS environment is not set. Defaulting to 1 thread. (src/comm.cpp:98)
  using 1 OpenMP thread(s) per MPI task
Lattice spacing in x,y,z = 2.951 5.1112819 4.8189628
Created orthogonal box = (0 0 0) to (29.51 51.112819 48.189628)
  2 by 4 by 2 MPI processor grid
Created 4000 atoms
  using lattice units in orthogonal box = (0 0 0) to (29.51 51.112819 48.189628)
  create_atoms CPU = 0.001 seconds
Reading meam/spline potential file md/potentials/ti_meam.spline with DATE: 2012-02-01
Neighbor list info ...
  update: every = 1 steps, delay = 0 steps, check = yes
  max neighbors/atom: 2000, page size: 100000
  master list distance cutoff = 7.5
  ghost atom cutoff = 7.5
  binsize = 3.75, bins = 8 14 13
  2 neighbor lists, perpetual/occasional/extra = 2 0 0
  (1) pair meam/spline, perpetual
      attributes: full, newton on
      pair build: full/bin/atomonly
      stencil: full/bin/3d
      bin: standard
  (2) pair meam/spline, perpetual, half/full from (1)
      attributes: half, newton on
      pair build: halffull/newton
      stencil: none
      bin: none
Setting up Verlet run ...
  Unit style    : metal
  Current step  : 0
  Time step     : 0.001
Per MPI rank memory allocation (min/avg/max) = 3.859 | 3.864 | 3.87 Mbytes
   Step          Temp          E_pair         E_mol          TotEng         Press          Volume    
         0   1630.44       -19273.463      0             -18430.67      -30608.681      72686.31     
     10000   1598.4876     -18452.532      0             -17626.256      2742.7908      73685.713    
Loop time of 66.4611 on 16 procs for 10000 steps with 4000 atoms

Performance: 13.000 ns/day, 1.846 hours/ns, 150.464 timesteps/s, 601.856 katom-step/s
99.6% CPU use with 16 MPI tasks x 1 OpenMP threads

MPI task timing breakdown:
Section |  min time  |  avg time  |  max time  |%varavg| %total
---------------------------------------------------------------
Pair    | 64.901     | 64.967     | 65.091     |   0.9 | 97.75
Neigh   | 0.19487    | 0.19882    | 0.20184    |   0.5 |  0.30
Comm    | 0.88016    | 1.0027     | 1.0762     |   7.4 |  1.51
Output  | 3.0557e-05 | 3.6341e-05 | 0.00011414 |   0.0 |  0.00
Modify  | 0.25048    | 0.25476    | 0.26021    |   0.7 |  0.38
Other   |            | 0.0376     |            |       |  0.06

Nlocal:            250 ave         257 max         236 min
Histogram: 1 0 1 1 0 1 3 4 2 3
Nghost:         1556.5 ave        1570 max        1542 min
Histogram: 1 2 2 1 1 3 1 2 1 2
Neighs:        11714.1 ave       12071 max       10942 min
Histogram: 1 0 0 1 1 1 2 5 2 3
FullNghs:      23428.1 ave       24167 max       21843 min
Histogram: 1 0 0 2 0 1 1 6 2 3

Total # of neighbors = 374850
Ave neighs/atom = 93.7125
Neighbor list builds = 221
Dangerous builds = 0
Setting up Verlet run ...
  Unit style    : metal
  Current step  : 10000
  Time step     : 0.001
Per MPI rank memory allocation (min/avg/max) = 3.859 | 3.868 | 3.873 Mbytes
   Step          Temp          E_pair         E_mol          TotEng         Press          Volume    
     10000   1598.4876     -18452.532      0             -17626.256      2742.7908      73685.713    
    100000   1621.2596     -18435.774      0             -17597.727     -1585.1202      74018.879    
Loop time of 595.036 on 16 procs for 90000 steps with 4000 atoms

Performance: 13.068 ns/day, 1.837 hours/ns, 151.251 timesteps/s, 605.006 katom-step/s
99.6% CPU use with 16 MPI tasks x 1 OpenMP threads

MPI task timing breakdown:
Section |  min time  |  avg time  |  max time  |%varavg| %total
---------------------------------------------------------------
Pair    | 581.67     | 581.81     | 582.03     |   0.4 | 97.78
Neigh   | 1.7531     | 1.7872     | 1.8141     |   1.4 |  0.30
Comm    | 8.4629     | 8.734      | 8.848      |   3.2 |  1.47
Output  | 0.0080696  | 0.053983   | 0.08137    |  10.7 |  0.01
Modify  | 2.2388     | 2.3099     | 2.3917     |   3.4 |  0.39
Other   |            | 0.3406     |            |       |  0.06

Nlocal:            250 ave         261 max         239 min
Histogram: 1 1 0 4 2 4 0 2 0 2
Nghost:         1542.5 ave        1561 max        1517 min
Histogram: 1 1 0 2 3 3 0 1 2 3
Neighs:        11653.2 ave       12237 max       11155 min
Histogram: 2 0 1 5 2 2 1 2 0 1
FullNghs:      23306.5 ave       24332 max       22279 min
Histogram: 1 1 1 2 4 2 1 1 2 1

Total # of neighbors = 372904
Ave neighs/atom = 93.226
Neighbor list builds = 1992
Dangerous builds = 0
Setting up cg style minimization ...
  Unit style    : metal
  Current step  : 100000
Per MPI rank memory allocation (min/avg/max) = 4.984 | 4.993 | 4.998 Mbytes
   Step          Temp          E_pair         E_mol          TotEng         Press          Volume    
    100000   1621.2596     -18435.774      0             -17597.727     -1585.1202      74018.879    
    100205   1621.2596     -19231.704      0             -18393.657     -43106.236      74018.879    
Loop time of 3.45125 on 16 procs for 205 steps with 4000 atoms

99.5% CPU use with 16 MPI tasks x 1 OpenMP threads

Minimization stats:
  Stopping criterion = linesearch alpha is zero
  Energy initial, next-to-last, final = 
     -18435.7742486861  -19231.7041170816  -19231.7041170816
  Force two-norm initial, final = 88.739503 4.1747761e-06
  Force max component initial, final = 3.9131633 1.5132344e-07
  Final line search alpha, max atom move = 0.065860689 9.9662662e-09
  Iterations, force evaluations = 205 497

MPI task timing breakdown:
Section |  min time  |  avg time  |  max time  |%varavg| %total
---------------------------------------------------------------
Pair    | 3.3751     | 3.3883     | 3.42       |   0.5 | 98.18
Neigh   | 0.0008179  | 0.00087574 | 0.00094495 |   0.0 |  0.03
Comm    | 0.021932   | 0.047742   | 0.067108   |   6.4 |  1.38
Output  | 0          | 0          | 0          |   0.0 |  0.00
Modify  | 0          | 0          | 0          |   0.0 |  0.00
Other   |            | 0.01434    |            |       |  0.42

Nlocal:            250 ave         264 max         236 min
Histogram: 2 0 3 2 2 1 1 2 1 2
Nghost:        1580.25 ave        1605 max        1557 min
Histogram: 1 0 2 3 2 4 1 1 1 1
Neighs:        11277.8 ave       11958 max       10430 min
Histogram: 2 0 2 1 2 1 2 2 1 3
FullNghs:      22555.6 ave       23951 max       21196 min
Histogram: 2 0 3 2 2 1 2 1 1 2

Total # of neighbors = 360890
Ave neighs/atom = 90.2225
Neighbor list builds = 1
Dangerous builds = 0
Total wall time: 0:11:05
