LAMMPS (29 Aug 2024)
OMP_NUM_THREADS environment is not set. Defaulting to 1 thread. (src/comm.cpp:98)
  using 1 OpenMP thread(s) per MPI task

#---------------------------- Atomic setup ------------------------------------#
units            metal
timestep         0.001
boundary         p p p
lattice          hcp 2.951
Lattice spacing in x,y,z = 2.951 5.1112819 4.8189628
region           sim_box block 0 10 0 10 0 10
create_box       1 sim_box
Created orthogonal box = (0 0 0) to (29.51 51.112819 48.189628)
  2 by 4 by 2 MPI processor grid
create_atoms     1 box
Created 4000 atoms
  using lattice units in orthogonal box = (0 0 0) to (29.51 51.112819 48.189628)
  create_atoms CPU = 0.001 seconds

pair_style       meam/spline                                             # interatomic potential (Lennard-Jones, EAM, etc.)
pair_coeff       * * ${potentials_dir}/ti_meam.spline Ti # interatomic potential parameters (ex. eam.alloy ${potentials_dir}/Cu_u3.eam)
pair_coeff       * * md/potentials/ti_meam.spline Ti 
Reading meam/spline potential file md/potentials/ti_meam.spline with DATE: 2012-02-01
pair_modify      tail yes
neigh_modify     delay 0                                                       # neighbor list update frequency (0 = every timestep)
mass             1 47.867                                                 # atomic mass
variable         rnd equal round(random(0,999999,42))

#----------------------------- Equilibriation ---------------------------------#
velocity         all create 1009.32 ${rnd} dist gaussian              # initial velocities
velocity         all create 1009.32 420940 dist gaussian              
fix              f2 all nph iso 0 0 1.0        # barostat
variable         rnd equal round(random(0,999999,0))
fix              f3 all temp/csvr 1009.32 1009.32 0.1 ${rnd} # thermostat
fix              f3 all temp/csvr 1009.32 1009.32 0.1 53464 
run              10000                                           # equilibriation run
Neighbor list info ...
  update: every = 1 steps, delay = 0 steps, check = yes
  max neighbors/atom: 2000, page size: 100000
  master list distance cutoff = 7.5
  ghost atom cutoff = 7.5
  binsize = 3.75, bins = 8 14 13
  2 neighbor lists, perpetual/occasional/extra = 2 0 0
  (1) pair meam/spline, perpetual
      attributes: full, newton on
      pair build: full/bin/atomonly
      stencil: full/bin/3d
      bin: standard
  (2) pair meam/spline, perpetual, half/full from (1)
      attributes: half, newton on
      pair build: halffull/newton
      stencil: none
      bin: none
Per MPI rank memory allocation (min/avg/max) = 3.859 | 3.864 | 3.87 Mbytes
   Step          Temp          E_pair         E_mol          TotEng         Press          Volume    
         0   1009.32       -19273.463      0             -18751.734     -35326.682      72686.31     
     10000   998.844       -18807.433      0             -18291.12      -367.77084      72387.659    
Loop time of 70.2265 on 16 procs for 10000 steps with 4000 atoms

Performance: 12.303 ns/day, 1.951 hours/ns, 142.396 timesteps/s, 569.585 katom-step/s
99.6% CPU use with 16 MPI tasks x 1 OpenMP threads

MPI task timing breakdown:
Section |  min time  |  avg time  |  max time  |%varavg| %total
---------------------------------------------------------------
Pair    | 68.526     | 68.658     | 68.778     |   1.2 | 97.77
Neigh   | 0.14391    | 0.14711    | 0.1508     |   0.5 |  0.21
Comm    | 0.99617    | 1.1056     | 1.2148     |   7.4 |  1.57
Output  | 3.0628e-05 | 3.2195e-05 | 4.3431e-05 |   0.0 |  0.00
Modify  | 0.23647    | 0.27757    | 0.32906    |   5.3 |  0.40
Other   |            | 0.0378     |            |       |  0.05

Nlocal:            250 ave         260 max         231 min
Histogram: 2 0 0 1 0 4 1 1 3 4
Nghost:        1600.38 ave        1637 max        1586 min
Histogram: 5 5 0 3 0 1 0 1 0 1
Neighs:          11914 ave       12483 max       10956 min
Histogram: 2 0 0 1 3 2 0 1 2 5
FullNghs:        23828 ave       24806 max       21885 min
Histogram: 2 0 0 0 2 3 1 1 2 5

Total # of neighbors = 381248
Ave neighs/atom = 95.312
Neighbor list builds = 162
Dangerous builds = 0

#----------------------------- Run simulation ---------------------------------#
dump             d1 all custom 10000 md/data/ti_hcp/dump_0.52.gz id type x y z # snapshots
run              90000
Per MPI rank memory allocation (min/avg/max) = 3.859 | 3.868 | 3.873 Mbytes
   Step          Temp          E_pair         E_mol          TotEng         Press          Volume    
     10000   998.844       -18807.433      0             -18291.12      -367.77084      72387.659    
    100000   992.54795     -18789.62       0             -18276.561     -276.94727      72427.625    
Loop time of 630.801 on 16 procs for 90000 steps with 4000 atoms

Performance: 12.327 ns/day, 1.947 hours/ns, 142.676 timesteps/s, 570.703 katom-step/s
99.6% CPU use with 16 MPI tasks x 1 OpenMP threads

MPI task timing breakdown:
Section |  min time  |  avg time  |  max time  |%varavg| %total
---------------------------------------------------------------
Pair    | 616.02     | 616.53     | 616.99     |   1.5 | 97.74
Neigh   | 1.3123     | 1.3408     | 1.3754     |   1.6 |  0.21
Comm    | 9.6699     | 10.047     | 10.596     |   8.6 |  1.59
Output  | 0.0081749  | 0.05381    | 0.081728   |  10.8 |  0.01
Modify  | 2.1708     | 2.4896     | 2.8487     |  13.4 |  0.39
Other   |            | 0.3381     |            |       |  0.05

Nlocal:            250 ave         262 max         241 min
Histogram: 3 1 1 3 2 2 2 1 0 1
Nghost:        1605.56 ave        1625 max        1590 min
Histogram: 2 0 2 1 6 2 0 1 1 1
Neighs:        11896.2 ave       12572 max       11353 min
Histogram: 2 1 1 2 4 2 2 1 0 1
FullNghs:      23792.4 ave       25127 max       22764 min
Histogram: 2 1 2 2 4 1 1 2 0 1

Total # of neighbors = 380678
Ave neighs/atom = 95.1695
Neighbor list builds = 1482
Dangerous builds = 0
undump           d1
min_modify       line forcezero
minimize         0 0 100000 100000                                                                               # minimize energy
Per MPI rank memory allocation (min/avg/max) = 4.984 | 4.993 | 4.998 Mbytes
   Step          Temp          E_pair         E_mol          TotEng         Press          Volume    
    100000   992.54795     -18789.62       0             -18276.561     -276.94727      72427.625    
    100076   992.54795     -19280.146      0             -18767.087     -32215.207      72427.625    
Loop time of 1.02041 on 16 procs for 76 steps with 4000 atoms

99.6% CPU use with 16 MPI tasks x 1 OpenMP threads

Minimization stats:
  Stopping criterion = linesearch alpha is zero
  Energy initial, next-to-last, final = 
     -18789.6204844081  -19280.1461160603  -19280.1461160603
  Force two-norm initial, final = 70.802407 4.4997651e-06
  Force max component initial, final = 2.8010131 1.6846927e-07
  Final line search alpha, max atom move = 6.609297e-07 1.1134635e-13
  Iterations, force evaluations = 76 147

MPI task timing breakdown:
Section |  min time  |  avg time  |  max time  |%varavg| %total
---------------------------------------------------------------
Pair    | 0.9802     | 0.99961    | 1.0084     |   1.1 | 97.96
Neigh   | 0          | 0          | 0          |   0.0 |  0.00
Comm    | 0.0095419  | 0.018037   | 0.037178   |   7.8 |  1.77
Output  | 0          | 0          | 0          |   0.0 |  0.00
Modify  | 0          | 0          | 0          |   0.0 |  0.00
Other   |            | 0.00277    |            |       |  0.27

Nlocal:            250 ave         262 max         240 min
Histogram: 2 1 2 1 3 3 2 1 0 1
Nghost:        1603.44 ave        1622 max        1576 min
Histogram: 1 0 0 1 3 4 1 3 2 1
Neighs:        11894.2 ave       12595 max       11259 min
Histogram: 1 2 0 2 4 3 2 1 0 1
FullNghs:      23788.5 ave       25147 max       22627 min
Histogram: 1 2 0 4 4 1 2 0 1 1

Total # of neighbors = 380616
Ave neighs/atom = 95.154
Neighbor list builds = 0
Dangerous builds = 0
write_dump       all custom md/data/ti_hcp/dump_0.52_relaxed.gz id type x y z
#------------------------------------------------------------------------------#
Total wall time: 0:11:42
