LAMMPS (29 Aug 2024)
OMP_NUM_THREADS environment is not set. Defaulting to 1 thread. (src/comm.cpp:98)
  using 1 OpenMP thread(s) per MPI task

#---------------------------- Atomic setup ------------------------------------#
units            metal
timestep         0.001
boundary         p p p
lattice          hcp 2.951
Lattice spacing in x,y,z = 2.951 5.1112819 4.8189628
region           sim_box block 0 10 0 10 0 10
create_box       1 sim_box
Created orthogonal box = (0 0 0) to (29.51 51.112819 48.189628)
  2 by 4 by 2 MPI processor grid
create_atoms     1 box
Created 4000 atoms
  using lattice units in orthogonal box = (0 0 0) to (29.51 51.112819 48.189628)
  create_atoms CPU = 0.000 seconds

pair_style       meam/spline                                             # interatomic potential (Lennard-Jones, EAM, etc.)
pair_coeff       * * ${potentials_dir}/ti_meam.spline Ti # interatomic potential parameters (ex. eam.alloy ${potentials_dir}/Cu_u3.eam)
pair_coeff       * * md/potentials/ti_meam.spline Ti 
Reading meam/spline potential file md/potentials/ti_meam.spline with DATE: 2012-02-01
pair_modify      tail yes
neigh_modify     delay 0                                                       # neighbor list update frequency (0 = every timestep)
mass             1 47.867                                                 # atomic mass
variable         rnd equal round(random(0,999999,42))

#----------------------------- Equilibriation ---------------------------------#
velocity         all create 465.84 ${rnd} dist gaussian              # initial velocities
velocity         all create 465.84 420940 dist gaussian              
fix              f2 all nph iso 0 0 1.0        # barostat
variable         rnd equal round(random(0,999999,0))
fix              f3 all temp/csvr 465.84 465.84 0.1 ${rnd} # thermostat
fix              f3 all temp/csvr 465.84 465.84 0.1 53464 
run              10000                                           # equilibriation run
Neighbor list info ...
  update: every = 1 steps, delay = 0 steps, check = yes
  max neighbors/atom: 2000, page size: 100000
  master list distance cutoff = 7.5
  ghost atom cutoff = 7.5
  binsize = 3.75, bins = 8 14 13
  2 neighbor lists, perpetual/occasional/extra = 2 0 0
  (1) pair meam/spline, perpetual
      attributes: full, newton on
      pair build: full/bin/atomonly
      stencil: full/bin/3d
      bin: standard
  (2) pair meam/spline, perpetual, half/full from (1)
      attributes: half, newton on
      pair build: halffull/newton
      stencil: none
      bin: none
Per MPI rank memory allocation (min/avg/max) = 3.859 | 3.864 | 3.87 Mbytes
   Step          Temp          E_pair         E_mol          TotEng         Press          Volume    
         0   465.84        -19273.463      0             -19032.665     -39454.933      72686.31     
     10000   455.68142     -19082.98       0             -18847.433     -1623.4627      71069.787    
Loop time of 70.7294 on 16 procs for 10000 steps with 4000 atoms

Performance: 12.216 ns/day, 1.965 hours/ns, 141.384 timesteps/s, 565.535 katom-step/s
99.6% CPU use with 16 MPI tasks x 1 OpenMP threads

MPI task timing breakdown:
Section |  min time  |  avg time  |  max time  |%varavg| %total
---------------------------------------------------------------
Pair    | 69.409     | 69.635     | 69.825     |   1.9 | 98.45
Neigh   | 0.0053171  | 0.0054891  | 0.0056631  |   0.1 |  0.01
Comm    | 0.60076    | 0.79455    | 1.0079     |  17.6 |  1.12
Output  | 3.208e-05  | 4.1614e-05 | 0.00017712 |   0.0 |  0.00
Modify  | 0.2449     | 0.25675    | 0.27273    |   1.9 |  0.36
Other   |            | 0.03727    |            |       |  0.05

Nlocal:            250 ave         263 max         241 min
Histogram: 4 1 2 1 2 2 1 0 2 1
Nghost:        1650.69 ave        1667 max        1640 min
Histogram: 1 1 6 2 1 2 1 1 0 1
Neighs:        12070.9 ave       12789 max       11623 min
Histogram: 4 4 0 0 2 2 1 1 1 1
FullNghs:      24141.8 ave       25452 max       23231 min
Histogram: 3 3 1 2 1 1 2 0 2 1

Total # of neighbors = 386268
Ave neighs/atom = 96.567
Neighbor list builds = 6
Dangerous builds = 0

#----------------------------- Run simulation ---------------------------------#
dump             d1 all custom 10000 md/data/ti_hcp/dump_0.24.gz id type x y z # snapshots
run              90000
Per MPI rank memory allocation (min/avg/max) = 3.859 | 3.868 | 3.874 Mbytes
   Step          Temp          E_pair         E_mol          TotEng         Press          Volume    
     10000   455.68142     -19082.98       0             -18847.433     -1623.4627      71069.787    
    100000   461.44228     -19078.972      0             -18840.448      92.704304      70982.455    
Loop time of 636.16 on 16 procs for 90000 steps with 4000 atoms

Performance: 12.223 ns/day, 1.963 hours/ns, 141.474 timesteps/s, 565.895 katom-step/s
99.6% CPU use with 16 MPI tasks x 1 OpenMP threads

MPI task timing breakdown:
Section |  min time  |  avg time  |  max time  |%varavg| %total
---------------------------------------------------------------
Pair    | 620.59     | 625.47     | 627.47     |  10.7 | 98.32
Neigh   | 0.0078837  | 0.0081284  | 0.0084603  |   0.2 |  0.00
Comm    | 5.9381     | 7.9607     | 12.6       |  89.9 |  1.25
Output  | 0.0077567  | 0.053767   | 0.081688   |  10.9 |  0.01
Modify  | 2.0915     | 2.332      | 2.6029     |  11.0 |  0.37
Other   |            | 0.3336     |            |       |  0.05

Nlocal:            250 ave         260 max         242 min
Histogram: 3 1 1 3 2 1 1 2 1 1
Nghost:        1650.56 ave        1672 max        1632 min
Histogram: 2 2 0 2 3 1 3 1 1 1
Neighs:        12053.1 ave       12650 max       11642 min
Histogram: 4 1 1 1 3 2 2 0 1 1
FullNghs:      24106.1 ave       25224 max       23221 min
Histogram: 3 1 1 3 2 1 2 1 1 1

Total # of neighbors = 385698
Ave neighs/atom = 96.4245
Neighbor list builds = 9
Dangerous builds = 0
undump           d1
min_modify       line forcezero
minimize         0 0 100000 100000                                                                               # minimize energy
Per MPI rank memory allocation (min/avg/max) = 4.984 | 4.993 | 4.999 Mbytes
   Step          Temp          E_pair         E_mol          TotEng         Press          Volume    
    100000   461.44228     -19078.972      0             -18840.448      92.704304      70982.455    
    100073   461.44228     -19307.428      0             -19068.903     -16678.337      70982.455    
Loop time of 1.07753 on 16 procs for 73 steps with 4000 atoms

99.6% CPU use with 16 MPI tasks x 1 OpenMP threads

Minimization stats:
  Stopping criterion = linesearch alpha is zero
  Energy initial, next-to-last, final = 
     -19078.9724292262  -19307.4278058399  -19307.4278058399
  Force two-norm initial, final = 47.044841 2.8922794e-06
  Force max component initial, final = 1.8708337 1.1340919e-07
  Final line search alpha, max atom move = 0.00013385876 1.5180814e-11
  Iterations, force evaluations = 73 157

MPI task timing breakdown:
Section |  min time  |  avg time  |  max time  |%varavg| %total
---------------------------------------------------------------
Pair    | 1.0481     | 1.0615     | 1.0668     |   0.7 | 98.51
Neigh   | 0          | 0          | 0          |   0.0 |  0.00
Comm    | 0.0080897  | 0.012992   | 0.025463   |   6.0 |  1.21
Output  | 0          | 0          | 0          |   0.0 |  0.00
Modify  | 0          | 0          | 0          |   0.0 |  0.00
Other   |            | 0.003063   |            |       |  0.28

Nlocal:            250 ave         258 max         242 min
Histogram: 1 2 0 2 2 2 4 2 0 1
Nghost:        1646.19 ave        1657 max        1632 min
Histogram: 1 2 0 0 3 1 3 2 2 2
Neighs:        12042.6 ave       12353 max       11653 min
Histogram: 1 0 2 2 1 4 1 1 2 2
FullNghs:      24085.2 ave       24764 max       23210 min
Histogram: 1 0 2 0 4 2 2 1 3 1

Total # of neighbors = 385364
Ave neighs/atom = 96.341
Neighbor list builds = 0
Dangerous builds = 0
write_dump       all custom md/data/ti_hcp/dump_0.24_relaxed.gz id type x y z
#------------------------------------------------------------------------------#
Total wall time: 0:11:48
