LAMMPS (29 Aug 2024)
OMP_NUM_THREADS environment is not set. Defaulting to 1 thread. (src/comm.cpp:98)
  using 1 OpenMP thread(s) per MPI task

#---------------------------- Atomic setup ------------------------------------#
units            metal
timestep         0.001
boundary         p p p
lattice          hcp 2.951
Lattice spacing in x,y,z = 2.951 5.1112819 4.8189628
region           sim_box block 0 10 0 10 0 10
create_box       1 sim_box
Created orthogonal box = (0 0 0) to (29.51 51.112819 48.189628)
  2 by 4 by 2 MPI processor grid
create_atoms     1 box
Created 4000 atoms
  using lattice units in orthogonal box = (0 0 0) to (29.51 51.112819 48.189628)
  create_atoms CPU = 0.001 seconds

pair_style       meam/spline                                             # interatomic potential (Lennard-Jones, EAM, etc.)
pair_coeff       * * ${potentials_dir}/ti_meam.spline Ti # interatomic potential parameters (ex. eam.alloy ${potentials_dir}/Cu_u3.eam)
pair_coeff       * * md/potentials/ti_meam.spline Ti 
Reading meam/spline potential file md/potentials/ti_meam.spline with DATE: 2012-02-01
pair_modify      tail yes
neigh_modify     delay 0                                                       # neighbor list update frequency (0 = every timestep)
mass             1 47.867                                                 # atomic mass
variable         rnd equal round(random(0,999999,42))

#----------------------------- Equilibriation ---------------------------------#
velocity         all create 77.64 ${rnd} dist gaussian              # initial velocities
velocity         all create 77.64 420940 dist gaussian              
fix              f2 all nph iso 0 0 1.0        # barostat
variable         rnd equal round(random(0,999999,0))
fix              f3 all temp/csvr 77.64 77.64 0.1 ${rnd} # thermostat
fix              f3 all temp/csvr 77.64 77.64 0.1 53464 
run              10000                                           # equilibriation run
Neighbor list info ...
  update: every = 1 steps, delay = 0 steps, check = yes
  max neighbors/atom: 2000, page size: 100000
  master list distance cutoff = 7.5
  ghost atom cutoff = 7.5
  binsize = 3.75, bins = 8 14 13
  2 neighbor lists, perpetual/occasional/extra = 2 0 0
  (1) pair meam/spline, perpetual
      attributes: full, newton on
      pair build: full/bin/atomonly
      stencil: full/bin/3d
      bin: standard
  (2) pair meam/spline, perpetual, half/full from (1)
      attributes: half, newton on
      pair build: halffull/newton
      stencil: none
      bin: none
Per MPI rank memory allocation (min/avg/max) = 3.859 | 3.864 | 3.87 Mbytes
   Step          Temp          E_pair         E_mol          TotEng         Press          Volume    
         0   77.64         -19273.463      0             -19233.33      -42403.684      72686.31     
     10000   77.814192     -19276.659      0             -19236.436      180.46462      69850.881    
Loop time of 68.1395 on 16 procs for 10000 steps with 4000 atoms

Performance: 12.680 ns/day, 1.893 hours/ns, 146.758 timesteps/s, 587.031 katom-step/s
99.6% CPU use with 16 MPI tasks x 1 OpenMP threads

MPI task timing breakdown:
Section |  min time  |  avg time  |  max time  |%varavg| %total
---------------------------------------------------------------
Pair    | 66.935     | 67.107     | 67.255     |   1.2 | 98.49
Neigh   | 0.00093383 | 0.00096971 | 0.0010093  |   0.0 |  0.00
Comm    | 0.60852    | 0.73234    | 0.91159    |  11.6 |  1.07
Output  | 5.339e-05  | 6.3109e-05 | 0.00019938 |   0.0 |  0.00
Modify  | 0.23654    | 0.26046    | 0.28344    |   3.3 |  0.38
Other   |            | 0.03835    |            |       |  0.06

Nlocal:            250 ave         256 max         242 min
Histogram: 3 0 1 1 0 2 3 1 1 4
Nghost:        1631.12 ave        1645 max        1621 min
Histogram: 2 2 2 3 2 0 2 0 1 2
Neighs:        11973.9 ave       12259 max       11598 min
Histogram: 3 0 1 0 3 0 3 1 1 4
FullNghs:      23947.9 ave       24528 max       23188 min
Histogram: 3 0 0 2 1 1 3 1 1 4

Total # of neighbors = 383166
Ave neighs/atom = 95.7915
Neighbor list builds = 1
Dangerous builds = 0

#----------------------------- Run simulation ---------------------------------#
dump             d1 all custom 10000 md/data/ti_hcp/dump_0.04.gz id type x y z # snapshots
run              90000
Per MPI rank memory allocation (min/avg/max) = 3.859 | 3.868 | 3.873 Mbytes
   Step          Temp          E_pair         E_mol          TotEng         Press          Volume    
     10000   77.814192     -19276.659      0             -19236.436      180.46462      69850.881    
    100000   77.72006      -19275.261      0             -19235.087      4.2177643      69864.859    
Loop time of 600.718 on 16 procs for 90000 steps with 4000 atoms

Performance: 12.945 ns/day, 1.854 hours/ns, 149.821 timesteps/s, 599.283 katom-step/s
99.6% CPU use with 16 MPI tasks x 1 OpenMP threads

MPI task timing breakdown:
Section |  min time  |  avg time  |  max time  |%varavg| %total
---------------------------------------------------------------
Pair    | 586.23     | 590.74     | 593.01     |  10.2 | 98.34
Neigh   | 0          | 0          | 0          |   0.0 |  0.00
Comm    | 4.9307     | 7.2842     | 11.843     |  94.0 |  1.21
Output  | 0.0083071  | 0.053673   | 0.081606   |  10.8 |  0.01
Modify  | 2.0351     | 2.3006     | 2.5008     |  11.5 |  0.38
Other   |            | 0.3349     |            |       |  0.06

Nlocal:            250 ave         259 max         242 min
Histogram: 1 2 1 0 6 2 0 2 1 1
Nghost:        1646.94 ave        1660 max        1635 min
Histogram: 1 0 4 1 3 1 4 1 0 1
Neighs:        12077.3 ave       12486 max       11704 min
Histogram: 2 1 2 2 3 2 0 0 2 2
FullNghs:      24154.6 ave       25085 max       23347 min
Histogram: 1 2 1 4 2 2 1 0 2 1

Total # of neighbors = 386474
Ave neighs/atom = 96.6185
Neighbor list builds = 0
Dangerous builds = 0
undump           d1
min_modify       line forcezero
minimize         0 0 100000 100000                                                                               # minimize energy
Per MPI rank memory allocation (min/avg/max) = 4.984 | 4.993 | 4.998 Mbytes
   Step          Temp          E_pair         E_mol          TotEng         Press          Volume    
    100000   77.72006      -19275.261      0             -19235.087      4.2177643      69864.859    
    100066   77.72006      -19315.765      0             -19275.591     -2763.5053      69864.859    
Loop time of 0.959996 on 16 procs for 66 steps with 4000 atoms

99.7% CPU use with 16 MPI tasks x 1 OpenMP threads

Minimization stats:
  Stopping criterion = linesearch alpha is zero
  Energy initial, next-to-last, final = 
     -19275.2611814094  -19315.7651454059  -19315.7651454059
  Force two-norm initial, final = 18.560294 4.2495833e-06
  Force max component initial, final = 0.79388802 1.7050964e-07
  Final line search alpha, max atom move = 0.0035187693 5.9998409e-10
  Iterations, force evaluations = 66 139

MPI task timing breakdown:
Section |  min time  |  avg time  |  max time  |%varavg| %total
---------------------------------------------------------------
Pair    | 0.93236    | 0.93642    | 0.9515     |   0.4 | 97.54
Neigh   | 0          | 0          | 0          |   0.0 |  0.00
Comm    | 0.0061504  | 0.017756   | 0.025077   |   5.5 |  1.85
Output  | 0          | 0          | 0          |   0.0 |  0.00
Modify  | 0          | 0          | 0          |   0.0 |  0.00
Other   |            | 0.005823   |            |       |  0.61

Nlocal:            250 ave         258 max         237 min
Histogram: 1 0 1 3 1 0 2 2 3 3
Nghost:        1643.94 ave        1654 max        1629 min
Histogram: 2 1 0 2 1 1 2 1 1 5
Neighs:        12069.4 ave       12376 max       11395 min
Histogram: 1 0 0 3 2 0 1 1 1 7
FullNghs:      24138.8 ave       24880 max       22872 min
Histogram: 1 0 1 3 1 0 1 3 2 4

Total # of neighbors = 386220
Ave neighs/atom = 96.555
Neighbor list builds = 0
Dangerous builds = 0
write_dump       all custom md/data/ti_hcp/dump_0.04_relaxed.gz id type x y z
#------------------------------------------------------------------------------#
Total wall time: 0:11:09
