LAMMPS (29 Aug 2024)
OMP_NUM_THREADS environment is not set. Defaulting to 1 thread. (src/comm.cpp:98)
  using 1 OpenMP thread(s) per MPI task

#---------------------------- Atomic setup ------------------------------------#
units            metal
timestep         0.001
boundary         p p p
lattice          hcp 2.951
Lattice spacing in x,y,z = 2.951 5.1112819 4.8189628
region           sim_box block 0 10 0 10 0 10
create_box       1 sim_box
Created orthogonal box = (0 0 0) to (29.51 51.112819 48.189628)
  2 by 4 by 2 MPI processor grid
create_atoms     1 box
Created 4000 atoms
  using lattice units in orthogonal box = (0 0 0) to (29.51 51.112819 48.189628)
  create_atoms CPU = 0.001 seconds

pair_style       meam/spline                                             # interatomic potential (Lennard-Jones, EAM, etc.)
pair_coeff       * * ${potentials_dir}/ti_meam.spline Ti # interatomic potential parameters (ex. eam.alloy ${potentials_dir}/Cu_u3.eam)
pair_coeff       * * md/potentials/ti_meam.spline Ti 
Reading meam/spline potential file md/potentials/ti_meam.spline with DATE: 2012-02-01
pair_modify      tail yes
neigh_modify     delay 0                                                       # neighbor list update frequency (0 = every timestep)
mass             1 47.867                                                 # atomic mass
variable         rnd equal round(random(0,999999,42))

#----------------------------- Equilibriation ---------------------------------#
velocity         all create 2406.84 ${rnd} dist gaussian              # initial velocities
velocity         all create 2406.84 420940 dist gaussian              
fix              f2 all nph iso 0 0 1.0        # barostat
variable         rnd equal round(random(0,999999,0))
fix              f3 all temp/csvr 2406.84 2406.84 0.1 ${rnd} # thermostat
fix              f3 all temp/csvr 2406.84 2406.84 0.1 53464 
run              10000                                           # equilibriation run
Neighbor list info ...
  update: every = 1 steps, delay = 0 steps, check = yes
  max neighbors/atom: 2000, page size: 100000
  master list distance cutoff = 7.5
  ghost atom cutoff = 7.5
  binsize = 3.75, bins = 8 14 13
  2 neighbor lists, perpetual/occasional/extra = 2 0 0
  (1) pair meam/spline, perpetual
      attributes: full, newton on
      pair build: full/bin/atomonly
      stencil: full/bin/3d
      bin: standard
  (2) pair meam/spline, perpetual, half/full from (1)
      attributes: half, newton on
      pair build: halffull/newton
      stencil: none
      bin: none
Per MPI rank memory allocation (min/avg/max) = 3.859 | 3.864 | 3.87 Mbytes
   Step          Temp          E_pair         E_mol          TotEng         Press          Volume    
         0   2406.84       -19273.463      0             -18029.34      -24711.18       72686.31     
     10000   2387.8963     -17484.143      0             -16249.813     -320.53893      75511.472    
Loop time of 65.2065 on 16 procs for 10000 steps with 4000 atoms

Performance: 13.250 ns/day, 1.811 hours/ns, 153.359 timesteps/s, 613.436 katom-step/s
98.8% CPU use with 16 MPI tasks x 1 OpenMP threads

MPI task timing breakdown:
Section |  min time  |  avg time  |  max time  |%varavg| %total
---------------------------------------------------------------
Pair    | 61.209     | 61.937     | 62.425     |   5.4 | 94.99
Neigh   | 0.23858    | 0.24187    | 0.24488    |   0.3 |  0.37
Comm    | 1.4313     | 1.8669     | 2.5297     |  28.8 |  2.86
Output  | 4.1488e-05 | 4.3096e-05 | 5.8711e-05 |   0.0 |  0.00
Modify  | 0.97083    | 1.0428     | 1.1133     |   4.5 |  1.60
Other   |            | 0.1176     |            |       |  0.18

Nlocal:            250 ave         254 max         245 min
Histogram: 2 2 0 1 2 1 1 2 3 2
Nghost:        1488.94 ave        1503 max        1474 min
Histogram: 2 4 2 0 0 1 0 1 0 6
Neighs:        11478.2 ave       11774 max       11144 min
Histogram: 2 0 3 1 1 2 0 4 1 2
FullNghs:      22956.4 ave       23528 max       22250 min
Histogram: 2 0 2 1 2 2 0 2 2 3

Total # of neighbors = 367302
Ave neighs/atom = 91.8255
Neighbor list builds = 272
Dangerous builds = 0

#----------------------------- Run simulation ---------------------------------#
dump             d1 all custom 10000 md/data/ti_hcp/dump_1.24.gz id type x y z # snapshots
run              90000
Per MPI rank memory allocation (min/avg/max) = 3.86 | 3.868 | 3.873 Mbytes
   Step          Temp          E_pair         E_mol          TotEng         Press          Volume    
     10000   2387.8963     -17484.143      0             -16249.813     -320.53893      75511.472    
    100000   2381.2421     -17443.899      0             -16213.008     -340.58585      75571.435    
Loop time of 542.467 on 16 procs for 90000 steps with 4000 atoms

Performance: 14.335 ns/day, 1.674 hours/ns, 165.909 timesteps/s, 663.635 katom-step/s
99.6% CPU use with 16 MPI tasks x 1 OpenMP threads

MPI task timing breakdown:
Section |  min time  |  avg time  |  max time  |%varavg| %total
---------------------------------------------------------------
Pair    | 529.24     | 529.66     | 530.09     |   1.1 | 97.64
Neigh   | 2.1605     | 2.1858     | 2.2074     |   1.0 |  0.40
Comm    | 7.5703     | 8.0416     | 8.3719     |   8.2 |  1.48
Output  | 0.0085383  | 0.055163   | 0.082073   |  10.5 |  0.01
Modify  | 2.1141     | 2.2077     | 2.3306     |   4.8 |  0.41
Other   |            | 0.3196     |            |       |  0.06

Nlocal:            250 ave         258 max         243 min
Histogram: 3 0 3 0 2 1 3 1 1 2
Nghost:         1497.5 ave        1507 max        1486 min
Histogram: 1 1 1 0 4 2 2 2 1 2
Neighs:        11480.9 ave       11944 max       11063 min
Histogram: 1 3 1 2 3 0 3 0 1 2
FullNghs:      22961.8 ave       23803 max       22096 min
Histogram: 1 3 0 3 0 3 2 1 0 3

Total # of neighbors = 367388
Ave neighs/atom = 91.847
Neighbor list builds = 2471
Dangerous builds = 0
undump           d1
min_modify       line forcezero
minimize         0 0 100000 100000                                                                               # minimize energy
Per MPI rank memory allocation (min/avg/max) = 4.985 | 4.994 | 4.998 Mbytes
   Step          Temp          E_pair         E_mol          TotEng         Press          Volume    
    100000   2381.2421     -17443.899      0             -16213.008     -340.58585      75571.435    
    102649   2381.2421     -18885.618      0             -17654.727     -31664.818      75571.435    
Loop time of 36.8612 on 16 procs for 2649 steps with 4000 atoms

99.6% CPU use with 16 MPI tasks x 1 OpenMP threads

Minimization stats:
  Stopping criterion = linesearch alpha is zero
  Energy initial, next-to-last, final = 
     -17443.8993920468  -18885.6176741139  -18885.6176741139
  Force two-norm initial, final = 112.44357 1.5609722e-05
  Force max component initial, final = 6.2792246 4.1620536e-06
  Final line search alpha, max atom move = 1.0671625e-08 4.4415874e-14
  Iterations, force evaluations = 2649 5449

MPI task timing breakdown:
Section |  min time  |  avg time  |  max time  |%varavg| %total
---------------------------------------------------------------
Pair    | 36.295     | 36.395     | 36.479     |   0.9 | 98.74
Neigh   | 0.014494   | 0.014793   | 0.015083   |   0.1 |  0.04
Comm    | 0.28016    | 0.36111    | 0.47169    |   8.8 |  0.98
Output  | 0          | 0          | 0          |   0.0 |  0.00
Modify  | 0          | 0          | 0          |   0.0 |  0.00
Other   |            | 0.08984    |            |       |  0.24

Nlocal:            250 ave         258 max         242 min
Histogram: 1 0 1 4 0 6 1 1 1 1
Nghost:        1501.75 ave        1512 max        1488 min
Histogram: 2 1 0 1 2 1 4 0 2 3
Neighs:        11404.6 ave       11773 max       10971 min
Histogram: 1 0 2 1 2 3 3 2 1 1
FullNghs:      22809.1 ave       23543 max       21937 min
Histogram: 1 0 2 1 2 2 4 1 2 1

Total # of neighbors = 364946
Ave neighs/atom = 91.2365
Neighbor list builds = 17
Dangerous builds = 0
write_dump       all custom md/data/ti_hcp/dump_1.24_relaxed.gz id type x y z
#------------------------------------------------------------------------------#
Total wall time: 0:10:44
