LAMMPS (29 Aug 2024)
OMP_NUM_THREADS environment is not set. Defaulting to 1 thread. (src/comm.cpp:98)
  using 1 OpenMP thread(s) per MPI task

#---------------------------- Atomic setup ------------------------------------#
units            metal
timestep         0.001
boundary         p p p
lattice          hcp 2.951
Lattice spacing in x,y,z = 2.951 5.1112819 4.8189628
region           sim_box block 0 10 0 10 0 10
create_box       1 sim_box
Created orthogonal box = (0 0 0) to (29.51 51.112819 48.189628)
  2 by 4 by 2 MPI processor grid
create_atoms     1 box
Created 4000 atoms
  using lattice units in orthogonal box = (0 0 0) to (29.51 51.112819 48.189628)
  create_atoms CPU = 0.001 seconds

pair_style       meam/spline                                             # interatomic potential (Lennard-Jones, EAM, etc.)
pair_coeff       * * ${potentials_dir}/ti_meam.spline Ti # interatomic potential parameters (ex. eam.alloy ${potentials_dir}/Cu_u3.eam)
pair_coeff       * * md/potentials/ti_meam.spline Ti 
Reading meam/spline potential file md/potentials/ti_meam.spline with DATE: 2012-02-01
pair_modify      tail yes
neigh_modify     delay 0                                                       # neighbor list update frequency (0 = every timestep)
mass             1 47.867                                                 # atomic mass
variable         rnd equal round(random(0,999999,42))

#----------------------------- Equilibriation ---------------------------------#
velocity         all create 543.48 ${rnd} dist gaussian              # initial velocities
velocity         all create 543.48 420940 dist gaussian              
fix              f2 all nph iso 0 0 1.0        # barostat
variable         rnd equal round(random(0,999999,0))
fix              f3 all temp/csvr 543.48 543.48 0.1 ${rnd} # thermostat
fix              f3 all temp/csvr 543.48 543.48 0.1 53464 
run              10000                                           # equilibriation run
Neighbor list info ...
  update: every = 1 steps, delay = 0 steps, check = yes
  max neighbors/atom: 2000, page size: 100000
  master list distance cutoff = 7.5
  ghost atom cutoff = 7.5
  binsize = 3.75, bins = 8 14 13
  2 neighbor lists, perpetual/occasional/extra = 2 0 0
  (1) pair meam/spline, perpetual
      attributes: full, newton on
      pair build: full/bin/atomonly
      stencil: full/bin/3d
      bin: standard
  (2) pair meam/spline, perpetual, half/full from (1)
      attributes: half, newton on
      pair build: halffull/newton
      stencil: none
      bin: none
Per MPI rank memory allocation (min/avg/max) = 3.859 | 3.864 | 3.87 Mbytes
   Step          Temp          E_pair         E_mol          TotEng         Press          Volume    
         0   543.48        -19273.463      0             -18992.532     -38865.183      72686.31     
     10000   531.00664     -19044.364      0             -18769.881     -2198.8765      71359.384    
Loop time of 71.2704 on 16 procs for 10000 steps with 4000 atoms

Performance: 12.123 ns/day, 1.980 hours/ns, 140.311 timesteps/s, 561.243 katom-step/s
99.6% CPU use with 16 MPI tasks x 1 OpenMP threads

MPI task timing breakdown:
Section |  min time  |  avg time  |  max time  |%varavg| %total
---------------------------------------------------------------
Pair    | 69.904     | 70.109     | 70.3       |   2.0 | 98.37
Neigh   | 0.034037   | 0.034832   | 0.035705   |   0.3 |  0.05
Comm    | 0.66536    | 0.84696    | 1.0313     |  16.5 |  1.19
Output  | 3.0096e-05 | 3.5401e-05 | 0.00010761 |   0.0 |  0.00
Modify  | 0.22309    | 0.24421    | 0.26826    |   3.3 |  0.34
Other   |            | 0.03573    |            |       |  0.05

Nlocal:            250 ave         265 max         241 min
Histogram: 1 2 4 4 2 0 1 1 0 1
Nghost:        1641.94 ave        1652 max        1629 min
Histogram: 3 0 0 1 2 0 3 3 3 1
Neighs:        12020.1 ave       12844 max       11531 min
Histogram: 1 2 2 6 2 1 1 0 0 1
FullNghs:      24040.2 ave       25684 max       23152 min
Histogram: 2 2 3 5 1 1 1 0 0 1

Total # of neighbors = 384644
Ave neighs/atom = 96.161
Neighbor list builds = 38
Dangerous builds = 0

#----------------------------- Run simulation ---------------------------------#
dump             d1 all custom 10000 md/data/ti_hcp/dump_0.28.gz id type x y z # snapshots
run              90000
Per MPI rank memory allocation (min/avg/max) = 3.859 | 3.869 | 3.874 Mbytes
   Step          Temp          E_pair         E_mol          TotEng         Press          Volume    
     10000   531.00664     -19044.364      0             -18769.881     -2198.8765      71359.384    
    100000   542.35283     -19041.875      0             -18761.526      1134.2542      71108.632    
Loop time of 641.364 on 16 procs for 90000 steps with 4000 atoms

Performance: 12.124 ns/day, 1.980 hours/ns, 140.326 timesteps/s, 561.304 katom-step/s
99.6% CPU use with 16 MPI tasks x 1 OpenMP threads

MPI task timing breakdown:
Section |  min time  |  avg time  |  max time  |%varavg| %total
---------------------------------------------------------------
Pair    | 629.14     | 630.83     | 632.12     |   4.3 | 98.36
Neigh   | 0.19608    | 0.20248    | 0.20808    |   0.8 |  0.03
Comm    | 6.4499     | 7.5643     | 9.0874     |  33.7 |  1.18
Output  | 0.0076915  | 0.10119    | 0.14241    |  14.2 |  0.02
Modify  | 2.128      | 2.3387     | 2.5547     |   9.9 |  0.36
Other   |            | 0.3248     |            |       |  0.05

Nlocal:            250 ave         261 max         233 min
Histogram: 1 0 0 2 2 2 3 2 2 2
Nghost:        1647.12 ave        1664 max        1632 min
Histogram: 2 2 0 2 2 3 0 3 1 1
Neighs:        12014.2 ave       12684 max       11240 min
Histogram: 1 0 2 2 3 2 1 2 2 1
FullNghs:      24028.5 ave       25190 max       22287 min
Histogram: 1 0 0 3 1 3 2 3 0 3

Total # of neighbors = 384456
Ave neighs/atom = 96.114
Neighbor list builds = 221
Dangerous builds = 0
undump           d1
min_modify       line forcezero
minimize         0 0 100000 100000                                                                               # minimize energy
Per MPI rank memory allocation (min/avg/max) = 4.984 | 4.994 | 4.999 Mbytes
   Step          Temp          E_pair         E_mol          TotEng         Press          Volume    
    100000   542.35283     -19041.875      0             -18761.526      1134.2542      71108.632    
    100072   542.35283     -19305.76       0             -19025.412     -17865.423      71108.632    
Loop time of 1.20028 on 16 procs for 72 steps with 4000 atoms

99.6% CPU use with 16 MPI tasks x 1 OpenMP threads

Minimization stats:
  Stopping criterion = linesearch alpha is zero
  Energy initial, next-to-last, final = 
     -19041.8747019074    -19305.76030785    -19305.76030785
  Force two-norm initial, final = 51.152151 3.9610603e-06
  Force max component initial, final = 2.1361246 1.5057209e-07
  Final line search alpha, max atom move = 0.041746483 6.285855e-09
  Iterations, force evaluations = 72 148

MPI task timing breakdown:
Section |  min time  |  avg time  |  max time  |%varavg| %total
---------------------------------------------------------------
Pair    | 1.0124     | 1.1453     | 1.1907     |   7.1 | 95.42
Neigh   | 0          | 0          | 0          |   0.0 |  0.00
Comm    | 0.0070186  | 0.052504   | 0.18532    |  33.2 |  4.37
Output  | 0          | 0          | 0          |   0.0 |  0.00
Modify  | 0          | 0          | 0          |   0.0 |  0.00
Other   |            | 0.002436   |            |       |  0.20

Nlocal:            250 ave         258 max         242 min
Histogram: 2 1 2 2 1 3 1 0 0 4
Nghost:        1641.06 ave        1651 max        1628 min
Histogram: 2 0 2 2 1 2 0 1 4 2
Neighs:          12050 ave       12545 max       11548 min
Histogram: 1 1 1 4 3 1 1 1 0 3
FullNghs:        24100 ave       25018 max       23246 min
Histogram: 2 1 2 3 2 1 1 0 0 4

Total # of neighbors = 385600
Ave neighs/atom = 96.4
Neighbor list builds = 0
Dangerous builds = 0
write_dump       all custom md/data/ti_hcp/dump_0.28_relaxed.gz id type x y z
#------------------------------------------------------------------------------#
Total wall time: 0:11:53
