LAMMPS (29 Aug 2024)
OMP_NUM_THREADS environment is not set. Defaulting to 1 thread. (src/comm.cpp:98)
  using 1 OpenMP thread(s) per MPI task

#---------------------------- Atomic setup ------------------------------------#
units            metal
timestep         0.001
boundary         p p p
lattice          hcp 2.951
Lattice spacing in x,y,z = 2.951 5.1112819 4.8189628
region           sim_box block 0 10 0 10 0 10
create_box       1 sim_box
Created orthogonal box = (0 0 0) to (29.51 51.112819 48.189628)
  2 by 4 by 2 MPI processor grid
create_atoms     1 box
Created 4000 atoms
  using lattice units in orthogonal box = (0 0 0) to (29.51 51.112819 48.189628)
  create_atoms CPU = 0.001 seconds

pair_style       meam/spline                                             # interatomic potential (Lennard-Jones, EAM, etc.)
pair_coeff       * * ${potentials_dir}/ti_meam.spline Ti # interatomic potential parameters (ex. eam.alloy ${potentials_dir}/Cu_u3.eam)
pair_coeff       * * md/potentials/ti_meam.spline Ti 
Reading meam/spline potential file md/potentials/ti_meam.spline with DATE: 2012-02-01
pair_modify      tail yes
neigh_modify     delay 0                                                       # neighbor list update frequency (0 = every timestep)
mass             1 47.867                                                 # atomic mass
variable         rnd equal round(random(0,999999,42))

#----------------------------- Equilibriation ---------------------------------#
velocity         all create 2872.68 ${rnd} dist gaussian              # initial velocities
velocity         all create 2872.68 420940 dist gaussian              
fix              f2 all nph iso 0 0 1.0        # barostat
variable         rnd equal round(random(0,999999,0))
fix              f3 all temp/csvr 2872.68 2872.68 0.1 ${rnd} # thermostat
fix              f3 all temp/csvr 2872.68 2872.68 0.1 53464 
run              10000                                           # equilibriation run
Neighbor list info ...
  update: every = 1 steps, delay = 0 steps, check = yes
  max neighbors/atom: 2000, page size: 100000
  master list distance cutoff = 7.5
  ghost atom cutoff = 7.5
  binsize = 3.75, bins = 8 14 13
  2 neighbor lists, perpetual/occasional/extra = 2 0 0
  (1) pair meam/spline, perpetual
      attributes: full, newton on
      pair build: full/bin/atomonly
      stencil: full/bin/3d
      bin: standard
  (2) pair meam/spline, perpetual, half/full from (1)
      attributes: half, newton on
      pair build: halffull/newton
      stencil: none
      bin: none
Per MPI rank memory allocation (min/avg/max) = 3.859 | 3.864 | 3.87 Mbytes
   Step          Temp          E_pair         E_mol          TotEng         Press          Volume    
         0   2872.68       -19273.463      0             -17788.542     -21172.679      72686.31     
     10000   2820.2176     -17194.473      0             -15736.67       2921.9576      76151.562    
Loop time of 59.1358 on 16 procs for 10000 steps with 4000 atoms

Performance: 14.610 ns/day, 1.643 hours/ns, 169.102 timesteps/s, 676.409 katom-step/s
99.6% CPU use with 16 MPI tasks x 1 OpenMP threads

MPI task timing breakdown:
Section |  min time  |  avg time  |  max time  |%varavg| %total
---------------------------------------------------------------
Pair    | 57.11      | 57.339     | 57.468     |   1.7 | 96.96
Neigh   | 0.25292    | 0.25652    | 0.26096    |   0.5 |  0.43
Comm    | 1.0425     | 1.1568     | 1.3331     |   9.0 |  1.96
Output  | 4.5124e-05 | 4.7003e-05 | 6.1465e-05 |   0.0 |  0.00
Modify  | 0.29961    | 0.34132    | 0.41988    |   6.9 |  0.58
Other   |            | 0.04258    |            |       |  0.07

Nlocal:            250 ave         257 max         244 min
Histogram: 3 0 1 4 2 1 1 2 1 1
Nghost:        1494.62 ave        1512 max        1475 min
Histogram: 2 1 3 0 0 2 2 2 3 1
Neighs:        11391.8 ave       11700 max       11061 min
Histogram: 2 1 1 3 0 1 3 3 0 2
FullNghs:      22783.5 ave       23497 max       22131 min
Histogram: 1 2 3 0 2 3 1 3 0 1

Total # of neighbors = 364536
Ave neighs/atom = 91.134
Neighbor list builds = 299
Dangerous builds = 0

#----------------------------- Run simulation ---------------------------------#
dump             d1 all custom 10000 md/data/ti_hcp/dump_1.48.gz id type x y z # snapshots
run              90000
Per MPI rank memory allocation (min/avg/max) = 3.86 | 3.869 | 3.874 Mbytes
   Step          Temp          E_pair         E_mol          TotEng         Press          Volume    
     10000   2820.2176     -17194.473      0             -15736.67       2921.9576      76151.562    
    100000   2861.9334     -17148.898      0             -15669.532     -2088.3481      76536.298    
Loop time of 528.826 on 16 procs for 90000 steps with 4000 atoms

Performance: 14.704 ns/day, 1.632 hours/ns, 170.188 timesteps/s, 680.753 katom-step/s
99.6% CPU use with 16 MPI tasks x 1 OpenMP threads

MPI task timing breakdown:
Section |  min time  |  avg time  |  max time  |%varavg| %total
---------------------------------------------------------------
Pair    | 511.58     | 512.65     | 513.43     |   3.0 | 96.94
Neigh   | 2.2867     | 2.3161     | 2.3579     |   1.3 |  0.44
Comm    | 9.712      | 10.337     | 10.989     |  13.5 |  1.95
Output  | 0.0082155  | 0.055113   | 0.082042   |  10.5 |  0.01
Modify  | 2.7043     | 3.0823     | 3.7913     |  19.9 |  0.58
Other   |            | 0.3847     |            |       |  0.07

Nlocal:            250 ave         258 max         241 min
Histogram: 1 1 2 1 3 2 0 2 3 1
Nghost:        1479.62 ave        1494 max        1463 min
Histogram: 1 0 3 0 5 1 1 3 0 2
Neighs:        11342.7 ave       11835 max       10867 min
Histogram: 1 2 2 2 2 1 1 3 1 1
FullNghs:      22685.4 ave       23637 max       21655 min
Histogram: 1 0 3 1 3 2 1 3 0 2

Total # of neighbors = 362966
Ave neighs/atom = 90.7415
Neighbor list builds = 2720
Dangerous builds = 0
undump           d1
min_modify       line forcezero
minimize         0 0 100000 100000                                                                               # minimize energy
Per MPI rank memory allocation (min/avg/max) = 4.985 | 4.994 | 4.999 Mbytes
   Step          Temp          E_pair         E_mol          TotEng         Press          Volume    
    100000   2861.9334     -17148.898      0             -15669.532     -2088.3481      76536.298    
    101512   2861.9334     -18844.287      0             -17364.921     -37256.314      76536.298    
Loop time of 19.1378 on 16 procs for 1512 steps with 4000 atoms

99.6% CPU use with 16 MPI tasks x 1 OpenMP threads

Minimization stats:
  Stopping criterion = linesearch alpha is zero
  Energy initial, next-to-last, final = 
     -17148.8982527627  -18844.2867505923  -18844.2867505923
  Force two-norm initial, final = 125.64825 8.1116416e-06
  Force max component initial, final = 8.2897634 1.9866222e-06
  Final line search alpha, max atom move = 4.9065526e-08 9.7474661e-14
  Iterations, force evaluations = 1512 2867

MPI task timing breakdown:
Section |  min time  |  avg time  |  max time  |%varavg| %total
---------------------------------------------------------------
Pair    | 18.686     | 18.787     | 18.881     |   1.5 | 98.16
Neigh   | 0.011343   | 0.011702   | 0.011962   |   0.2 |  0.06
Comm    | 0.17271    | 0.26755    | 0.3764     |  12.4 |  1.40
Output  | 0          | 0          | 0          |   0.0 |  0.00
Modify  | 0          | 0          | 0          |   0.0 |  0.00
Other   |            | 0.07197    |            |       |  0.38

Nlocal:            250 ave         258 max         244 min
Histogram: 3 1 0 4 2 2 1 1 0 2
Nghost:        1488.12 ave        1498 max        1478 min
Histogram: 1 1 2 3 1 3 0 1 0 4
Neighs:        11209.8 ave       11533 max       10890 min
Histogram: 3 0 0 4 0 4 1 1 1 2
FullNghs:      22419.5 ave       23062 max       21767 min
Histogram: 3 0 1 1 2 4 1 1 0 3

Total # of neighbors = 358712
Ave neighs/atom = 89.678
Neighbor list builds = 14
Dangerous builds = 0
write_dump       all custom md/data/ti_hcp/dump_1.48_relaxed.gz id type x y z
#------------------------------------------------------------------------------#
Total wall time: 0:10:07
