LAMMPS (29 Aug 2024)
OMP_NUM_THREADS environment is not set. Defaulting to 1 thread. (src/comm.cpp:98)
  using 1 OpenMP thread(s) per MPI task

#---------------------------- Atomic setup ------------------------------------#
units            metal
timestep         0.001
boundary         p p p
lattice          hcp 2.951
Lattice spacing in x,y,z = 2.951 5.1112819 4.8189628
region           sim_box block 0 10 0 10 0 10
create_box       1 sim_box
Created orthogonal box = (0 0 0) to (29.51 51.112819 48.189628)
  2 by 4 by 2 MPI processor grid
create_atoms     1 box
Created 4000 atoms
  using lattice units in orthogonal box = (0 0 0) to (29.51 51.112819 48.189628)
  create_atoms CPU = 0.001 seconds

pair_style       meam/spline                                             # interatomic potential (Lennard-Jones, EAM, etc.)
pair_coeff       * * ${potentials_dir}/ti_meam.spline Ti # interatomic potential parameters (ex. eam.alloy ${potentials_dir}/Cu_u3.eam)
pair_coeff       * * md/potentials/ti_meam.spline Ti 
Reading meam/spline potential file md/potentials/ti_meam.spline with DATE: 2012-02-01
pair_modify      tail yes
neigh_modify     delay 0                                                       # neighbor list update frequency (0 = every timestep)
mass             1 47.867                                                 # atomic mass
variable         rnd equal round(random(0,999999,42))

#----------------------------- Equilibriation ---------------------------------#
velocity         all create 1086.96 ${rnd} dist gaussian              # initial velocities
velocity         all create 1086.96 420940 dist gaussian              
fix              f2 all nph iso 0 0 1.0        # barostat
variable         rnd equal round(random(0,999999,0))
fix              f3 all temp/csvr 1086.96 1086.96 0.1 ${rnd} # thermostat
fix              f3 all temp/csvr 1086.96 1086.96 0.1 53464 
run              10000                                           # equilibriation run
Neighbor list info ...
  update: every = 1 steps, delay = 0 steps, check = yes
  max neighbors/atom: 2000, page size: 100000
  master list distance cutoff = 7.5
  ghost atom cutoff = 7.5
  binsize = 3.75, bins = 8 14 13
  2 neighbor lists, perpetual/occasional/extra = 2 0 0
  (1) pair meam/spline, perpetual
      attributes: full, newton on
      pair build: full/bin/atomonly
      stencil: full/bin/3d
      bin: standard
  (2) pair meam/spline, perpetual, half/full from (1)
      attributes: half, newton on
      pair build: halffull/newton
      stencil: none
      bin: none
Per MPI rank memory allocation (min/avg/max) = 3.859 | 3.864 | 3.87 Mbytes
   Step          Temp          E_pair         E_mol          TotEng         Press          Volume    
         0   1086.96       -19273.463      0             -18711.601     -34736.932      72686.31     
     10000   1067.8807     -18764.088      0             -18212.088     -224.58107      72578.464    
Loop time of 70.396 on 16 procs for 10000 steps with 4000 atoms

Performance: 12.273 ns/day, 1.955 hours/ns, 142.054 timesteps/s, 568.214 katom-step/s
99.6% CPU use with 16 MPI tasks x 1 OpenMP threads

MPI task timing breakdown:
Section |  min time  |  avg time  |  max time  |%varavg| %total
---------------------------------------------------------------
Pair    | 68.784     | 68.929     | 69.013     |   0.9 | 97.92
Neigh   | 0.15395    | 0.15776    | 0.16109    |   0.6 |  0.22
Comm    | 0.93597    | 1.0132     | 1.1553     |   7.5 |  1.44
Output  | 4.1398e-05 | 4.296e-05  | 5.6536e-05 |   0.0 |  0.00
Modify  | 0.24772    | 0.25792    | 0.26619    |   1.2 |  0.37
Other   |            | 0.03848    |            |       |  0.05

Nlocal:            250 ave         262 max         236 min
Histogram: 1 1 1 0 2 4 4 1 1 1
Nghost:        1596.06 ave        1608 max        1579 min
Histogram: 1 0 1 2 3 0 4 1 2 2
Neighs:        11864.2 ave       12468 max       11157 min
Histogram: 1 1 1 2 0 4 3 2 1 1
FullNghs:      23728.5 ave       25107 max       22329 min
Histogram: 1 2 0 1 1 6 3 1 0 1

Total # of neighbors = 379656
Ave neighs/atom = 94.914
Neighbor list builds = 172
Dangerous builds = 0

#----------------------------- Run simulation ---------------------------------#
dump             d1 all custom 10000 md/data/ti_hcp/dump_0.56.gz id type x y z # snapshots
run              90000
Per MPI rank memory allocation (min/avg/max) = 3.859 | 3.868 | 3.873 Mbytes
   Step          Temp          E_pair         E_mol          TotEng         Press          Volume    
     10000   1067.8807     -18764.088      0             -18212.088     -224.58107      72578.464    
    100000   1098.482      -18758.88       0             -18191.063      1103.7085      72522.814    
Loop time of 628.055 on 16 procs for 90000 steps with 4000 atoms

Performance: 12.381 ns/day, 1.938 hours/ns, 143.300 timesteps/s, 573.198 katom-step/s
99.6% CPU use with 16 MPI tasks x 1 OpenMP threads

MPI task timing breakdown:
Section |  min time  |  avg time  |  max time  |%varavg| %total
---------------------------------------------------------------
Pair    | 614.11     | 614.98     | 615.86     |   2.4 | 97.92
Neigh   | 1.3792     | 1.4119     | 1.4453     |   1.7 |  0.22
Comm    | 7.9583     | 8.8464     | 9.6775     |  18.8 |  1.41
Output  | 0.0084646  | 0.054396   | 0.081964   |  10.8 |  0.01
Modify  | 2.2347     | 2.4182     | 2.524      |   5.9 |  0.39
Other   |            | 0.346      |            |       |  0.06

Nlocal:            250 ave         262 max         234 min
Histogram: 1 1 1 1 2 3 3 0 1 3
Nghost:        1594.81 ave        1619 max        1580 min
Histogram: 2 1 2 5 3 1 0 0 1 1
Neighs:        11876.8 ave       12670 max       11069 min
Histogram: 1 1 2 2 2 2 2 1 2 1
FullNghs:      23753.5 ave       25057 max       22130 min
Histogram: 1 1 1 1 3 2 3 0 1 3

Total # of neighbors = 380056
Ave neighs/atom = 95.014
Neighbor list builds = 1549
Dangerous builds = 0
undump           d1
min_modify       line forcezero
minimize         0 0 100000 100000                                                                               # minimize energy
Per MPI rank memory allocation (min/avg/max) = 4.984 | 4.993 | 4.998 Mbytes
   Step          Temp          E_pair         E_mol          TotEng         Press          Volume    
    100000   1098.482      -18758.88       0             -18191.063      1103.7085      72522.814    
    100076   1098.482      -19277.747      0             -18709.929     -32610.522      72522.814    
Loop time of 1.00892 on 16 procs for 76 steps with 4000 atoms

99.6% CPU use with 16 MPI tasks x 1 OpenMP threads

Minimization stats:
  Stopping criterion = linesearch alpha is zero
  Energy initial, next-to-last, final = 
     -18758.8804432905  -19277.7471424493  -19277.7471424493
  Force two-norm initial, final = 72.000341 8.3845169e-06
  Force max component initial, final = 2.8685348 3.0197447e-07
  Final line search alpha, max atom move = 0.044727828 1.3506662e-08
  Iterations, force evaluations = 76 143

MPI task timing breakdown:
Section |  min time  |  avg time  |  max time  |%varavg| %total
---------------------------------------------------------------
Pair    | 0.96809    | 0.99072    | 0.99972    |   1.2 | 98.20
Neigh   | 0          | 0          | 0          |   0.0 |  0.00
Comm    | 0.0069094  | 0.015228   | 0.036881   |   8.9 |  1.51
Output  | 0          | 0          | 0          |   0.0 |  0.00
Modify  | 0          | 0          | 0          |   0.0 |  0.00
Other   |            | 0.002976   |            |       |  0.29

Nlocal:            250 ave         265 max         237 min
Histogram: 1 1 2 2 3 3 1 2 0 1
Nghost:        1596.31 ave        1607 max        1569 min
Histogram: 1 0 0 0 1 1 3 3 5 2
Neighs:        11884.4 ave       12730 max       11226 min
Histogram: 2 1 1 4 2 2 2 1 0 1
FullNghs:      23768.8 ave       25373 max       22603 min
Histogram: 2 0 2 4 2 3 1 1 0 1

Total # of neighbors = 380300
Ave neighs/atom = 95.075
Neighbor list builds = 0
Dangerous builds = 0
write_dump       all custom md/data/ti_hcp/dump_0.56_relaxed.gz id type x y z
#------------------------------------------------------------------------------#
Total wall time: 0:11:39
