LAMMPS (29 Aug 2024)
OMP_NUM_THREADS environment is not set. Defaulting to 1 thread. (src/comm.cpp:98)
  using 1 OpenMP thread(s) per MPI task

#---------------------------- Atomic setup ------------------------------------#
units            metal
timestep         0.001
boundary         p p p
lattice          hcp 2.951
Lattice spacing in x,y,z = 2.951 5.1112819 4.8189628
region           sim_box block 0 10 0 10 0 10
create_box       1 sim_box
Created orthogonal box = (0 0 0) to (29.51 51.112819 48.189628)
  2 by 4 by 2 MPI processor grid
create_atoms     1 box
Created 4000 atoms
  using lattice units in orthogonal box = (0 0 0) to (29.51 51.112819 48.189628)
  create_atoms CPU = 0.001 seconds

pair_style       meam/spline                                             # interatomic potential (Lennard-Jones, EAM, etc.)
pair_coeff       * * ${potentials_dir}/ti_meam.spline Ti # interatomic potential parameters (ex. eam.alloy ${potentials_dir}/Cu_u3.eam)
pair_coeff       * * md/potentials/ti_meam.spline Ti 
Reading meam/spline potential file md/potentials/ti_meam.spline with DATE: 2012-02-01
pair_modify      tail yes
neigh_modify     delay 0                                                       # neighbor list update frequency (0 = every timestep)
mass             1 47.867                                                 # atomic mass
variable         rnd equal round(random(0,999999,42))

#----------------------------- Equilibriation ---------------------------------#
velocity         all create 2950.32 ${rnd} dist gaussian              # initial velocities
velocity         all create 2950.32 420940 dist gaussian              
fix              f2 all nph iso 0 0 1.0        # barostat
variable         rnd equal round(random(0,999999,0))
fix              f3 all temp/csvr 2950.32 2950.32 0.1 ${rnd} # thermostat
fix              f3 all temp/csvr 2950.32 2950.32 0.1 53464 
run              10000                                           # equilibriation run
Neighbor list info ...
  update: every = 1 steps, delay = 0 steps, check = yes
  max neighbors/atom: 2000, page size: 100000
  master list distance cutoff = 7.5
  ghost atom cutoff = 7.5
  binsize = 3.75, bins = 8 14 13
  2 neighbor lists, perpetual/occasional/extra = 2 0 0
  (1) pair meam/spline, perpetual
      attributes: full, newton on
      pair build: full/bin/atomonly
      stencil: full/bin/3d
      bin: standard
  (2) pair meam/spline, perpetual, half/full from (1)
      attributes: half, newton on
      pair build: halffull/newton
      stencil: none
      bin: none
Per MPI rank memory allocation (min/avg/max) = 3.859 | 3.864 | 3.87 Mbytes
   Step          Temp          E_pair         E_mol          TotEng         Press          Volume    
         0   2950.32       -19273.463      0             -17748.409     -20582.929      72686.31     
     10000   2911.9266     -17154.676      0             -15649.468     -2024.7169      76585.668    
Loop time of 58.6157 on 16 procs for 10000 steps with 4000 atoms

Performance: 14.740 ns/day, 1.628 hours/ns, 170.603 timesteps/s, 682.412 katom-step/s
99.6% CPU use with 16 MPI tasks x 1 OpenMP threads

MPI task timing breakdown:
Section |  min time  |  avg time  |  max time  |%varavg| %total
---------------------------------------------------------------
Pair    | 56.929     | 57.017     | 57.153     |   1.0 | 97.27
Neigh   | 0.25413    | 0.25708    | 0.26009    |   0.3 |  0.44
Comm    | 0.91354    | 1.0378     | 1.1392     |   7.1 |  1.77
Output  | 4.1959e-05 | 4.387e-05  | 6.6485e-05 |   0.0 |  0.00
Modify  | 0.23357    | 0.26704    | 0.31037    |   4.4 |  0.46
Other   |            | 0.03669    |            |       |  0.06

Nlocal:            250 ave         259 max         243 min
Histogram: 3 1 2 1 2 1 3 1 1 1
Nghost:         1483.5 ave        1499 max        1473 min
Histogram: 1 2 3 4 2 1 1 0 1 1
Neighs:        11349.6 ave       11910 max       10970 min
Histogram: 3 2 2 0 4 2 1 0 0 2
FullNghs:      22699.2 ave       23808 max       21948 min
Histogram: 3 2 2 0 4 1 1 1 0 2

Total # of neighbors = 363188
Ave neighs/atom = 90.797
Neighbor list builds = 303
Dangerous builds = 0

#----------------------------- Run simulation ---------------------------------#
dump             d1 all custom 10000 md/data/ti_hcp/dump_1.52.gz id type x y z # snapshots
run              90000
Per MPI rank memory allocation (min/avg/max) = 3.86 | 3.869 | 3.874 Mbytes
   Step          Temp          E_pair         E_mol          TotEng         Press          Volume    
     10000   2911.9266     -17154.676      0             -15649.468     -2024.7169      76585.668    
    100000   2920.411      -17109.834      0             -15600.241      1472.9223      76256.387    
Loop time of 524.809 on 16 procs for 90000 steps with 4000 atoms

Performance: 14.817 ns/day, 1.620 hours/ns, 171.491 timesteps/s, 685.964 katom-step/s
99.6% CPU use with 16 MPI tasks x 1 OpenMP threads

MPI task timing breakdown:
Section |  min time  |  avg time  |  max time  |%varavg| %total
---------------------------------------------------------------
Pair    | 509.67     | 510.26     | 510.76     |   1.4 | 97.23
Neigh   | 2.2937     | 2.3199     | 2.357      |   1.1 |  0.44
Comm    | 8.8685     | 9.4227     | 9.7651     |   8.7 |  1.80
Output  | 0.0086003  | 0.05524    | 0.082218   |  10.5 |  0.01
Modify  | 2.1502     | 2.4231     | 2.7664     |  12.3 |  0.46
Other   |            | 0.3323     |            |       |  0.06

Nlocal:            250 ave         263 max         242 min
Histogram: 4 1 1 2 3 2 2 0 0 1
Nghost:        1485.62 ave        1503 max        1474 min
Histogram: 3 2 2 2 2 0 1 3 0 1
Neighs:        11392.5 ave       12054 max       10972 min
Histogram: 2 4 2 0 3 1 2 1 0 1
FullNghs:        22785 ave       24200 max       21952 min
Histogram: 2 4 2 0 3 1 3 0 0 1

Total # of neighbors = 364560
Ave neighs/atom = 91.14
Neighbor list builds = 2755
Dangerous builds = 0
undump           d1
min_modify       line forcezero
minimize         0 0 100000 100000                                                                               # minimize energy
Per MPI rank memory allocation (min/avg/max) = 4.985 | 4.994 | 4.999 Mbytes
   Step          Temp          E_pair         E_mol          TotEng         Press          Volume    
    100000   2920.411      -17109.834      0             -15600.241      1472.9223      76256.387    
    101459   2920.411      -18858.331      0             -17348.738     -33661.586      76256.387    
Loop time of 17.2457 on 16 procs for 1459 steps with 4000 atoms

99.6% CPU use with 16 MPI tasks x 1 OpenMP threads

Minimization stats:
  Stopping criterion = linesearch alpha is zero
  Energy initial, next-to-last, final = 
     -17109.8342240516  -18858.3312220506  -18858.3312220506
  Force two-norm initial, final = 130.93292 2.2742867e-05
  Force max component initial, final = 8.6356624 5.3084933e-06
  Final line search alpha, max atom move = 0.19120075 1.0149879e-06
  Iterations, force evaluations = 1459 2610

MPI task timing breakdown:
Section |  min time  |  avg time  |  max time  |%varavg| %total
---------------------------------------------------------------
Pair    | 16.945     | 16.977     | 17.005     |   0.5 | 98.44
Neigh   | 0.015917   | 0.016406   | 0.016851   |   0.2 |  0.10
Comm    | 0.17875    | 0.20129    | 0.23201    |   4.2 |  1.17
Output  | 0          | 0          | 0          |   0.0 |  0.00
Modify  | 0          | 0          | 0          |   0.0 |  0.00
Other   |            | 0.05118    |            |       |  0.30

Nlocal:            250 ave         256 max         243 min
Histogram: 2 0 2 1 1 1 4 2 2 1
Nghost:           1488 ave        1502 max        1474 min
Histogram: 1 1 1 3 2 3 2 0 2 1
Neighs:        11288.6 ave       11564 max       10906 min
Histogram: 2 0 1 1 1 3 1 3 1 3
FullNghs:      22577.1 ave       23148 max       21824 min
Histogram: 2 0 1 1 1 3 1 3 3 1

Total # of neighbors = 361234
Ave neighs/atom = 90.3085
Neighbor list builds = 19
Dangerous builds = 0
write_dump       all custom md/data/ti_hcp/dump_1.52_relaxed.gz id type x y z
#------------------------------------------------------------------------------#
Total wall time: 0:10:00
