LAMMPS (29 Aug 2024)
OMP_NUM_THREADS environment is not set. Defaulting to 1 thread. (src/comm.cpp:98)
  using 1 OpenMP thread(s) per MPI task
Lattice spacing in x,y,z = 2.951 5.1112819 4.8189628
Created orthogonal box = (0 0 0) to (29.51 51.112819 48.189628)
  2 by 4 by 2 MPI processor grid
Created 4000 atoms
  using lattice units in orthogonal box = (0 0 0) to (29.51 51.112819 48.189628)
  create_atoms CPU = 0.001 seconds
Reading meam/spline potential file md/potentials/ti_meam.spline with DATE: 2012-02-01
Neighbor list info ...
  update: every = 1 steps, delay = 0 steps, check = yes
  max neighbors/atom: 2000, page size: 100000
  master list distance cutoff = 7.5
  ghost atom cutoff = 7.5
  binsize = 3.75, bins = 8 14 13
  2 neighbor lists, perpetual/occasional/extra = 2 0 0
  (1) pair meam/spline, perpetual
      attributes: full, newton on
      pair build: full/bin/atomonly
      stencil: full/bin/3d
      bin: standard
  (2) pair meam/spline, perpetual, half/full from (1)
      attributes: half, newton on
      pair build: halffull/newton
      stencil: none
      bin: none
Setting up Verlet run ...
  Unit style    : metal
  Current step  : 0
  Time step     : 0.001
Per MPI rank memory allocation (min/avg/max) = 3.859 | 3.864 | 3.87 Mbytes
   Step          Temp          E_pair         E_mol          TotEng         Press          Volume    
         0   1708.08       -19273.463      0             -18390.537     -30018.931      72686.31     
     10000   1672.3531     -18406.995      0             -17542.537     -3310.1293      74301.889    
Loop time of 65.8493 on 16 procs for 10000 steps with 4000 atoms

Performance: 13.121 ns/day, 1.829 hours/ns, 151.862 timesteps/s, 607.448 katom-step/s
99.7% CPU use with 16 MPI tasks x 1 OpenMP threads

MPI task timing breakdown:
Section |  min time  |  avg time  |  max time  |%varavg| %total
---------------------------------------------------------------
Pair    | 64.316     | 64.41      | 64.498     |   0.9 | 97.81
Neigh   | 0.19885    | 0.20252    | 0.20558    |   0.4 |  0.31
Comm    | 0.85412    | 0.94327    | 1.0355     |   7.5 |  1.43
Output  | 3.8122e-05 | 4.7991e-05 | 0.00018647 |   0.0 |  0.00
Modify  | 0.25076    | 0.25605    | 0.25968    |   0.5 |  0.39
Other   |            | 0.03762    |            |       |  0.06

Nlocal:            250 ave         256 max         243 min
Histogram: 1 0 2 3 1 1 4 1 0 3
Nghost:        1550.06 ave        1563 max        1540 min
Histogram: 3 1 1 2 1 3 3 1 0 1
Neighs:        11603.2 ave       11913 max       11200 min
Histogram: 1 0 2 2 1 4 1 0 2 3
FullNghs:      23206.4 ave       23891 max       22551 min
Histogram: 1 1 1 3 4 0 1 3 1 1

Total # of neighbors = 371302
Ave neighs/atom = 92.8255
Neighbor list builds = 225
Dangerous builds = 0
Setting up Verlet run ...
  Unit style    : metal
  Current step  : 10000
  Time step     : 0.001
Per MPI rank memory allocation (min/avg/max) = 3.859 | 3.868 | 3.873 Mbytes
   Step          Temp          E_pair         E_mol          TotEng         Press          Volume    
     10000   1672.3531     -18406.995      0             -17542.537     -3310.1293      74301.889    
    100000   1695.4831     -18383.124      0             -17506.709     -904.1754       74152.33     
Loop time of 594.375 on 16 procs for 90000 steps with 4000 atoms

Performance: 13.083 ns/day, 1.834 hours/ns, 151.420 timesteps/s, 605.679 katom-step/s
99.6% CPU use with 16 MPI tasks x 1 OpenMP threads

MPI task timing breakdown:
Section |  min time  |  avg time  |  max time  |%varavg| %total
---------------------------------------------------------------
Pair    | 580.31     | 581.13     | 582.29     |   2.9 | 97.77
Neigh   | 1.8039     | 1.8408     | 1.875      |   1.6 |  0.31
Comm    | 7.4959     | 8.6674     | 9.5053     |  23.8 |  1.46
Output  | 0.008208   | 0.054083   | 0.081267   |  10.7 |  0.01
Modify  | 2.2715     | 2.3458     | 2.4094     |   2.6 |  0.39
Other   |            | 0.3398     |            |       |  0.06

Nlocal:            250 ave         262 max         238 min
Histogram: 1 0 4 2 0 2 3 2 1 1
Nghost:        1539.62 ave        1557 max        1518 min
Histogram: 1 0 0 2 3 3 4 2 0 1
Neighs:        11631.8 ave       12231 max       11122 min
Histogram: 2 0 2 2 3 0 5 1 0 1
FullNghs:      23263.5 ave       24513 max       21965 min
Histogram: 1 1 1 3 2 0 5 2 0 1

Total # of neighbors = 372216
Ave neighs/atom = 93.054
Neighbor list builds = 2042
Dangerous builds = 0
Setting up cg style minimization ...
  Unit style    : metal
  Current step  : 100000
Per MPI rank memory allocation (min/avg/max) = 4.984 | 4.993 | 4.998 Mbytes
   Step          Temp          E_pair         E_mol          TotEng         Press          Volume    
    100000   1695.4831     -18383.124      0             -17506.709     -904.1754       74152.33     
    100277   1695.4831     -19227.063      0             -18350.649     -43620.148      74152.33     
Loop time of 5.15142 on 16 procs for 277 steps with 4000 atoms

99.4% CPU use with 16 MPI tasks x 1 OpenMP threads

Minimization stats:
  Stopping criterion = linesearch alpha is zero
  Energy initial, next-to-last, final = 
     -18383.1236969001  -19227.0630739571  -19227.0630739571
  Force two-norm initial, final = 92.492821 1.1684116e-05
  Force max component initial, final = 4.3030942 4.6232719e-07
  Final line search alpha, max atom move = 0.53000785 2.4503704e-07
  Iterations, force evaluations = 277 726

MPI task timing breakdown:
Section |  min time  |  avg time  |  max time  |%varavg| %total
---------------------------------------------------------------
Pair    | 4.8033     | 5.022      | 5.099      |   5.4 | 97.49
Neigh   | 0.00082389 | 0.00087725 | 0.00096325 |   0.0 |  0.02
Comm    | 0.039078   | 0.11472    | 0.32801    |  35.1 |  2.23
Output  | 0          | 0          | 0          |   0.0 |  0.00
Modify  | 0          | 0          | 0          |   0.0 |  0.00
Other   |            | 0.01381    |            |       |  0.27

Nlocal:            250 ave         270 max         236 min
Histogram: 1 3 1 4 2 3 0 1 0 1
Nghost:         1588.5 ave        1608 max        1571 min
Histogram: 2 2 1 0 3 4 0 2 1 1
Neighs:        11261.5 ave       12077 max       10404 min
Histogram: 1 1 2 1 1 4 2 2 1 1
FullNghs:        22523 ave       24529 max       21176 min
Histogram: 1 3 2 3 1 4 0 0 1 1

Total # of neighbors = 360368
Ave neighs/atom = 90.092
Neighbor list builds = 1
Dangerous builds = 0
Total wall time: 0:11:05
