LAMMPS (29 Aug 2024)
OMP_NUM_THREADS environment is not set. Defaulting to 1 thread. (src/comm.cpp:98)
  using 1 OpenMP thread(s) per MPI task
Lattice spacing in x,y,z = 2.951 5.1112819 4.8189628
Created orthogonal box = (0 0 0) to (29.51 51.112819 48.189628)
  2 by 4 by 2 MPI processor grid
Created 4000 atoms
  using lattice units in orthogonal box = (0 0 0) to (29.51 51.112819 48.189628)
  create_atoms CPU = 0.001 seconds
Reading meam/spline potential file md/potentials/ti_meam.spline with DATE: 2012-02-01
Neighbor list info ...
  update: every = 1 steps, delay = 0 steps, check = yes
  max neighbors/atom: 2000, page size: 100000
  master list distance cutoff = 7.5
  ghost atom cutoff = 7.5
  binsize = 3.75, bins = 8 14 13
  2 neighbor lists, perpetual/occasional/extra = 2 0 0
  (1) pair meam/spline, perpetual
      attributes: full, newton on
      pair build: full/bin/atomonly
      stencil: full/bin/3d
      bin: standard
  (2) pair meam/spline, perpetual, half/full from (1)
      attributes: half, newton on
      pair build: halffull/newton
      stencil: none
      bin: none
Setting up Verlet run ...
  Unit style    : metal
  Current step  : 0
  Time step     : 0.001
Per MPI rank memory allocation (min/avg/max) = 3.859 | 3.864 | 3.87 Mbytes
   Step          Temp          E_pair         E_mol          TotEng         Press          Volume    
         0   2329.2        -19273.463      0             -18069.473     -25300.93       72686.31     
     10000   2297.1692     -17528.239      0             -16340.806     -1411.6379      75373.946    
Loop time of 61.9018 on 16 procs for 10000 steps with 4000 atoms

Performance: 13.958 ns/day, 1.719 hours/ns, 161.546 timesteps/s, 646.185 katom-step/s
99.7% CPU use with 16 MPI tasks x 1 OpenMP threads

MPI task timing breakdown:
Section |  min time  |  avg time  |  max time  |%varavg| %total
---------------------------------------------------------------
Pair    | 60.404     | 60.513     | 60.74      |   1.3 | 97.76
Neigh   | 0.23708    | 0.24045    | 0.24306    |   0.3 |  0.39
Comm    | 0.64836    | 0.86644    | 0.99461    |  10.3 |  1.40
Output  | 4.2539e-05 | 4.4177e-05 | 5.7378e-05 |   0.0 |  0.00
Modify  | 0.22612    | 0.24581    | 0.29159    |   5.2 |  0.40
Other   |            | 0.03554    |            |       |  0.06

Nlocal:            250 ave         261 max         240 min
Histogram: 1 2 1 1 4 3 2 0 1 1
Nghost:        1499.38 ave        1511 max        1480 min
Histogram: 1 0 1 0 3 3 2 2 0 4
Neighs:        11515.4 ave       11925 max       11023 min
Histogram: 2 1 0 1 2 3 1 3 1 2
FullNghs:      23030.8 ave       23792 max       21980 min
Histogram: 1 1 1 1 1 4 1 3 1 2

Total # of neighbors = 368492
Ave neighs/atom = 92.123
Neighbor list builds = 268
Dangerous builds = 0
Setting up Verlet run ...
  Unit style    : metal
  Current step  : 10000
  Time step     : 0.001
Per MPI rank memory allocation (min/avg/max) = 3.86 | 3.869 | 3.873 Mbytes
   Step          Temp          E_pair         E_mol          TotEng         Press          Volume    
     10000   2297.1692     -17528.239      0             -16340.806     -1411.6379      75373.946    
    100000   2311.9562     -17486.578      0             -16291.502      1911.4437      75427.792    
Loop time of 541.563 on 16 procs for 90000 steps with 4000 atoms

Performance: 14.358 ns/day, 1.671 hours/ns, 166.186 timesteps/s, 664.743 katom-step/s
99.6% CPU use with 16 MPI tasks x 1 OpenMP threads

MPI task timing breakdown:
Section |  min time  |  avg time  |  max time  |%varavg| %total
---------------------------------------------------------------
Pair    | 528.65     | 529.21     | 530.32     |   1.9 | 97.72
Neigh   | 2.1199     | 2.144      | 2.1654     |   1.0 |  0.40
Comm    | 6.5637     | 7.6382     | 8.2814     |  14.3 |  1.41
Output  | 0.0082119  | 0.055571   | 0.081894   |  10.4 |  0.01
Modify  | 2.0237     | 2.1931     | 2.4347     |   9.3 |  0.40
Other   |            | 0.3199     |            |       |  0.06

Nlocal:            250 ave         258 max         241 min
Histogram: 1 1 2 1 0 5 1 4 0 1
Nghost:        1500.25 ave        1510 max        1490 min
Histogram: 1 0 2 2 2 2 2 3 1 1
Neighs:        11496.3 ave       11860 max       10854 min
Histogram: 1 1 0 1 2 2 1 1 4 3
FullNghs:      22992.6 ave       23695 max       21816 min
Histogram: 1 1 0 1 2 2 1 1 6 1

Total # of neighbors = 367882
Ave neighs/atom = 91.9705
Neighbor list builds = 2423
Dangerous builds = 0
Setting up cg style minimization ...
  Unit style    : metal
  Current step  : 100000
Per MPI rank memory allocation (min/avg/max) = 4.985 | 4.994 | 4.998 Mbytes
   Step          Temp          E_pair         E_mol          TotEng         Press          Volume    
    100000   2311.9562     -17486.578      0             -16291.502      1911.4437      75427.792    
    101140   2311.9562     -18882.791      0             -17687.714     -29852.902      75427.792    
Loop time of 14.672 on 16 procs for 1140 steps with 4000 atoms

99.7% CPU use with 16 MPI tasks x 1 OpenMP threads

Minimization stats:
  Stopping criterion = linesearch alpha is zero
  Energy initial, next-to-last, final = 
     -17486.5779505005  -18882.7906048386  -18882.7906048386
  Force two-norm initial, final = 109.21354 7.1822972e-05
  Force max component initial, final = 7.428131 2.2902239e-05
  Final line search alpha, max atom move = 0.20801104 4.7639187e-06
  Iterations, force evaluations = 1140 2127

MPI task timing breakdown:
Section |  min time  |  avg time  |  max time  |%varavg| %total
---------------------------------------------------------------
Pair    | 14.263     | 14.334     | 14.545     |   1.6 | 97.70
Neigh   | 0.011038   | 0.011388   | 0.011628   |   0.1 |  0.08
Comm    | 0.08518    | 0.24689    | 0.36454    |  20.9 |  1.68
Output  | 0          | 0          | 0          |   0.0 |  0.00
Modify  | 0          | 0          | 0          |   0.0 |  0.00
Other   |            | 0.07947    |            |       |  0.54

Nlocal:            250 ave         258 max         240 min
Histogram: 1 1 1 0 2 4 2 2 2 1
Nghost:        1496.94 ave        1511 max        1478 min
Histogram: 2 0 0 2 2 2 2 2 3 1
Neighs:        11440.1 ave       11776 max       10956 min
Histogram: 2 0 0 1 0 6 1 2 2 2
FullNghs:      22880.1 ave       23531 max       21956 min
Histogram: 1 1 0 1 2 4 1 2 1 3

Total # of neighbors = 366082
Ave neighs/atom = 91.5205
Neighbor list builds = 13
Dangerous builds = 0
Total wall time: 0:10:18
