LAMMPS (29 Aug 2024)
OMP_NUM_THREADS environment is not set. Defaulting to 1 thread. (src/comm.cpp:98)
  using 1 OpenMP thread(s) per MPI task
Lattice spacing in x,y,z = 2.951 5.1112819 4.8189628
Created orthogonal box = (0 0 0) to (29.51 51.112819 48.189628)
  2 by 4 by 2 MPI processor grid
Created 4000 atoms
  using lattice units in orthogonal box = (0 0 0) to (29.51 51.112819 48.189628)
  create_atoms CPU = 0.001 seconds
Reading meam/spline potential file md/potentials/ti_meam.spline with DATE: 2012-02-01
Neighbor list info ...
  update: every = 1 steps, delay = 0 steps, check = yes
  max neighbors/atom: 2000, page size: 100000
  master list distance cutoff = 7.5
  ghost atom cutoff = 7.5
  binsize = 3.75, bins = 8 14 13
  2 neighbor lists, perpetual/occasional/extra = 2 0 0
  (1) pair meam/spline, perpetual
      attributes: full, newton on
      pair build: full/bin/atomonly
      stencil: full/bin/3d
      bin: standard
  (2) pair meam/spline, perpetual, half/full from (1)
      attributes: half, newton on
      pair build: halffull/newton
      stencil: none
      bin: none
Setting up Verlet run ...
  Unit style    : metal
  Current step  : 0
  Time step     : 0.001
Per MPI rank memory allocation (min/avg/max) = 3.859 | 3.864 | 3.87 Mbytes
   Step          Temp          E_pair         E_mol          TotEng         Press          Volume    
         0   1397.52       -19273.463      0             -18551.069     -32377.931      72686.31     
     10000   1370.2185     -18587.765      0             -17879.484     -817.38667      73407.826    
Loop time of 67.7281 on 16 procs for 10000 steps with 4000 atoms

Performance: 12.757 ns/day, 1.881 hours/ns, 147.649 timesteps/s, 590.596 katom-step/s
99.6% CPU use with 16 MPI tasks x 1 OpenMP threads

MPI task timing breakdown:
Section |  min time  |  avg time  |  max time  |%varavg| %total
---------------------------------------------------------------
Pair    | 66.234     | 66.371     | 66.45      |   1.0 | 98.00
Neigh   | 0.17805    | 0.18159    | 0.18499    |   0.5 |  0.27
Comm    | 0.82186    | 0.89765    | 1.0375     |   8.2 |  1.33
Output  | 3.9825e-05 | 5.0286e-05 | 0.0001984  |   0.0 |  0.00
Modify  | 0.2384     | 0.24129    | 0.24679    |   0.6 |  0.36
Other   |            | 0.03608    |            |       |  0.05

Nlocal:            250 ave         261 max         241 min
Histogram: 1 1 4 3 1 0 1 3 1 1
Nghost:        1570.88 ave        1588 max        1561 min
Histogram: 4 3 1 2 0 0 3 1 1 1
Neighs:        11745.2 ave       12279 max       11250 min
Histogram: 1 1 3 4 0 1 2 1 1 2
FullNghs:      23490.4 ave       24572 max       22528 min
Histogram: 1 1 4 2 1 1 1 3 1 1

Total # of neighbors = 375846
Ave neighs/atom = 93.9615
Neighbor list builds = 200
Dangerous builds = 0
Setting up Verlet run ...
  Unit style    : metal
  Current step  : 10000
  Time step     : 0.001
Per MPI rank memory allocation (min/avg/max) = 3.859 | 3.868 | 3.873 Mbytes
   Step          Temp          E_pair         E_mol          TotEng         Press          Volume    
     10000   1370.2185     -18587.765      0             -17879.484     -817.38667      73407.826    
    100000   1392.3933     -18571.641      0             -17851.897     -1513.2134      73561.422    
Loop time of 609.332 on 16 procs for 90000 steps with 4000 atoms

Performance: 12.762 ns/day, 1.881 hours/ns, 147.703 timesteps/s, 590.810 katom-step/s
99.6% CPU use with 16 MPI tasks x 1 OpenMP threads

MPI task timing breakdown:
Section |  min time  |  avg time  |  max time  |%varavg| %total
---------------------------------------------------------------
Pair    | 596.2      | 596.9      | 597.36     |   1.7 | 97.96
Neigh   | 1.6101     | 1.6479     | 1.6832     |   1.7 |  0.27
Comm    | 7.6963     | 8.1457     | 8.8388     |  14.5 |  1.34
Output  | 0.0081635  | 0.054714   | 0.082204   |  10.8 |  0.01
Modify  | 2.168      | 2.2583     | 2.3463     |   3.2 |  0.37
Other   |            | 0.3237     |            |       |  0.05

Nlocal:            250 ave         264 max         240 min
Histogram: 3 2 1 1 3 3 0 1 1 1
Nghost:         1559.5 ave        1576 max        1539 min
Histogram: 1 1 0 1 3 3 2 2 1 2
Neighs:        11718.8 ave       12426 max       11170 min
Histogram: 2 2 2 0 5 1 1 0 1 2
FullNghs:      23437.5 ave       24800 max       22319 min
Histogram: 2 3 1 0 5 1 1 0 1 2

Total # of neighbors = 375000
Ave neighs/atom = 93.75
Neighbor list builds = 1819
Dangerous builds = 0
Setting up cg style minimization ...
  Unit style    : metal
  Current step  : 100000
Per MPI rank memory allocation (min/avg/max) = 4.984 | 4.993 | 4.998 Mbytes
   Step          Temp          E_pair         E_mol          TotEng         Press          Volume    
    100000   1392.3933     -18571.641      0             -17851.897     -1513.2134      73561.422    
    100084   1392.3933     -19247.158      0             -18527.414     -42670.059      73561.422    
Loop time of 1.08184 on 16 procs for 84 steps with 4000 atoms

99.6% CPU use with 16 MPI tasks x 1 OpenMP threads

Minimization stats:
  Stopping criterion = linesearch alpha is zero
  Energy initial, next-to-last, final = 
     -18571.6405199521  -19247.1582550627  -19247.1582550627
  Force two-norm initial, final = 82.934535 7.0881601e-06
  Force max component initial, final = 3.6334051 2.5794118e-07
  Final line search alpha, max atom move = 0.079127395 2.0410213e-08
  Iterations, force evaluations = 84 157

MPI task timing breakdown:
Section |  min time  |  avg time  |  max time  |%varavg| %total
---------------------------------------------------------------
Pair    | 1.0622     | 1.0673     | 1.0702     |   0.3 | 98.65
Neigh   | 0.00083181 | 0.0008703  | 0.00090223 |   0.0 |  0.08
Comm    | 0.0082055  | 0.01077    | 0.014806   |   2.2 |  1.00
Output  | 0          | 0          | 0          |   0.0 |  0.00
Modify  | 0          | 0          | 0          |   0.0 |  0.00
Other   |            | 0.002925   |            |       |  0.27

Nlocal:            250 ave         259 max         240 min
Histogram: 1 1 1 1 3 4 1 1 2 1
Nghost:        1622.75 ave        1637 max        1608 min
Histogram: 1 0 0 4 4 2 2 1 1 1
Neighs:        11470.6 ave       12172 max       10939 min
Histogram: 3 2 2 0 0 4 2 2 0 1
FullNghs:      22941.2 ave       23769 max       21970 min
Histogram: 1 1 1 0 4 4 1 1 1 2

Total # of neighbors = 367060
Ave neighs/atom = 91.765
Neighbor list builds = 1
Dangerous builds = 0
Total wall time: 0:11:18
