1728
Frame 1/10
C 0.000000 0.000000 0.000000
C 0.000000 0.500000 0.500000
C 0.500000 0.000000 0.500000
C 0.500000 0.500000 0.000000
C 0.250000 0.250000 0.250000
C 0.250000 0.750000 0.750000
C 0.750000 0.250000 0.750000
C 0.750000 0.750000 0.250000
C 1.000000 0.000000 0.000000
C 1.000000 0.500000 0.500000
C 1.500000 0.000000 0.500000
C 1.500000 0.500000 0.000000
C 1.250000 0.250000 0.250000
C 1.250000 0.750000 0.750000
C 1.750000 0.250000 0.750000
C 1.750000 0.750000 0.250000
C 2.000000 0.000000 0.000000
C 2.000000 0.500000 0.500000
C 2.500000 0.000000 0.500000
C 2.500000 0.500000 0.000000
C 2.250000 0.250000 0.250000
C 2.250000 0.750000 0.750000
C 2.750000 0.250000 0.750000
C 2.750000 0.750000 0.250000
C 3.000000 0.000000 0.000000
C 3.000000 0.500000 0.500000
C 3.500000 0.000000 0.500000
C 3.500000 0.500000 0.000000
C 3.250000 0.250000 0.250000
C 3.250000 0.750000 0.750000
C 3.750000 0.250000 0.750000
C 3.750000 0.750000 0.250000
C 4.000000 0.000000 0.000000
C 4.000000 0.500000 0.500000
C 4.500000 0.000000 0.500000
C 4.500000 0.500000 0.000000
C 4.250000 0.250000 0.250000
C 4.250000 0.750000 0.750000
C 4.750000 0.250000 0.750000
C 4.750000 0.750000 0.250000
C 5.000000 0.000000 0.000000
C 5.000000 0.500000 0.500000
C 5.500000 0.000000 0.500000
C 5.500000 0.500000 0.000000
C 5.250000 0.250000 0.250000
C 5.250000 0.750000 0.750000
C 5.750000 0.250000 0.750000
C 5.750000 0.750000 0.250000
C 0.000000 1.000000 0.000000
C 0.000000 1.500000 0.500000
C 0.500000 1.000000 0.500000
C 0.500000 1.500000 0.000000
C 0.250000 1.250000 0.250000
C 0.250000 1.750000 0.750000
C 0.750000 1.250000 0.750000
C 0.750000 1.750000 0.250000
C 1.000000 1.000000 0.000000
C 1.000000 1.500000 0.500000
C 1.500000 1.000000 0.500000
C 1.500000 1.500000 0.000000
C 1.250000 1.250000 0.250000
C 1.250000 1.750000 0.750000
C 1.750000 1.250000 0.750000
C 1.750000 1.750000 0.250000
C 2.000000 1.000000 0.000000
C 2.000000 1.500000 0.500000
C 2.500000 1.000000 0.500000
C 2.500000 1.500000 0.000000
C 2.250000 1.250000 0.250000
C 2.250000 1.750000 0.750000
C 2.750000 1.250000 0.750000
C 2.750000 1.750000 0.250000
C 3.000000 1.000000 0.000000
C 3.000000 1.500000 0.500000
C 3.500000 1.000000 0.500000
C 3.500000 1.500000 0.000000
C 3.250000 1.250000 0.250000
C 3.250000 1.750000 0.750000
C 3.750000 1.250000 0.750000
C 3.750000 1.750000 0.250000
C 4.000000 1.000000 0.000000
C 4.000000 1.500000 0.500000
C 4.500000 1.000000 0.500000
C 4.500000 1.500000 0.000000
C 4.250000 1.250000 0.250000
C 4.250000 1.750000 0.750000
C 4.750000 1.250000 0.750000
C 4.750000 1.750000 0.250000
C 5.000000 1.000000 0.000000
C 5.000000 1.500000 0.500000
C 5.500000 1.000000 0.500000
C 5.500000 1.500000 0.000000
C 5.250000 1.250000 0.250000
C 5.250000 1.750000 0.750000
C 5.750000 1.250000 0.750000
C 5.750000 1.750000 0.250000
C 0.000000 2.000000 0.000000
C 0.000000 2.500000 0.500000
C 0.500000 2.000000 0.500000
C 0.500000 2.500000 0.000000
C 0.250000 2.250000 0.250000
C 0.250000 2.750000 0.750000
C 0.750000 2.250000 0.750000
C 0.750000 2.750000 0.250000
C 1.000000 2.000000 0.000000
C 1.000000 2.500000 0.500000
C 1.500000 2.000000 0.500000
C 1.500000 2.500000 0.000000
C 1.250000 2.250000 0.250000
C 1.250000 2.750000 0.750000
C 1.750000 2.250000 0.750000
C 1.750000 2.750000 0.250000
C 2.000000 2.000000 0.000000
C 2.000000 2.500000 0.500000
C 2.500000 2.000000 0.500000
C 2.500000 2.500000 0.000000
C 2.250000 2.250000 0.250000
C 2.250000 2.750000 0.750000
C 2.750000 2.250000 0.750000
C 2.750000 2.750000 0.250000
C 3.000000 2.000000 0.000000
C 3.000000 2.500000 0.500000
C 3.500000 2.000000 0.500000
C 3.500000 2.500000 0.000000
C 3.250000 2.250000 0.250000
C 3.250000 2.750000 0.750000
C 3.750000 2.250000 0.750000
C 3.750000 2.750000 0.250000
C 4.000000 2.000000 0.000000
C 4.000000 2.500000 0.500000
C 4.500000 2.000000 0.500000
C 4.500000 2.500000 0.000000
C 4.250000 2.250000 0.250000
C 4.250000 2.750000 0.750000
C 4.750000 2.250000 0.750000
C 4.750000 2.750000 0.250000
C 5.000000 2.000000 0.000000
C 5.000000 2.500000 0.500000
C 5.500000 2.000000 0.500000
C 5.500000 2.500000 0.000000
C 5.250000 2.250000 0.250000
C 5.250000 2.750000 0.750000
C 5.750000 2.250000 0.750000
C 5.750000 2.750000 0.250000
C 0.000000 3.000000 0.000000
C 0.000000 3.500000 0.500000
C 0.500000 3.000000 0.500000
C 0.500000 3.500000 0.000000
C 0.250000 3.250000 0.250000
C 0.250000 3.750000 0.750000
C 0.750000 3.250000 0.750000
C 0.750000 3.750000 0.250000
C 1.000000 3.000000 0.000000
C 1.000000 3.500000 0.500000
C 1.500000 3.000000 0.500000
C 1.500000 3.500000 0.000000
C 1.250000 3.250000 0.250000
C 1.250000 3.750000 0.750000
C 1.750000 3.250000 0.750000
C 1.750000 3.750000 0.250000
C 2.000000 3.000000 0.000000
C 2.000000 3.500000 0.500000
C 2.500000 3.000000 0.500000
C 2.500000 3.500000 0.000000
C 2.250000 3.250000 0.250000
C 2.250000 3.750000 0.750000
C 2.750000 3.250000 0.750000
C 2.750000 3.750000 0.250000
C 3.000000 3.000000 0.000000
C 3.000000 3.500000 0.500000
C 3.500000 3.000000 0.500000
C 3.500000 3.500000 0.000000
C 3.250000 3.250000 0.250000
C 3.250000 3.750000 0.750000
C 3.750000 3.250000 0.750000
C 3.750000 3.750000 0.250000
C 4.000000 3.000000 0.000000
C 4.000000 3.500000 0.500000
C 4.500000 3.000000 0.500000
C 4.500000 3.500000 0.000000
C 4.250000 3.250000 0.250000
C 4.250000 3.750000 0.750000
C 4.750000 3.250000 0.750000
C 4.750000 3.750000 0.250000
C 5.000000 3.000000 0.000000
C 5.000000 3.500000 0.500000
C 5.500000 3.000000 0.500000
C 5.500000 3.500000 0.000000
C 5.250000 3.250000 0.250000
C 5.250000 3.750000 0.750000
C 5.750000 3.250000 0.750000
C 5.750000 3.750000 0.250000
C 0.000000 4.000000 0.000000
C 0.000000 4.500000 0.500000
C 0.500000 4.000000 0.500000
C 0.500000 4.500000 0.000000
C 0.250000 4.250000 0.250000
C 0.250000 4.750000 0.750000
C 0.750000 4.250000 0.750000
C 0.750000 4.750000 0.250000
C 1.000000 4.000000 0.000000
C 1.000000 4.500000 0.500000
C 1.500000 4.000000 0.500000
C 1.500000 4.500000 0.000000
C 1.250000 4.250000 0.250000
C 1.250000 4.750000 0.750000
C 1.750000 4.250000 0.750000
C 1.750000 4.750000 0.250000
C 2.000000 4.000000 0.000000
C 2.000000 4.500000 0.500000
C 2.500000 4.000000 0.500000
C 2.500000 4.500000 0.000000
C 2.250000 4.250000 0.250000
C 2.250000 4.750000 0.750000
C 2.750000 4.250000 0.750000
C 2.750000 4.750000 0.250000
C 3.000000 4.000000 0.000000
C 3.000000 4.500000 0.500000
C 3.500000 4.000000 0.500000
C 3.500000 4.500000 0.000000
C 3.250000 4.250000 0.250000
C 3.250000 4.750000 0.750000
C 3.750000 4.250000 0.750000
C 3.750000 4.750000 0.250000
C 4.000000 4.000000 0.000000
C 4.000000 4.500000 0.500000
C 4.500000 4.000000 0.500000
C 4.500000 4.500000 0.000000
C 4.250000 4.250000 0.250000
C 4.250000 4.750000 0.750000
C 4.750000 4.250000 0.750000
C 4.750000 4.750000 0.250000
C 5.000000 4.000000 0.000000
C 5.000000 4.500000 0.500000
C 5.500000 4.000000 0.500000
C 5.500000 4.500000 0.000000
C 5.250000 4.250000 0.250000
C 5.250000 4.750000 0.750000
C 5.750000 4.250000 0.750000
C 5.750000 4.750000 0.250000
C 0.000000 5.000000 0.000000
C 0.000000 5.500000 0.500000
C 0.500000 5.000000 0.500000
C 0.500000 5.500000 0.000000
C 0.250000 5.250000 0.250000
C 0.250000 5.750000 0.750000
C 0.750000 5.250000 0.750000
C 0.750000 5.750000 0.250000
C 1.000000 5.000000 0.000000
C 1.000000 5.500000 0.500000
C 1.500000 5.000000 0.500000
C 1.500000 5.500000 0.000000
C 1.250000 5.250000 0.250000
C 1.250000 5.750000 0.750000
C 1.750000 5.250000 0.750000
C 1.750000 5.750000 0.250000
C 2.000000 5.000000 0.000000
C 2.000000 5.500000 0.500000
C 2.500000 5.000000 0.500000
C 2.500000 5.500000 0.000000
C 2.250000 5.250000 0.250000
C 2.250000 5.750000 0.750000
C 2.750000 5.250000 0.750000
C 2.750000 5.750000 0.250000
C 3.000000 5.000000 0.000000
C 3.000000 5.500000 0.500000
C 3.500000 5.000000 0.500000
C 3.500000 5.500000 0.000000
C 3.250000 5.250000 0.250000
C 3.250000 5.750000 0.750000
C 3.750000 5.250000 0.750000
C 3.750000 5.750000 0.250000
C 4.000000 5.000000 0.000000
C 4.000000 5.500000 0.500000
C 4.500000 5.000000 0.500000
C 4.500000 5.500000 0.000000
C 4.250000 5.250000 0.250000
C 4.250000 5.750000 0.750000
C 4.750000 5.250000 0.750000
C 4.750000 5.750000 0.250000
C 5.000000 5.000000 0.000000
C 5.000000 5.500000 0.500000
C 5.500000 5.000000 0.500000
C 5.500000 5.500000 0.000000
C 5.250000 5.250000 0.250000
C 5.250000 5.750000 0.750000
C 5.750000 5.250000 0.750000
C 5.750000 5.750000 0.250000
C 0.000000 0.000000 1.000000
C 0.000000 0.500000 1.500000
C 0.500000 0.000000 1.500000
C 0.500000 0.500000 1.000000
C 0.250000 0.250000 1.250000
C 0.250000 0.750000 1.750000
C 0.750000 0.250000 1.750000
C 0.750000 0.750000 1.250000
C 1.000000 0.000000 1.000000
C 1.000000 0.500000 1.500000
C 1.500000 0.000000 1.500000
C 1.500000 0.500000 1.000000
C 1.250000 0.250000 1.250000
C 1.250000 0.750000 1.750000
C 1.750000 0.250000 1.750000
C 1.750000 0.750000 1.250000
C 2.000000 0.000000 1.000000
C 2.000000 0.500000 1.500000
C 2.500000 0.000000 1.500000
C 2.500000 0.500000 1.000000
C 2.250000 0.250000 1.250000
C 2.250000 0.750000 1.750000
C 2.750000 0.250000 1.750000
C 2.750000 0.750000 1.250000
C 3.000000 0.000000 1.000000
C 3.000000 0.500000 1.500000
C 3.500000 0.000000 1.500000
C 3.500000 0.500000 1.000000
C 3.250000 0.250000 1.250000
C 3.250000 0.750000 1.750000
C 3.750000 0.250000 1.750000
C 3.750000 0.750000 1.250000
C 4.000000 0.000000 1.000000
C 4.000000 0.500000 1.500000
C 4.500000 0.000000 1.500000
C 4.500000 0.500000 1.000000
C 4.250000 0.250000 1.250000
C 4.250000 0.750000 1.750000
C 4.750000 0.250000 1.750000
C 4.750000 0.750000 1.250000
C 5.000000 0.000000 1.000000
C 5.000000 0.500000 1.500000
C 5.500000 0.000000 1.500000
C 5.500000 0.500000 1.000000
C 5.250000 0.250000 1.250000
C 5.250000 0.750000 1.750000
C 5.750000 0.250000 1.750000
C 5.750000 0.750000 1.250000
C 0.000000 1.000000 1.000000
C 0.000000 1.500000 1.500000
C 0.500000 1.000000 1.500000
C 0.500000 1.500000 1.000000
C 0.250000 1.250000 1.250000
C 0.250000 1.750000 1.750000
C 0.750000 1.250000 1.750000
C 0.750000 1.750000 1.250000
C 1.000000 1.000000 1.000000
C 1.000000 1.500000 1.500000
C 1.500000 1.000000 1.500000
C 1.500000 1.500000 1.000000
C 1.250000 1.250000 1.250000
C 1.250000 1.750000 1.750000
C 1.750000 1.250000 1.750000
C 1.750000 1.750000 1.250000
C 2.000000 1.000000 1.000000
C 2.000000 1.500000 1.500000
C 2.500000 1.000000 1.500000
C 2.500000 1.500000 1.000000
C 2.250000 1.250000 1.250000
C 2.250000 1.750000 1.750000
C 2.750000 1.250000 1.750000
C 2.750000 1.750000 1.250000
C 3.000000 1.000000 1.000000
C 3.000000 1.500000 1.500000
C 3.500000 1.000000 1.500000
C 3.500000 1.500000 1.000000
C 3.250000 1.250000 1.250000
C 3.250000 1.750000 1.750000
C 3.750000 1.250000 1.750000
C 3.750000 1.750000 1.250000
C 4.000000 1.000000 1.000000
C 4.000000 1.500000 1.500000
C 4.500000 1.000000 1.500000
C 4.500000 1.500000 1.000000
C 4.250000 1.250000 1.250000
C 4.250000 1.750000 1.750000
C 4.750000 1.250000 1.750000
C 4.750000 1.750000 1.250000
C 5.000000 1.000000 1.000000
C 5.000000 1.500000 1.500000
C 5.500000 1.000000 1.500000
C 5.500000 1.500000 1.000000
C 5.250000 1.250000 1.250000
C 5.250000 1.750000 1.750000
C 5.750000 1.250000 1.750000
C 5.750000 1.750000 1.250000
C 0.000000 2.000000 1.000000
C 0.000000 2.500000 1.500000
C 0.500000 2.000000 1.500000
C 0.500000 2.500000 1.000000
C 0.250000 2.250000 1.250000
C 0.250000 2.750000 1.750000
C 0.750000 2.250000 1.750000
C 0.750000 2.750000 1.250000
C 1.000000 2.000000 1.000000
C 1.000000 2.500000 1.500000
C 1.500000 2.000000 1.500000
C 1.500000 2.500000 1.000000
C 1.250000 2.250000 1.250000
C 1.250000 2.750000 1.750000
C 1.750000 2.250000 1.750000
C 1.750000 2.750000 1.250000
C 2.000000 2.000000 1.000000
C 2.000000 2.500000 1.500000
C 2.500000 2.000000 1.500000
C 2.500000 2.500000 1.000000
C 2.250000 2.250000 1.250000
C 2.250000 2.750000 1.750000
C 2.750000 2.250000 1.750000
C 2.750000 2.750000 1.250000
C 3.000000 2.000000 1.000000
C 3.000000 2.500000 1.500000
C 3.500000 2.000000 1.500000
C 3.500000 2.500000 1.000000
C 3.250000 2.250000 1.250000
C 3.250000 2.750000 1.750000
C 3.750000 2.250000 1.750000
C 3.750000 2.750000 1.250000
C 4.000000 2.000000 1.000000
C 4.000000 2.500000 1.500000
C 4.500000 2.000000 1.500000
C 4.500000 2.500000 1.000000
C 4.250000 2.250000 1.250000
C 4.250000 2.750000 1.750000
C 4.750000 2.250000 1.750000
C 4.750000 2.750000 1.250000
C 5.000000 2.000000 1.000000
C 5.000000 2.500000 1.500000
C 5.500000 2.000000 1.500000
C 5.500000 2.500000 1.000000
C 5.250000 2.250000 1.250000
C 5.250000 2.750000 1.750000
C 5.750000 2.250000 1.750000
C 5.750000 2.750000 1.250000
C 0.000000 3.000000 1.000000
C 0.000000 3.500000 1.500000
C 0.500000 3.000000 1.500000
C 0.500000 3.500000 1.000000
C 0.250000 3.250000 1.250000
C 0.250000 3.750000 1.750000
C 0.750000 3.250000 1.750000
C 0.750000 3.750000 1.250000
C 1.000000 3.000000 1.000000
C 1.000000 3.500000 1.500000
C 1.500000 3.000000 1.500000
C 1.500000 3.500000 1.000000
C 1.250000 3.250000 1.250000
C 1.250000 3.750000 1.750000
C 1.750000 3.250000 1.750000
C 1.750000 3.750000 1.250000
C 2.000000 3.000000 1.000000
C 2.000000 3.500000 1.500000
C 2.500000 3.000000 1.500000
C 2.500000 3.500000 1.000000
C 2.250000 3.250000 1.250000
C 2.250000 3.750000 1.750000
C 2.750000 3.250000 1.750000
C 2.750000 3.750000 1.250000
C 3.000000 3.000000 1.000000
C 3.000000 3.500000 1.500000
C 3.500000 3.000000 1.500000
C 3.500000 3.500000 1.000000
C 3.250000 3.250000 1.250000
C 3.250000 3.750000 1.750000
C 3.750000 3.250000 1.750000
C 3.750000 3.750000 1.250000
C 4.000000 3.000000 1.000000
C 4.000000 3.500000 1.500000
C 4.500000 3.000000 1.500000
C 4.500000 3.500000 1.000000
C 4.250000 3.250000 1.250000
C 4.250000 3.750000 1.750000
C 4.750000 3.250000 1.750000
C 4.750000 3.750000 1.250000
C 5.000000 3.000000 1.000000
C 5.000000 3.500000 1.500000
C 5.500000 3.000000 1.500000
C 5.500000 3.500000 1.000000
C 5.250000 3.250000 1.250000
C 5.250000 3.750000 1.750000
C 5.750000 3.250000 1.750000
C 5.750000 3.750000 1.250000
C 0.000000 4.000000 1.000000
C 0.000000 4.500000 1.500000
C 0.500000 4.000000 1.500000
C 0.500000 4.500000 1.000000
C 0.250000 4.250000 1.250000
C 0.250000 4.750000 1.750000
C 0.750000 4.250000 1.750000
C 0.750000 4.750000 1.250000
C 1.000000 4.000000 1.000000
C 1.000000 4.500000 1.500000
C 1.500000 4.000000 1.500000
C 1.500000 4.500000 1.000000
C 1.250000 4.250000 1.250000
C 1.250000 4.750000 1.750000
C 1.750000 4.250000 1.750000
C 1.750000 4.750000 1.250000
C 2.000000 4.000000 1.000000
C 2.000000 4.500000 1.500000
C 2.500000 4.000000 1.500000
C 2.500000 4.500000 1.000000
C 2.250000 4.250000 1.250000
C 2.250000 4.750000 1.750000
C 2.750000 4.250000 1.750000
C 2.750000 4.750000 1.250000
C 3.000000 4.000000 1.000000
C 3.000000 4.500000 1.500000
C 3.500000 4.000000 1.500000
C 3.500000 4.500000 1.000000
C 3.250000 4.250000 1.250000
C 3.250000 4.750000 1.750000
C 3.750000 4.250000 1.750000
C 3.750000 4.750000 1.250000
C 4.000000 4.000000 1.000000
C 4.000000 4.500000 1.500000
C 4.500000 4.000000 1.500000
C 4.500000 4.500000 1.000000
C 4.250000 4.250000 1.250000
C 4.250000 4.750000 1.750000
C 4.750000 4.250000 1.750000
C 4.750000 4.750000 1.250000
C 5.000000 4.000000 1.000000
C 5.000000 4.500000 1.500000
C 5.500000 4.000000 1.500000
C 5.500000 4.500000 1.000000
C 5.250000 4.250000 1.250000
C 5.250000 4.750000 1.750000
C 5.750000 4.250000 1.750000
C 5.750000 4.750000 1.250000
C 0.000000 5.000000 1.000000
C 0.000000 5.500000 1.500000
C 0.500000 5.000000 1.500000
C 0.500000 5.500000 1.000000
C 0.250000 5.250000 1.250000
C 0.250000 5.750000 1.750000
C 0.750000 5.250000 1.750000
C 0.750000 5.750000 1.250000
C 1.000000 5.000000 1.000000
C 1.000000 5.500000 1.500000
C 1.500000 5.000000 1.500000
C 1.500000 5.500000 1.000000
C 1.250000 5.250000 1.250000
C 1.250000 5.750000 1.750000
C 1.750000 5.250000 1.750000
C 1.750000 5.750000 1.250000
C 2.000000 5.000000 1.000000
C 2.000000 5.500000 1.500000
C 2.500000 5.000000 1.500000
C 2.500000 5.500000 1.000000
C 2.250000 5.250000 1.250000
C 2.250000 5.750000 1.750000
C 2.750000 5.250000 1.750000
C 2.750000 5.750000 1.250000
C 3.000000 5.000000 1.000000
C 3.000000 5.500000 1.500000
C 3.500000 5.000000 1.500000
C 3.500000 5.500000 1.000000
C 3.250000 5.250000 1.250000
C 3.250000 5.750000 1.750000
C 3.750000 5.250000 1.750000
C 3.750000 5.750000 1.250000
C 4.000000 5.000000 1.000000
C 4.000000 5.500000 1.500000
C 4.500000 5.000000 1.500000
C 4.500000 5.500000 1.000000
C 4.250000 5.250000 1.250000
C 4.250000 5.750000 1.750000
C 4.750000 5.250000 1.750000
C 4.750000 5.750000 1.250000
C 5.000000 5.000000 1.000000
C 5.000000 5.500000 1.500000
C 5.500000 5.000000 1.500000
C 5.500000 5.500000 1.000000
C 5.250000 5.250000 1.250000
C 5.250000 5.750000 1.750000
C 5.750000 5.250000 1.750000
C 5.750000 5.750000 1.250000
C 0.000000 0.000000 2.000000
C 0.000000 0.500000 2.500000
C 0.500000 0.000000 2.500000
C 0.500000 0.500000 2.000000
C 0.250000 0.250000 2.250000
C 0.250000 0.750000 2.750000
C 0.750000 0.250000 2.750000
C 0.750000 0.750000 2.250000
C 1.000000 0.000000 2.000000
C 1.000000 0.500000 2.500000
C 1.500000 0.000000 2.500000
C 1.500000 0.500000 2.000000
C 1.250000 0.250000 2.250000
C 1.250000 0.750000 2.750000
C 1.750000 0.250000 2.750000
C 1.750000 0.750000 2.250000
C 2.000000 0.000000 2.000000
C 2.000000 0.500000 2.500000
C 2.500000 0.000000 2.500000
C 2.500000 0.500000 2.000000
C 2.250000 0.250000 2.250000
C 2.250000 0.750000 2.750000
C 2.750000 0.250000 2.750000
C 2.750000 0.750000 2.250000
C 3.000000 0.000000 2.000000
C 3.000000 0.500000 2.500000
C 3.500000 0.000000 2.500000
C 3.500000 0.500000 2.000000
C 3.250000 0.250000 2.250000
C 3.250000 0.750000 2.750000
C 3.750000 0.250000 2.750000
C 3.750000 0.750000 2.250000
C 4.000000 0.000000 2.000000
C 4.000000 0.500000 2.500000
C 4.500000 0.000000 2.500000
C 4.500000 0.500000 2.000000
C 4.250000 0.250000 2.250000
C 4.250000 0.750000 2.750000
C 4.750000 0.250000 2.750000
C 4.750000 0.750000 2.250000
C 5.000000 0.000000 2.000000
C 5.000000 0.500000 2.500000
C 5.500000 0.000000 2.500000
C 5.500000 0.500000 2.000000
C 5.250000 0.250000 2.250000
C 5.250000 0.750000 2.750000
C 5.750000 0.250000 2.750000
C 5.750000 0.750000 2.250000
C 0.000000 1.000000 2.000000
C 0.000000 1.500000 2.500000
C 0.500000 1.000000 2.500000
C 0.500000 1.500000 2.000000
C 0.250000 1.250000 2.250000
C 0.250000 1.750000 2.750000
C 0.750000 1.250000 2.750000
C 0.750000 1.750000 2.250000
C 1.000000 1.000000 2.000000
C 1.000000 1.500000 2.500000
C 1.500000 1.000000 2.500000
C 1.500000 1.500000 2.000000
C 1.250000 1.250000 2.250000
C 1.250000 1.750000 2.750000
C 1.750000 1.250000 2.750000
C 1.750000 1.750000 2.250000
C 2.000000 1.000000 2.000000
C 2.000000 1.500000 2.500000
C 2.500000 1.000000 2.500000
C 2.500000 1.500000 2.000000
C 2.250000 1.250000 2.250000
C 2.250000 1.750000 2.750000
C 2.750000 1.250000 2.750000
C 2.750000 1.750000 2.250000
C 3.000000 1.000000 2.000000
C 3.000000 1.500000 2.500000
C 3.500000 1.000000 2.500000
C 3.500000 1.500000 2.000000
C 3.250000 1.250000 2.250000
C 3.250000 1.750000 2.750000
C 3.750000 1.250000 2.750000
C 3.750000 1.750000 2.250000
C 4.000000 1.000000 2.000000
C 4.000000 1.500000 2.500000
C 4.500000 1.000000 2.500000
C 4.500000 1.500000 2.000000
C 4.250000 1.250000 2.250000
C 4.250000 1.750000 2.750000
C 4.750000 1.250000 2.750000
C 4.750000 1.750000 2.250000
C 5.000000 1.000000 2.000000
C 5.000000 1.500000 2.500000
C 5.500000 1.000000 2.500000
C 5.500000 1.500000 2.000000
C 5.250000 1.250000 2.250000
C 5.250000 1.750000 2.750000
C 5.750000 1.250000 2.750000
C 5.750000 1.750000 2.250000
C 0.000000 2.000000 2.000000
C 0.000000 2.500000 2.500000
C 0.500000 2.000000 2.500000
C 0.500000 2.500000 2.000000
C 0.250000 2.250000 2.250000
C 0.250000 2.750000 2.750000
C 0.750000 2.250000 2.750000
C 0.750000 2.750000 2.250000
C 1.000000 2.000000 2.000000
C 1.000000 2.500000 2.500000
C 1.500000 2.000000 2.500000
C 1.500000 2.500000 2.000000
C 1.250000 2.250000 2.250000
C 1.250000 2.750000 2.750000
C 1.750000 2.250000 2.750000
C 1.750000 2.750000 2.250000
C 2.000000 2.000000 2.000000
C 2.000000 2.500000 2.500000
C 2.500000 2.000000 2.500000
C 2.500000 2.500000 2.000000
C 2.250000 2.250000 2.250000
C 2.250000 2.750000 2.750000
C 2.750000 2.250000 2.750000
C 2.750000 2.750000 2.250000
C 3.000000 2.000000 2.000000
C 3.000000 2.500000 2.500000
C 3.500000 2.000000 2.500000
C 3.500000 2.500000 2.000000
C 3.250000 2.250000 2.250000
C 3.250000 2.750000 2.750000
C 3.750000 2.250000 2.750000
C 3.750000 2.750000 2.250000
C 4.000000 2.000000 2.000000
C 4.000000 2.500000 2.500000
C 4.500000 2.000000 2.500000
C 4.500000 2.500000 2.000000
C 4.250000 2.250000 2.250000
C 4.250000 2.750000 2.750000
C 4.750000 2.250000 2.750000
C 4.750000 2.750000 2.250000
C 5.000000 2.000000 2.000000
C 5.000000 2.500000 2.500000
C 5.500000 2.000000 2.500000
C 5.500000 2.500000 2.000000
C 5.250000 2.250000 2.250000
C 5.250000 2.750000 2.750000
C 5.750000 2.250000 2.750000
C 5.750000 2.750000 2.250000
C 0.000000 3.000000 2.000000
C 0.000000 3.500000 2.500000
C 0.500000 3.000000 2.500000
C 0.500000 3.500000 2.000000
C 0.250000 3.250000 2.250000
C 0.250000 3.750000 2.750000
C 0.750000 3.250000 2.750000
C 0.750000 3.750000 2.250000
C 1.000000 3.000000 2.000000
C 1.000000 3.500000 2.500000
C 1.500000 3.000000 2.500000
C 1.500000 3.500000 2.000000
C 1.250000 3.250000 2.250000
C 1.250000 3.750000 2.750000
C 1.750000 3.250000 2.750000
C 1.750000 3.750000 2.250000
C 2.000000 3.000000 2.000000
C 2.000000 3.500000 2.500000
C 2.500000 3.000000 2.500000
C 2.500000 3.500000 2.000000
C 2.250000 3.250000 2.250000
C 2.250000 3.750000 2.750000
C 2.750000 3.250000 2.750000
C 2.750000 3.750000 2.250000
C 3.000000 3.000000 2.000000
C 3.000000 3.500000 2.500000
C 3.500000 3.000000 2.500000
C 3.500000 3.500000 2.000000
C 3.250000 3.250000 2.250000
C 3.250000 3.750000 2.750000
C 3.750000 3.250000 2.750000
C 3.750000 3.750000 2.250000
C 4.000000 3.000000 2.000000
C 4.000000 3.500000 2.500000
C 4.500000 3.000000 2.500000
C 4.500000 3.500000 2.000000
C 4.250000 3.250000 2.250000
C 4.250000 3.750000 2.750000
C 4.750000 3.250000 2.750000
C 4.750000 3.750000 2.250000
C 5.000000 3.000000 2.000000
C 5.000000 3.500000 2.500000
C 5.500000 3.000000 2.500000
C 5.500000 3.500000 2.000000
C 5.250000 3.250000 2.250000
C 5.250000 3.750000 2.750000
C 5.750000 3.250000 2.750000
C 5.750000 3.750000 2.250000
C 0.000000 4.000000 2.000000
C 0.000000 4.500000 2.500000
C 0.500000 4.000000 2.500000
C 0.500000 4.500000 2.000000
C 0.250000 4.250000 2.250000
C 0.250000 4.750000 2.750000
C 0.750000 4.250000 2.750000
C 0.750000 4.750000 2.250000
C 1.000000 4.000000 2.000000
C 1.000000 4.500000 2.500000
C 1.500000 4.000000 2.500000
C 1.500000 4.500000 2.000000
C 1.250000 4.250000 2.250000
C 1.250000 4.750000 2.750000
C 1.750000 4.250000 2.750000
C 1.750000 4.750000 2.250000
C 2.000000 4.000000 2.000000
C 2.000000 4.500000 2.500000
C 2.500000 4.000000 2.500000
C 2.500000 4.500000 2.000000
C 2.250000 4.250000 2.250000
C 2.250000 4.750000 2.750000
C 2.750000 4.250000 2.750000
C 2.750000 4.750000 2.250000
C 3.000000 4.000000 2.000000
C 3.000000 4.500000 2.500000
C 3.500000 4.000000 2.500000
C 3.500000 4.500000 2.000000
C 3.250000 4.250000 2.250000
C 3.250000 4.750000 2.750000
C 3.750000 4.250000 2.750000
C 3.750000 4.750000 2.250000
C 4.000000 4.000000 2.000000
C 4.000000 4.500000 2.500000
C 4.500000 4.000000 2.500000
C 4.500000 4.500000 2.000000
C 4.250000 4.250000 2.250000
C 4.250000 4.750000 2.750000
C 4.750000 4.250000 2.750000
C 4.750000 4.750000 2.250000
C 5.000000 4.000000 2.000000
C 5.000000 4.500000 2.500000
C 5.500000 4.000000 2.500000
C 5.500000 4.500000 2.000000
C 5.250000 4.250000 2.250000
C 5.250000 4.750000 2.750000
C 5.750000 4.250000 2.750000
C 5.750000 4.750000 2.250000
C 0.000000 5.000000 2.000000
C 0.000000 5.500000 2.500000
C 0.500000 5.000000 2.500000
C 0.500000 5.500000 2.000000
C 0.250000 5.250000 2.250000
C 0.250000 5.750000 2.750000
C 0.750000 5.250000 2.750000
C 0.750000 5.750000 2.250000
C 1.000000 5.000000 2.000000
C 1.000000 5.500000 2.500000
C 1.500000 5.000000 2.500000
C 1.500000 5.500000 2.000000
C 1.250000 5.250000 2.250000
C 1.250000 5.750000 2.750000
C 1.750000 5.250000 2.750000
C 1.750000 5.750000 2.250000
C 2.000000 5.000000 2.000000
C 2.000000 5.500000 2.500000
C 2.500000 5.000000 2.500000
C 2.500000 5.500000 2.000000
C 2.250000 5.250000 2.250000
C 2.250000 5.750000 2.750000
C 2.750000 5.250000 2.750000
C 2.750000 5.750000 2.250000
C 3.000000 5.000000 2.000000
C 3.000000 5.500000 2.500000
C 3.500000 5.000000 2.500000
C 3.500000 5.500000 2.000000
C 3.250000 5.250000 2.250000
C 3.250000 5.750000 2.750000
C 3.750000 5.250000 2.750000
C 3.750000 5.750000 2.250000
C 4.000000 5.000000 2.000000
C 4.000000 5.500000 2.500000
C 4.500000 5.000000 2.500000
C 4.500000 5.500000 2.000000
C 4.250000 5.250000 2.250000
C 4.250000 5.750000 2.750000
C 4.750000 5.250000 2.750000
C 4.750000 5.750000 2.250000
C 5.000000 5.000000 2.000000
C 5.000000 5.500000 2.500000
C 5.500000 5.000000 2.500000
C 5.500000 5.500000 2.000000
C 5.250000 5.250000 2.250000
C 5.250000 5.750000 2.750000
C 5.750000 5.250000 2.750000
C 5.750000 5.750000 2.250000
C 0.000000 0.000000 3.000000
C 0.000000 0.500000 3.500000
C 0.500000 0.000000 3.500000
C 0.500000 0.500000 3.000000
C 0.250000 0.250000 3.250000
C 0.250000 0.750000 3.750000
C 0.750000 0.250000 3.750000
C 0.750000 0.750000 3.250000
C 1.000000 0.000000 3.000000
C 1.000000 0.500000 3.500000
C 1.500000 0.000000 3.500000
C 1.500000 0.500000 3.000000
C 1.250000 0.250000 3.250000
C 1.250000 0.750000 3.750000
C 1.750000 0.250000 3.750000
C 1.750000 0.750000 3.250000
C 2.000000 0.000000 3.000000
C 2.000000 0.500000 3.500000
C 2.500000 0.000000 3.500000
C 2.500000 0.500000 3.000000
C 2.250000 0.250000 3.250000
C 2.250000 0.750000 3.750000
C 2.750000 0.250000 3.750000
C 2.750000 0.750000 3.250000
C 3.000000 0.000000 3.000000
C 3.000000 0.500000 3.500000
C 3.500000 0.000000 3.500000
C 3.500000 0.500000 3.000000
C 3.250000 0.250000 3.250000
C 3.250000 0.750000 3.750000
C 3.750000 0.250000 3.750000
C 3.750000 0.750000 3.250000
C 4.000000 0.000000 3.000000
C 4.000000 0.500000 3.500000
C 4.500000 0.000000 3.500000
C 4.500000 0.500000 3.000000
C 4.250000 0.250000 3.250000
C 4.250000 0.750000 3.750000
C 4.750000 0.250000 3.750000
C 4.750000 0.750000 3.250000
C 5.000000 0.000000 3.000000
C 5.000000 0.500000 3.500000
C 5.500000 0.000000 3.500000
C 5.500000 0.500000 3.000000
C 5.250000 0.250000 3.250000
C 5.250000 0.750000 3.750000
C 5.750000 0.250000 3.750000
C 5.750000 0.750000 3.250000
C 0.000000 1.000000 3.000000
C 0.000000 1.500000 3.500000
C 0.500000 1.000000 3.500000
C 0.500000 1.500000 3.000000
C 0.250000 1.250000 3.250000
C 0.250000 1.750000 3.750000
C 0.750000 1.250000 3.750000
C 0.750000 1.750000 3.250000
C 1.000000 1.000000 3.000000
C 1.000000 1.500000 3.500000
C 1.500000 1.000000 3.500000
C 1.500000 1.500000 3.000000
C 1.250000 1.250000 3.250000
C 1.250000 1.750000 3.750000
C 1.750000 1.250000 3.750000
C 1.750000 1.750000 3.250000
C 2.000000 1.000000 3.000000
C 2.000000 1.500000 3.500000
C 2.500000 1.000000 3.500000
C 2.500000 1.500000 3.000000
C 2.250000 1.250000 3.250000
C 2.250000 1.750000 3.750000
C 2.750000 1.250000 3.750000
C 2.750000 1.750000 3.250000
C 3.000000 1.000000 3.000000
C 3.000000 1.500000 3.500000
C 3.500000 1.000000 3.500000
C 3.500000 1.500000 3.000000
C 3.250000 1.250000 3.250000
C 3.250000 1.750000 3.750000
C 3.750000 1.250000 3.750000
C 3.750000 1.750000 3.250000
C 4.000000 1.000000 3.000000
C 4.000000 1.500000 3.500000
C 4.500000 1.000000 3.500000
C 4.500000 1.500000 3.000000
C 4.250000 1.250000 3.250000
C 4.250000 1.750000 3.750000
C 4.750000 1.250000 3.750000
C 4.750000 1.750000 3.250000
C 5.000000 1.000000 3.000000
C 5.000000 1.500000 3.500000
C 5.500000 1.000000 3.500000
C 5.500000 1.500000 3.000000
C 5.250000 1.250000 3.250000
C 5.250000 1.750000 3.750000
C 5.750000 1.250000 3.750000
C 5.750000 1.750000 3.250000
C 0.000000 2.000000 3.000000
C 0.000000 2.500000 3.500000
C 0.500000 2.000000 3.500000
C 0.500000 2.500000 3.000000
C 0.250000 2.250000 3.250000
C 0.250000 2.750000 3.750000
C 0.750000 2.250000 3.750000
C 0.750000 2.750000 3.250000
C 1.000000 2.000000 3.000000
C 1.000000 2.500000 3.500000
C 1.500000 2.000000 3.500000
C 1.500000 2.500000 3.000000
C 1.250000 2.250000 3.250000
C 1.250000 2.750000 3.750000
C 1.750000 2.250000 3.750000
C 1.750000 2.750000 3.250000
C 2.000000 2.000000 3.000000
C 2.000000 2.500000 3.500000
C 2.500000 2.000000 3.500000
C 2.500000 2.500000 3.000000
C 2.250000 2.250000 3.250000
C 2.250000 2.750000 3.750000
C 2.750000 2.250000 3.750000
C 2.750000 2.750000 3.250000
C 3.000000 2.000000 3.000000
C 3.000000 2.500000 3.500000
C 3.500000 2.000000 3.500000
C 3.500000 2.500000 3.000000
C 3.250000 2.250000 3.250000
C 3.250000 2.750000 3.750000
C 3.750000 2.250000 3.750000
C 3.750000 2.750000 3.250000
C 4.000000 2.000000 3.000000
C 4.000000 2.500000 3.500000
C 4.500000 2.000000 3.500000
C 4.500000 2.500000 3.000000
C 4.250000 2.250000 3.250000
C 4.250000 2.750000 3.750000
C 4.750000 2.250000 3.750000
C 4.750000 2.750000 3.250000
C 5.000000 2.000000 3.000000
C 5.000000 2.500000 3.500000
C 5.500000 2.000000 3.500000
C 5.500000 2.500000 3.000000
C 5.250000 2.250000 3.250000
C 5.250000 2.750000 3.750000
C 5.750000 2.250000 3.750000
C 5.750000 2.750000 3.250000
C 0.000000 3.000000 3.000000
C 0.000000 3.500000 3.500000
C 0.500000 3.000000 3.500000
C 0.500000 3.500000 3.000000
C 0.250000 3.250000 3.250000
C 0.250000 3.750000 3.750000
C 0.750000 3.250000 3.750000
C 0.750000 3.750000 3.250000
C 1.000000 3.000000 3.000000
C 1.000000 3.500000 3.500000
C 1.500000 3.000000 3.500000
C 1.500000 3.500000 3.000000
C 1.250000 3.250000 3.250000
C 1.250000 3.750000 3.750000
C 1.750000 3.250000 3.750000
C 1.750000 3.750000 3.250000
C 2.000000 3.000000 3.000000
C 2.000000 3.500000 3.500000
C 2.500000 3.000000 3.500000
C 2.500000 3.500000 3.000000
C 2.250000 3.250000 3.250000
C 2.250000 3.750000 3.750000
C 2.750000 3.250000 3.750000
C 2.750000 3.750000 3.250000
C 3.000000 3.000000 3.000000
C 3.000000 3.500000 3.500000
C 3.500000 3.000000 3.500000
C 3.500000 3.500000 3.000000
C 3.250000 3.250000 3.250000
C 3.250000 3.750000 3.750000
C 3.750000 3.250000 3.750000
C 3.750000 3.750000 3.250000
C 4.000000 3.000000 3.000000
C 4.000000 3.500000 3.500000
C 4.500000 3.000000 3.500000
C 4.500000 3.500000 3.000000
C 4.250000 3.250000 3.250000
C 4.250000 3.750000 3.750000
C 4.750000 3.250000 3.750000
C 4.750000 3.750000 3.250000
C 5.000000 3.000000 3.000000
C 5.000000 3.500000 3.500000
C 5.500000 3.000000 3.500000
C 5.500000 3.500000 3.000000
C 5.250000 3.250000 3.250000
C 5.250000 3.750000 3.750000
C 5.750000 3.250000 3.750000
C 5.750000 3.750000 3.250000
C 0.000000 4.000000 3.000000
C 0.000000 4.500000 3.500000
C 0.500000 4.000000 3.500000
C 0.500000 4.500000 3.000000
C 0.250000 4.250000 3.250000
C 0.250000 4.750000 3.750000
C 0.750000 4.250000 3.750000
C 0.750000 4.750000 3.250000
C 1.000000 4.000000 3.000000
C 1.000000 4.500000 3.500000
C 1.500000 4.000000 3.500000
C 1.500000 4.500000 3.000000
C 1.250000 4.250000 3.250000
C 1.250000 4.750000 3.750000
C 1.750000 4.250000 3.750000
C 1.750000 4.750000 3.250000
C 2.000000 4.000000 3.000000
C 2.000000 4.500000 3.500000
C 2.500000 4.000000 3.500000
C 2.500000 4.500000 3.000000
C 2.250000 4.250000 3.250000
C 2.250000 4.750000 3.750000
C 2.750000 4.250000 3.750000
C 2.750000 4.750000 3.250000
C 3.000000 4.000000 3.000000
C 3.000000 4.500000 3.500000
C 3.500000 4.000000 3.500000
C 3.500000 4.500000 3.000000
C 3.250000 4.250000 3.250000
C 3.250000 4.750000 3.750000
C 3.750000 4.250000 3.750000
C 3.750000 4.750000 3.250000
C 4.000000 4.000000 3.000000
C 4.000000 4.500000 3.500000
C 4.500000 4.000000 3.500000
C 4.500000 4.500000 3.000000
C 4.250000 4.250000 3.250000
C 4.250000 4.750000 3.750000
C 4.750000 4.250000 3.750000
C 4.750000 4.750000 3.250000
C 5.000000 4.000000 3.000000
C 5.000000 4.500000 3.500000
C 5.500000 4.000000 3.500000
C 5.500000 4.500000 3.000000
C 5.250000 4.250000 3.250000
C 5.250000 4.750000 3.750000
C 5.750000 4.250000 3.750000
C 5.750000 4.750000 3.250000
C 0.000000 5.000000 3.000000
C 0.000000 5.500000 3.500000
C 0.500000 5.000000 3.500000
C 0.500000 5.500000 3.000000
C 0.250000 5.250000 3.250000
C 0.250000 5.750000 3.750000
C 0.750000 5.250000 3.750000
C 0.750000 5.750000 3.250000
C 1.000000 5.000000 3.000000
C 1.000000 5.500000 3.500000
C 1.500000 5.000000 3.500000
C 1.500000 5.500000 3.000000
C 1.250000 5.250000 3.250000
C 1.250000 5.750000 3.750000
C 1.750000 5.250000 3.750000
C 1.750000 5.750000 3.250000
C 2.000000 5.000000 3.000000
C 2.000000 5.500000 3.500000
C 2.500000 5.000000 3.500000
C 2.500000 5.500000 3.000000
C 2.250000 5.250000 3.250000
C 2.250000 5.750000 3.750000
C 2.750000 5.250000 3.750000
C 2.750000 5.750000 3.250000
C 3.000000 5.000000 3.000000
C 3.000000 5.500000 3.500000
C 3.500000 5.000000 3.500000
C 3.500000 5.500000 3.000000
C 3.250000 5.250000 3.250000
C 3.250000 5.750000 3.750000
C 3.750000 5.250000 3.750000
C 3.750000 5.750000 3.250000
C 4.000000 5.000000 3.000000
C 4.000000 5.500000 3.500000
C 4.500000 5.000000 3.500000
C 4.500000 5.500000 3.000000
C 4.250000 5.250000 3.250000
C 4.250000 5.750000 3.750000
C 4.750000 5.250000 3.750000
C 4.750000 5.750000 3.250000
C 5.000000 5.000000 3.000000
C 5.000000 5.500000 3.500000
C 5.500000 5.000000 3.500000
C 5.500000 5.500000 3.000000
C 5.250000 5.250000 3.250000
C 5.250000 5.750000 3.750000
C 5.750000 5.250000 3.750000
C 5.750000 5.750000 3.250000
C 0.000000 0.000000 4.000000
C 0.000000 0.500000 4.500000
C 0.500000 0.000000 4.500000
C 0.500000 0.500000 4.000000
C 0.250000 0.250000 4.250000
C 0.250000 0.750000 4.750000
C 0.750000 0.250000 4.750000
C 0.750000 0.750000 4.250000
C 1.000000 0.000000 4.000000
C 1.000000 0.500000 4.500000
C 1.500000 0.000000 4.500000
C 1.500000 0.500000 4.000000
C 1.250000 0.250000 4.250000
C 1.250000 0.750000 4.750000
C 1.750000 0.250000 4.750000
C 1.750000 0.750000 4.250000
C 2.000000 0.000000 4.000000
C 2.000000 0.500000 4.500000
C 2.500000 0.000000 4.500000
C 2.500000 0.500000 4.000000
C 2.250000 0.250000 4.250000
C 2.250000 0.750000 4.750000
C 2.750000 0.250000 4.750000
C 2.750000 0.750000 4.250000
C 3.000000 0.000000 4.000000
C 3.000000 0.500000 4.500000
C 3.500000 0.000000 4.500000
C 3.500000 0.500000 4.000000
C 3.250000 0.250000 4.250000
C 3.250000 0.750000 4.750000
C 3.750000 0.250000 4.750000
C 3.750000 0.750000 4.250000
C 4.000000 0.000000 4.000000
C 4.000000 0.500000 4.500000
C 4.500000 0.000000 4.500000
C 4.500000 0.500000 4.000000
C 4.250000 0.250000 4.250000
C 4.250000 0.750000 4.750000
C 4.750000 0.250000 4.750000
C 4.750000 0.750000 4.250000
C 5.000000 0.000000 4.000000
C 5.000000 0.500000 4.500000
C 5.500000 0.000000 4.500000
C 5.500000 0.500000 4.000000
C 5.250000 0.250000 4.250000
C 5.250000 0.750000 4.750000
C 5.750000 0.250000 4.750000
C 5.750000 0.750000 4.250000
C 0.000000 1.000000 4.000000
C 0.000000 1.500000 4.500000
C 0.500000 1.000000 4.500000
C 0.500000 1.500000 4.000000
C 0.250000 1.250000 4.250000
C 0.250000 1.750000 4.750000
C 0.750000 1.250000 4.750000
C 0.750000 1.750000 4.250000
C 1.000000 1.000000 4.000000
C 1.000000 1.500000 4.500000
C 1.500000 1.000000 4.500000
C 1.500000 1.500000 4.000000
C 1.250000 1.250000 4.250000
C 1.250000 1.750000 4.750000
C 1.750000 1.250000 4.750000
C 1.750000 1.750000 4.250000
C 2.000000 1.000000 4.000000
C 2.000000 1.500000 4.500000
C 2.500000 1.000000 4.500000
C 2.500000 1.500000 4.000000
C 2.250000 1.250000 4.250000
C 2.250000 1.750000 4.750000
C 2.750000 1.250000 4.750000
C 2.750000 1.750000 4.250000
C 3.000000 1.000000 4.000000
C 3.000000 1.500000 4.500000
C 3.500000 1.000000 4.500000
C 3.500000 1.500000 4.000000
C 3.250000 1.250000 4.250000
C 3.250000 1.750000 4.750000
C 3.750000 1.250000 4.750000
C 3.750000 1.750000 4.250000
C 4.000000 1.000000 4.000000
C 4.000000 1.500000 4.500000
C 4.500000 1.000000 4.500000
C 4.500000 1.500000 4.000000
C 4.250000 1.250000 4.250000
C 4.250000 1.750000 4.750000
C 4.750000 1.250000 4.750000
C 4.750000 1.750000 4.250000
C 5.000000 1.000000 4.000000
C 5.000000 1.500000 4.500000
C 5.500000 1.000000 4.500000
C 5.500000 1.500000 4.000000
C 5.250000 1.250000 4.250000
C 5.250000 1.750000 4.750000
C 5.750000 1.250000 4.750000
C 5.750000 1.750000 4.250000
C 0.000000 2.000000 4.000000
C 0.000000 2.500000 4.500000
C 0.500000 2.000000 4.500000
C 0.500000 2.500000 4.000000
C 0.250000 2.250000 4.250000
C 0.250000 2.750000 4.750000
C 0.750000 2.250000 4.750000
C 0.750000 2.750000 4.250000
C 1.000000 2.000000 4.000000
C 1.000000 2.500000 4.500000
C 1.500000 2.000000 4.500000
C 1.500000 2.500000 4.000000
C 1.250000 2.250000 4.250000
C 1.250000 2.750000 4.750000
C 1.750000 2.250000 4.750000
C 1.750000 2.750000 4.250000
C 2.000000 2.000000 4.000000
C 2.000000 2.500000 4.500000
C 2.500000 2.000000 4.500000
C 2.500000 2.500000 4.000000
C 2.250000 2.250000 4.250000
C 2.250000 2.750000 4.750000
C 2.750000 2.250000 4.750000
C 2.750000 2.750000 4.250000
C 3.000000 2.000000 4.000000
C 3.000000 2.500000 4.500000
C 3.500000 2.000000 4.500000
C 3.500000 2.500000 4.000000
C 3.250000 2.250000 4.250000
C 3.250000 2.750000 4.750000
C 3.750000 2.250000 4.750000
C 3.750000 2.750000 4.250000
C 4.000000 2.000000 4.000000
C 4.000000 2.500000 4.500000
C 4.500000 2.000000 4.500000
C 4.500000 2.500000 4.000000
C 4.250000 2.250000 4.250000
C 4.250000 2.750000 4.750000
C 4.750000 2.250000 4.750000
C 4.750000 2.750000 4.250000
C 5.000000 2.000000 4.000000
C 5.000000 2.500000 4.500000
C 5.500000 2.000000 4.500000
C 5.500000 2.500000 4.000000
C 5.250000 2.250000 4.250000
C 5.250000 2.750000 4.750000
C 5.750000 2.250000 4.750000
C 5.750000 2.750000 4.250000
C 0.000000 3.000000 4.000000
C 0.000000 3.500000 4.500000
C 0.500000 3.000000 4.500000
C 0.500000 3.500000 4.000000
C 0.250000 3.250000 4.250000
C 0.250000 3.750000 4.750000
C 0.750000 3.250000 4.750000
C 0.750000 3.750000 4.250000
C 1.000000 3.000000 4.000000
C 1.000000 3.500000 4.500000
C 1.500000 3.000000 4.500000
C 1.500000 3.500000 4.000000
C 1.250000 3.250000 4.250000
C 1.250000 3.750000 4.750000
C 1.750000 3.250000 4.750000
C 1.750000 3.750000 4.250000
C 2.000000 3.000000 4.000000
C 2.000000 3.500000 4.500000
C 2.500000 3.000000 4.500000
C 2.500000 3.500000 4.000000
C 2.250000 3.250000 4.250000
C 2.250000 3.750000 4.750000
C 2.750000 3.250000 4.750000
C 2.750000 3.750000 4.250000
C 3.000000 3.000000 4.000000
C 3.000000 3.500000 4.500000
C 3.500000 3.000000 4.500000
C 3.500000 3.500000 4.000000
C 3.250000 3.250000 4.250000
C 3.250000 3.750000 4.750000
C 3.750000 3.250000 4.750000
C 3.750000 3.750000 4.250000
C 4.000000 3.000000 4.000000
C 4.000000 3.500000 4.500000
C 4.500000 3.000000 4.500000
C 4.500000 3.500000 4.000000
C 4.250000 3.250000 4.250000
C 4.250000 3.750000 4.750000
C 4.750000 3.250000 4.750000
C 4.750000 3.750000 4.250000
C 5.000000 3.000000 4.000000
C 5.000000 3.500000 4.500000
C 5.500000 3.000000 4.500000
C 5.500000 3.500000 4.000000
C 5.250000 3.250000 4.250000
C 5.250000 3.750000 4.750000
C 5.750000 3.250000 4.750000
C 5.750000 3.750000 4.250000
C 0.000000 4.000000 4.000000
C 0.000000 4.500000 4.500000
C 0.500000 4.000000 4.500000
C 0.500000 4.500000 4.000000
C 0.250000 4.250000 4.250000
C 0.250000 4.750000 4.750000
C 0.750000 4.250000 4.750000
C 0.750000 4.750000 4.250000
C 1.000000 4.000000 4.000000
C 1.000000 4.500000 4.500000
C 1.500000 4.000000 4.500000
C 1.500000 4.500000 4.000000
C 1.250000 4.250000 4.250000
C 1.250000 4.750000 4.750000
C 1.750000 4.250000 4.750000
C 1.750000 4.750000 4.250000
C 2.000000 4.000000 4.000000
C 2.000000 4.500000 4.500000
C 2.500000 4.000000 4.500000
C 2.500000 4.500000 4.000000
C 2.250000 4.250000 4.250000
C 2.250000 4.750000 4.750000
C 2.750000 4.250000 4.750000
C 2.750000 4.750000 4.250000
C 3.000000 4.000000 4.000000
C 3.000000 4.500000 4.500000
C 3.500000 4.000000 4.500000
C 3.500000 4.500000 4.000000
C 3.250000 4.250000 4.250000
C 3.250000 4.750000 4.750000
C 3.750000 4.250000 4.750000
C 3.750000 4.750000 4.250000
C 4.000000 4.000000 4.000000
C 4.000000 4.500000 4.500000
C 4.500000 4.000000 4.500000
C 4.500000 4.500000 4.000000
C 4.250000 4.250000 4.250000
C 4.250000 4.750000 4.750000
C 4.750000 4.250000 4.750000
C 4.750000 4.750000 4.250000
C 5.000000 4.000000 4.000000
C 5.000000 4.500000 4.500000
C 5.500000 4.000000 4.500000
C 5.500000 4.500000 4.000000
C 5.250000 4.250000 4.250000
C 5.250000 4.750000 4.750000
C 5.750000 4.250000 4.750000
C 5.750000 4.750000 4.250000
C 0.000000 5.000000 4.000000
C 0.000000 5.500000 4.500000
C 0.500000 5.000000 4.500000
C 0.500000 5.500000 4.000000
C 0.250000 5.250000 4.250000
C 0.250000 5.750000 4.750000
C 0.750000 5.250000 4.750000
C 0.750000 5.750000 4.250000
C 1.000000 5.000000 4.000000
C 1.000000 5.500000 4.500000
C 1.500000 5.000000 4.500000
C 1.500000 5.500000 4.000000
C 1.250000 5.250000 4.250000
C 1.250000 5.750000 4.750000
C 1.750000 5.250000 4.750000
C 1.750000 5.750000 4.250000
C 2.000000 5.000000 4.000000
C 2.000000 5.500000 4.500000
C 2.500000 5.000000 4.500000
C 2.500000 5.500000 4.000000
C 2.250000 5.250000 4.250000
C 2.250000 5.750000 4.750000
C 2.750000 5.250000 4.750000
C 2.750000 5.750000 4.250000
C 3.000000 5.000000 4.000000
C 3.000000 5.500000 4.500000
C 3.500000 5.000000 4.500000
C 3.500000 5.500000 4.000000
C 3.250000 5.250000 4.250000
C 3.250000 5.750000 4.750000
C 3.750000 5.250000 4.750000
C 3.750000 5.750000 4.250000
C 4.000000 5.000000 4.000000
C 4.000000 5.500000 4.500000
C 4.500000 5.000000 4.500000
C 4.500000 5.500000 4.000000
C 4.250000 5.250000 4.250000
C 4.250000 5.750000 4.750000
C 4.750000 5.250000 4.750000
C 4.750000 5.750000 4.250000
C 5.000000 5.000000 4.000000
C 5.000000 5.500000 4.500000
C 5.500000 5.000000 4.500000
C 5.500000 5.500000 4.000000
C 5.250000 5.250000 4.250000
C 5.250000 5.750000 4.750000
C 5.750000 5.250000 4.750000
C 5.750000 5.750000 4.250000
C 0.000000 0.000000 5.000000
C 0.000000 0.500000 5.500000
C 0.500000 0.000000 5.500000
C 0.500000 0.500000 5.000000
C 0.250000 0.250000 5.250000
C 0.250000 0.750000 5.750000
C 0.750000 0.250000 5.750000
C 0.750000 0.750000 5.250000
C 1.000000 0.000000 5.000000
C 1.000000 0.500000 5.500000
C 1.500000 0.000000 5.500000
C 1.500000 0.500000 5.000000
C 1.250000 0.250000 5.250000
C 1.250000 0.750000 5.750000
C 1.750000 0.250000 5.750000
C 1.750000 0.750000 5.250000
C 2.000000 0.000000 5.000000
C 2.000000 0.500000 5.500000
C 2.500000 0.000000 5.500000
C 2.500000 0.500000 5.000000
C 2.250000 0.250000 5.250000
C 2.250000 0.750000 5.750000
C 2.750000 0.250000 5.750000
C 2.750000 0.750000 5.250000
C 3.000000 0.000000 5.000000
C 3.000000 0.500000 5.500000
C 3.500000 0.000000 5.500000
C 3.500000 0.500000 5.000000
C 3.250000 0.250000 5.250000
C 3.250000 0.750000 5.750000
C 3.750000 0.250000 5.750000
C 3.750000 0.750000 5.250000
C 4.000000 0.000000 5.000000
C 4.000000 0.500000 5.500000
C 4.500000 0.000000 5.500000
C 4.500000 0.500000 5.000000
C 4.250000 0.250000 5.250000
C 4.250000 0.750000 5.750000
C 4.750000 0.250000 5.750000
C 4.750000 0.750000 5.250000
C 5.000000 0.000000 5.000000
C 5.000000 0.500000 5.500000
C 5.500000 0.000000 5.500000
C 5.500000 0.500000 5.000000
C 5.250000 0.250000 5.250000
C 5.250000 0.750000 5.750000
C 5.750000 0.250000 5.750000
C 5.750000 0.750000 5.250000
C 0.000000 1.000000 5.000000
C 0.000000 1.500000 5.500000
C 0.500000 1.000000 5.500000
C 0.500000 1.500000 5.000000
C 0.250000 1.250000 5.250000
C 0.250000 1.750000 5.750000
C 0.750000 1.250000 5.750000
C 0.750000 1.750000 5.250000
C 1.000000 1.000000 5.000000
C 1.000000 1.500000 5.500000
C 1.500000 1.000000 5.500000
C 1.500000 1.500000 5.000000
C 1.250000 1.250000 5.250000
C 1.250000 1.750000 5.750000
C 1.750000 1.250000 5.750000
C 1.750000 1.750000 5.250000
C 2.000000 1.000000 5.000000
C 2.000000 1.500000 5.500000
C 2.500000 1.000000 5.500000
C 2.500000 1.500000 5.000000
C 2.250000 1.250000 5.250000
C 2.250000 1.750000 5.750000
C 2.750000 1.250000 5.750000
C 2.750000 1.750000 5.250000
C 3.000000 1.000000 5.000000
C 3.000000 1.500000 5.500000
C 3.500000 1.000000 5.500000
C 3.500000 1.500000 5.000000
C 3.250000 1.250000 5.250000
C 3.250000 1.750000 5.750000
C 3.750000 1.250000 5.750000
C 3.750000 1.750000 5.250000
C 4.000000 1.000000 5.000000
C 4.000000 1.500000 5.500000
C 4.500000 1.000000 5.500000
C 4.500000 1.500000 5.000000
C 4.250000 1.250000 5.250000
C 4.250000 1.750000 5.750000
C 4.750000 1.250000 5.750000
C 4.750000 1.750000 5.250000
C 5.000000 1.000000 5.000000
C 5.000000 1.500000 5.500000
C 5.500000 1.000000 5.500000
C 5.500000 1.500000 5.000000
C 5.250000 1.250000 5.250000
C 5.250000 1.750000 5.750000
C 5.750000 1.250000 5.750000
C 5.750000 1.750000 5.250000
C 0.000000 2.000000 5.000000
C 0.000000 2.500000 5.500000
C 0.500000 2.000000 5.500000
C 0.500000 2.500000 5.000000
C 0.250000 2.250000 5.250000
C 0.250000 2.750000 5.750000
C 0.750000 2.250000 5.750000
C 0.750000 2.750000 5.250000
C 1.000000 2.000000 5.000000
C 1.000000 2.500000 5.500000
C 1.500000 2.000000 5.500000
C 1.500000 2.500000 5.000000
C 1.250000 2.250000 5.250000
C 1.250000 2.750000 5.750000
C 1.750000 2.250000 5.750000
C 1.750000 2.750000 5.250000
C 2.000000 2.000000 5.000000
C 2.000000 2.500000 5.500000
C 2.500000 2.000000 5.500000
C 2.500000 2.500000 5.000000
C 2.250000 2.250000 5.250000
C 2.250000 2.750000 5.750000
C 2.750000 2.250000 5.750000
C 2.750000 2.750000 5.250000
C 3.000000 2.000000 5.000000
C 3.000000 2.500000 5.500000
C 3.500000 2.000000 5.500000
C 3.500000 2.500000 5.000000
C 3.250000 2.250000 5.250000
C 3.250000 2.750000 5.750000
C 3.750000 2.250000 5.750000
C 3.750000 2.750000 5.250000
C 4.000000 2.000000 5.000000
C 4.000000 2.500000 5.500000
C 4.500000 2.000000 5.500000
C 4.500000 2.500000 5.000000
C 4.250000 2.250000 5.250000
C 4.250000 2.750000 5.750000
C 4.750000 2.250000 5.750000
C 4.750000 2.750000 5.250000
C 5.000000 2.000000 5.000000
C 5.000000 2.500000 5.500000
C 5.500000 2.000000 5.500000
C 5.500000 2.500000 5.000000
C 5.250000 2.250000 5.250000
C 5.250000 2.750000 5.750000
C 5.750000 2.250000 5.750000
C 5.750000 2.750000 5.250000
C 0.000000 3.000000 5.000000
C 0.000000 3.500000 5.500000
C 0.500000 3.000000 5.500000
C 0.500000 3.500000 5.000000
C 0.250000 3.250000 5.250000
C 0.250000 3.750000 5.750000
C 0.750000 3.250000 5.750000
C 0.750000 3.750000 5.250000
C 1.000000 3.000000 5.000000
C 1.000000 3.500000 5.500000
C 1.500000 3.000000 5.500000
C 1.500000 3.500000 5.000000
C 1.250000 3.250000 5.250000
C 1.250000 3.750000 5.750000
C 1.750000 3.250000 5.750000
C 1.750000 3.750000 5.250000
C 2.000000 3.000000 5.000000
C 2.000000 3.500000 5.500000
C 2.500000 3.000000 5.500000
C 2.500000 3.500000 5.000000
C 2.250000 3.250000 5.250000
C 2.250000 3.750000 5.750000
C 2.750000 3.250000 5.750000
C 2.750000 3.750000 5.250000
C 3.000000 3.000000 5.000000
C 3.000000 3.500000 5.500000
C 3.500000 3.000000 5.500000
C 3.500000 3.500000 5.000000
C 3.250000 3.250000 5.250000
C 3.250000 3.750000 5.750000
C 3.750000 3.250000 5.750000
C 3.750000 3.750000 5.250000
C 4.000000 3.000000 5.000000
C 4.000000 3.500000 5.500000
C 4.500000 3.000000 5.500000
C 4.500000 3.500000 5.000000
C 4.250000 3.250000 5.250000
C 4.250000 3.750000 5.750000
C 4.750000 3.250000 5.750000
C 4.750000 3.750000 5.250000
C 5.000000 3.000000 5.000000
C 5.000000 3.500000 5.500000
C 5.500000 3.000000 5.500000
C 5.500000 3.500000 5.000000
C 5.250000 3.250000 5.250000
C 5.250000 3.750000 5.750000
C 5.750000 3.250000 5.750000
C 5.750000 3.750000 5.250000
C 0.000000 4.000000 5.000000
C 0.000000 4.500000 5.500000
C 0.500000 4.000000 5.500000
C 0.500000 4.500000 5.000000
C 0.250000 4.250000 5.250000
C 0.250000 4.750000 5.750000
C 0.750000 4.250000 5.750000
C 0.750000 4.750000 5.250000
C 1.000000 4.000000 5.000000
C 1.000000 4.500000 5.500000
C 1.500000 4.000000 5.500000
C 1.500000 4.500000 5.000000
C 1.250000 4.250000 5.250000
C 1.250000 4.750000 5.750000
C 1.750000 4.250000 5.750000
C 1.750000 4.750000 5.250000
C 2.000000 4.000000 5.000000
C 2.000000 4.500000 5.500000
C 2.500000 4.000000 5.500000
C 2.500000 4.500000 5.000000
C 2.250000 4.250000 5.250000
C 2.250000 4.750000 5.750000
C 2.750000 4.250000 5.750000
C 2.750000 4.750000 5.250000
C 3.000000 4.000000 5.000000
C 3.000000 4.500000 5.500000
C 3.500000 4.000000 5.500000
C 3.500000 4.500000 5.000000
C 3.250000 4.250000 5.250000
C 3.250000 4.750000 5.750000
C 3.750000 4.250000 5.750000
C 3.750000 4.750000 5.250000
C 4.000000 4.000000 5.000000
C 4.000000 4.500000 5.500000
C 4.500000 4.000000 5.500000
C 4.500000 4.500000 5.000000
C 4.250000 4.250000 5.250000
C 4.250000 4.750000 5.750000
C 4.750000 4.250000 5.750000
C 4.750000 4.750000 5.250000
C 5.000000 4.000000 5.000000
C 5.000000 4.500000 5.500000
C 5.500000 4.000000 5.500000
C 5.500000 4.500000 5.000000
C 5.250000 4.250000 5.250000
C 5.250000 4.750000 5.750000
C 5.750000 4.250000 5.750000
C 5.750000 4.750000 5.250000
C 0.000000 5.000000 5.000000
C 0.000000 5.500000 5.500000
C 0.500000 5.000000 5.500000
C 0.500000 5.500000 5.000000
C 0.250000 5.250000 5.250000
C 0.250000 5.750000 5.750000
C 0.750000 5.250000 5.750000
C 0.750000 5.750000 5.250000
C 1.000000 5.000000 5.000000
C 1.000000 5.500000 5.500000
C 1.500000 5.000000 5.500000
C 1.500000 5.500000 5.000000
C 1.250000 5.250000 5.250000
C 1.250000 5.750000 5.750000
C 1.750000 5.250000 5.750000
C 1.750000 5.750000 5.250000
C 2.000000 5.000000 5.000000
C 2.000000 5.500000 5.500000
C 2.500000 5.000000 5.500000
C 2.500000 5.500000 5.000000
C 2.250000 5.250000 5.250000
C 2.250000 5.750000 5.750000
C 2.750000 5.250000 5.750000
C 2.750000 5.750000 5.250000
C 3.000000 5.000000 5.000000
C 3.000000 5.500000 5.500000
C 3.500000 5.000000 5.500000
C 3.500000 5.500000 5.000000
C 3.250000 5.250000 5.250000
C 3.250000 5.750000 5.750000
C 3.750000 5.250000 5.750000
C 3.750000 5.750000 5.250000
C 4.000000 5.000000 5.000000
C 4.000000 5.500000 5.500000
C 4.500000 5.000000 5.500000
C 4.500000 5.500000 5.000000
C 4.250000 5.250000 5.250000
C 4.250000 5.750000 5.750000
C 4.750000 5.250000 5.750000
C 4.750000 5.750000 5.250000
C 5.000000 5.000000 5.000000
C 5.000000 5.500000 5.500000
C 5.500000 5.000000 5.500000
C 5.500000 5.500000 5.000000
C 5.250000 5.250000 5.250000
C 5.250000 5.750000 5.750000
C 5.750000 5.250000 5.750000
C 5.750000 5.750000 5.250000
1728
Frame 2/10
C 0.005035 0.006004 0.015968
C 0.012378 0.485906 0.494437
C 0.488744 0.000073 0.502536
C 0.508498 0.498743 0.023235
C 0.264247 0.250342 0.258522
C 0.232194 0.741532 0.747723
C 0.733979 0.255341 0.757952
C 0.747227 0.744999 0.262077
C 1.013848 0.003528 0.010601
C 1.000617 0.503916 0.490571
C 1.508604 0.001009 0.476452
C 1.506512 0.486774 0.009431
C 1.256704 0.253121 0.244298
C 1.260881 0.730859 0.758378
C 1.739779 0.235229 0.739639
C 1.735163 0.743092 0.243709
C 1.979446 0.002030 0.007361
C 1.984021 0.492818 0.492216
C 2.488440 0.006274 0.502939
C 2.513889 0.493705 0.007153
C 2.254901 0.242960 0.240957
C 2.248581 0.763437 0.761459
C 2.743436 0.238162 0.772621
C 2.749074 0.758571 0.236538
C 3.009495 0.003965 0.012337
C 3.002283 0.489880 0.499262
C 3.493365 0.003524 0.499884
C 3.506907 0.508092 0.007149
C 3.269925 0.256067 0.250538
C 3.265578 0.761703 0.757118
C 3.758728 0.237114 0.754507
C 3.759979 0.754530 0.241883
C 4.018539 0.023102 0.004218
C 4.018127 0.501493 0.496453
C 4.489326 0.002518 0.516184
C 4.499075 0.496387 0.000870
C 4.258143 0.272909 0.247898
C 4.272689 0.746037 0.750138
C 4.752687 0.255757 0.764582
C 4.747562 0.765737 0.245006
C 4.997409 0.018954 0.007457
C 4.984840 0.500956 0.501355
C 5.500698 0.024576 0.494810
C 5.479050 0.497561 0.019973
C 5.246128 0.238164 0.248301
C 5.248068 0.753062 0.756996
C 5.735518 0.255322 0.769056
C 5.740689 0.738827 0.241947
C 0.007929 0.988231 0.006554
C 0.015660 1.512801 0.495889
C 0.494856 1.000204 0.509811
C 0.511080 1.495882 0.014233
C 0.242242 1.259109 0.263450
C 0.269266 1.754009 0.756497
C 0.732688 1.240755 0.749862
C 0.750582 1.743902 0.255344
C 1.020924 0.984127 0.003766
C 0.996671 1.497057 0.479980
C 1.499897 0.990041 0.504982
C 1.493089 1.503232 0.000843
C 1.252535 1.255499 0.241069
C 1.233817 1.754442 0.744446
C 1.756573 1.246726 0.741751
C 1.747305 1.770120 0.261978
C 2.003980 0.996213 0.015844
C 1.980185 1.510069 0.504456
C 2.502606 1.004796 0.495558
C 2.508296 1.513675 0.000091
C 2.256485 1.259739 0.234597
C 2.266765 1.755574 0.739855
C 2.746325 1.236134 0.744502
C 2.746452 1.748376 0.251136
C 3.012903 1.009904 0.011545
C 2.989578 1.489164 0.507677
C 3.504397 1.000910 0.502312
C 3.502390 1.498454 0.009947
C 3.264949 1.248108 0.240511
C 3.262375 1.753877 0.759021
C 3.734637 1.232820 0.750930
C 3.730010 1.745841 0.258113
C 4.015123 1.001580 0.001006
C 3.979394 1.513658 0.504693
C 4.494323 1.006941 0.496309
C 4.498855 1.491401 0.011409
C 4.262715 1.261270 0.264086
C 4.253961 1.737498 0.760757
C 4.753855 1.242503 0.752439
C 4.742716 1.747484 0.248025
C 5.013939 0.989577 0.012173
C 4.996307 1.481019 0.505506
C 5.484389 0.980845 0.505460
C 5.497280 1.493349 0.015188
C 5.250936 1.242784 0.247277
C 5.252553 1.750208 0.750005
C 5.728742 1.234449 0.748025
C 5.744472 1.742197 0.235695
C 0.002854 1.980146 0.010032
C 0.008829 2.509310 0.499784
C 0.486021 2.001892 0.491013
C 0.513282 2.508227 0.013915
C 0.261563 2.266954 0.247355
C 0.252403 2.730213 0.751273
C 0.738349 2.254948 0.741277
C 0.737788 2.745334 0.263860
C 1.011190 2.014213 0.016768
C 1.001365 2.500669 0.501183
C 1.494469 1.994875 0.486422
C 1.518278 2.489712 0.005391
C 1.256914 2.255793 0.255904
C 1.244407 2.760335 0.770205
C 1.750544 2.268299 0.743167
C 1.747885 2.734542 0.261511
C 2.009875 2.005400 0.002362
C 1.995984 2.482918 0.495500
C 2.504843 1.989088 0.494681
C 2.496620 2.526891 0.019127
C 2.253594 2.266008 0.238802
C 2.265852 2.744777 0.753866
C 2.741406 2.238318 0.735851
C 2.752610 2.741822 0.239905
C 2.980116 2.005466 0.006625
C 3.009118 2.510640 0.508968
C 3.490857 1.986170 0.500754
C 3.499501 2.477536 0.010531
C 3.242420 2.232314 0.260718
C 3.251391 2.733289 0.761430
C 3.734285 2.232576 0.759146
C 3.758795 2.748873 0.250081
C 3.984187 2.009927 0.020698
C 3.997685 2.504769 0.490592
C 4.503915 2.019216 0.486973
C 4.486429 2.513632 0.001902
C 4.238449 2.252196 0.255859
C 4.264559 2.751167 0.745672
C 4.753305 2.251889 0.751760
C 4.755259 2.767791 0.244456
C 5.015094 2.006474 0.001482
C 5.003205 2.494129 0.496586
C 5.517462 2.005496 0.515478
C 5.517588 2.505008 0.006573
C 5.250754 2.240295 0.266428
C 5.230581 2.745572 0.745107
C 5.725485 2.252866 0.751730
C 5.732020 2.763145 0.247310
C 0.005711 3.002687 0.008199
C 0.019047 3.502884 0.513584
C 0.484157 3.002269 0.495751
C 0.489658 3.500556 0.006494
C 0.252326 3.267834 0.263990
C 0.266123 3.758041 0.730744
C 0.763254 3.265519 0.753155
C 0.744689 3.762229 0.250922
C 0.996027 2.999177 0.017744
C 1.006507 3.507788 0.493973
C 1.505804 3.011050 0.491785
C 1.498015 3.501709 0.011952
C 1.253479 3.244437 0.248776
C 1.249162 3.768988 0.760572
C 1.756454 3.249347 0.746088
C 1.750339 3.735459 0.243697
C 1.983227 2.989172 0.014198
C 2.009924 3.493421 0.512106
C 2.516593 3.001194 0.494679
C 2.509877 3.515747 0.004876
C 2.250001 3.256575 0.242771
C 2.235616 3.746663 0.745900
C 2.729539 3.240844 0.755055
C 2.767043 3.749078 0.260757
C 3.004146 2.976022 0.017815
C 3.015852 3.506916 0.497180
C 3.485589 3.007478 0.493007
C 3.518328 3.501375 0.005805
C 3.255902 3.256421 0.227910
C 3.231130 3.747798 0.746624
C 3.735532 3.250148 0.746054
C 3.749876 3.732788 0.261178
C 3.993640 3.002026 0.013235
C 4.005604 3.499753 0.478426
C 4.504266 2.999950 0.519886
C 4.494937 3.508593 0.005249
C 4.237510 3.233200 0.255338
C 4.246718 3.753417 0.769504
C 4.750808 3.258489 0.747523
C 4.746476 3.739801 0.241736
C 4.990638 3.015528 0.004581
C 4.984615 3.486539 0.497711
C 5.504197 3.013715 0.498646
C 5.495911 3.490959 0.013486
C 5.236422 3.259656 0.253176
C 5.253112 3.751630 0.750857
C 5.749692 3.223115 0.759618
C 5.738901 3.766840 0.244918
C 0.016108 3.980024 0.010119
C 0.003008 4.496790 0.485097
C 0.513894 4.009311 0.512183
C 0.492511 4.516253 0.003170
C 0.252627 4.264970 0.252922
C 0.243027 4.740734 0.769097
C 0.749383 4.249381 0.761719
C 0.733009 4.762875 0.247603
C 1.007286 4.008350 0.002460
C 0.994901 4.494882 0.506695
C 1.498174 3.999081 0.518755
C 1.482023 4.489356 0.000621
C 1.265763 4.240617 0.250739
C 1.244123 4.750127 0.738009
C 1.741418 4.244665 0.735981
C 1.743726 4.758464 0.240395
C 2.014935 3.999027 0.001603
C 1.993152 4.509229 0.515138
C 2.491758 3.984773 0.504296
C 2.486160 4.500797 0.013935
C 2.261276 4.244124 0.237847
C 2.252176 4.746918 0.748043
C 2.752246 4.256330 0.753670
C 2.746411 4.770577 0.250155
C 2.999016 4.005737 0.025746
C 3.013753 4.494093 0.509136
C 3.497941 4.004231 0.501314
C 3.501275 4.517509 0.016230
C 3.243080 4.247740 0.259446
C 3.243698 4.745430 0.755478
C 3.742168 4.265677 0.758624
C 3.770177 4.743192 0.248771
C 4.005914 4.021882 0.006064
C 4.000019 4.489916 0.503073
C 4.500525 4.017480 0.489985
C 4.509068 4.490930 0.026261
C 4.243505 4.251605 0.262442
C 4.253575 4.754694 0.759715
C 4.746435 4.249790 0.728162
C 4.745254 4.743962 0.243156
C 4.994614 3.995952 0.000824
C 4.996162 4.498278 0.517874
C 5.515489 3.999462 0.510099
C 5.497093 4.487701 0.009890
C 5.231914 4.246434 0.258621
C 5.248245 4.760570 0.748087
C 5.749320 4.241291 0.752794
C 5.743956 4.748377 0.238877
C 0.000841 4.987297 0.003570
C 0.013138 5.509293 0.484658
C 0.507906 4.999357 0.520822
C 0.521799 5.514471 0.001295
C 0.255965 5.232102 0.236303
C 0.255523 5.747027 0.763884
C 0.759651 5.256159 0.743961
C 0.757447 5.741800 0.269672
C 0.982469 4.997010 0.004351
C 0.994492 5.495962 0.500347
C 1.500839 4.994611 0.508830
C 1.502235 5.503520 0.021329
C 1.250397 5.253734 0.228114
C 1.227209 5.744928 0.738372
C 1.751049 5.248588 0.767373
C 1.744907 5.743441 0.270368
C 2.002985 4.992541 0.002575
C 2.002495 5.517207 0.504763
C 2.492755 4.990007 0.494548
C 2.499125 5.474769 0.011931
C 2.251598 5.232230 0.246077
C 2.264355 5.746206 0.725680
C 2.752321 5.248391 0.740142
C 2.739715 5.742914 0.257689
C 3.008068 4.977839 0.004342
C 3.013584 5.491928 0.503828
C 3.518127 5.005642 0.486334
C 3.491152 5.480176 0.010258
C 3.241776 5.265709 0.245675
C 3.264255 5.731054 0.758633
C 3.759398 5.268281 0.754226
C 3.744192 5.734297 0.263534
C 3.986032 5.003798 0.023363
C 3.998857 5.504496 0.485800
C 4.497263 4.978150 0.510701
C 4.502842 5.476498 0.000564
C 4.256272 5.254490 0.250232
C 4.243683 5.746339 0.761332
C 4.752393 5.249204 0.764503
C 4.736551 5.737568 0.230383
C 5.028243 4.996912 0.010628
C 4.997868 5.518714 0.499790
C 5.511272 4.989004 0.509592
C 5.507271 5.482329 0.013296
C 5.259909 5.247093 0.242062
C 5.249459 5.748701 0.769700
C 5.737784 5.256850 0.755445
C 5.735139 5.735731 0.248305
C 0.009914 0.021154 1.005448
C 0.005530 0.517001 1.478128
C 0.498316 0.009084 1.481130
C 0.511736 0.506279 0.997120
C 0.250600 0.246758 1.261083
C 0.245379 0.735586 1.749297
C 0.756930 0.263426 1.745572
C 0.756770 0.746176 1.227629
C 0.995819 0.005469 1.024264
C 1.007237 0.506759 1.501171
C 1.517530 0.012347 1.511542
C 1.510268 0.480325 0.995624
C 1.268822 0.256144 1.246941
C 1.247820 0.747524 1.742413
C 1.775411 0.251482 1.740859
C 1.743377 0.769902 1.255488
C 1.998665 0.010534 0.982867
C 2.014977 0.493143 1.481364
C 2.500160 0.013209 1.513980
C 2.504573 0.483010 0.986967
C 2.265502 0.257659 1.258670
C 2.256353 0.776813 1.746536
C 2.754350 0.232717 1.761153
C 2.731985 0.741145 1.240448
C 2.998528 0.000159 0.993509
C 3.014787 0.478901 1.499689
C 3.483814 0.010033 1.501047
C 3.509742 0.516907 0.991247
C 3.234782 0.234011 1.255596
C 3.252806 0.739110 1.734526
C 3.755839 0.250711 1.756425
C 3.740796 0.746704 1.260048
C 4.019544 0.011050 0.987265
C 3.989496 0.508162 1.497462
C 4.497960 0.020207 1.492835
C 4.503120 0.494849 0.986676
C 4.248693 0.243307 1.237971
C 4.265302 0.746134 1.745112
C 4.764450 0.259153 1.743502
C 4.747354 0.748279 1.249221
C 4.991702 0.009292 0.980675
C 4.988372 0.502981 1.476840
C 5.490312 0.013621 1.501347
C 5.491695 0.509035 0.987589
C 5.250860 0.255675 1.238485
C 5.261549 0.753721 1.736181
C 5.735729 0.242288 1.747522
C 5.735748 0.744191 1.251206
C 0.015880 0.979350 1.006085
C 0.001881 1.497254 1.489440
C 0.502173 0.994425 1.500140
C 0.510022 1.497187 0.982180
C 0.228905 1.248919 1.246492
C 0.263805 1.744611 1.740206
C 0.732264 1.249595 1.751197
C 0.755569 1.760509 1.247822
C 0.993177 0.997724 1.014102
C 0.989912 1.488670 1.514810
C 1.510952 1.017938 1.511603
C 1.489990 1.483639 0.984006
C 1.262806 1.254085 1.260951
C 1.257188 1.766069 1.754541
C 1.744581 1.253567 1.767939
C 1.741887 1.759996 1.231640
C 1.998936 1.015130 0.998291
C 2.010638 1.486766 1.488491
C 2.474662 1.000780 1.494367
C 2.490025 1.478521 0.994116
C 2.247231 1.262554 1.236465
C 2.272207 1.746474 1.742501
C 2.762991 1.249299 1.738193
C 2.732318 1.758234 1.238757
C 2.997496 0.989877 1.004594
C 2.992391 1.508934 1.506200
C 3.508111 0.997340 1.499256
C 3.497514 1.488788 1.014305
C 3.248606 1.246815 1.236184
C 3.265400 1.759450 1.744873
C 3.749037 1.259808 1.763412
C 3.746051 1.742391 1.243576
C 3.983071 0.995074 0.984657
C 4.000039 1.498858 1.508414
C 4.511529 1.013514 1.492988
C 4.490071 1.506044 1.007077
C 4.255282 1.252580 1.245730
C 4.230390 1.750625 1.741127
C 4.763080 1.239388 1.750033
C 4.747534 1.745632 1.233050
C 5.007020 1.006807 1.000386
C 4.989563 1.501711 1.486044
C 5.500334 0.997709 1.485328
C 5.504007 1.506356 1.012655
C 5.247473 1.244476 1.246919
C 5.232860 1.733639 1.741117
C 5.743170 1.259681 1.728508
C 5.739515 1.729038 1.266176
C 0.003258 2.008518 0.990929
C 0.002822 2.500977 1.509270
C 0.507035 2.007444 1.498508
C 0.522979 2.495707 1.007740
C 0.250093 2.239522 1.251263
C 0.244238 2.747945 1.764374
C 0.767950 2.258420 1.744262
C 0.768989 2.752087 1.252583
C 1.014116 2.001247 0.994278
C 0.992008 2.508591 1.497826
C 1.498184 2.011424 1.496208
C 1.511928 2.503693 1.004446
C 1.243888 2.272361 1.243832
C 1.249761 2.739829 1.743958
C 1.769528 2.250998 1.746529
C 1.736858 2.747211 1.265918
C 2.000366 1.997266 1.012612
C 2.006353 2.504269 1.487929
C 2.494927 1.984432 1.495723
C 2.476545 2.501522 1.006877
C 2.256208 2.246172 1.245479
C 2.246605 2.752676 1.735513
C 2.757862 2.262802 1.733249
C 2.743026 2.765164 1.253769
C 2.982710 1.996530 1.011218
C 3.018435 2.491228 1.511267
C 3.517065 1.984200 1.495501
C 3.490166 2.481323 0.992410
C 3.244987 2.230940 1.232413
C 3.233723 2.746414 1.761698
C 3.754676 2.271107 1.765555
C 3.758768 2.744273 1.263056
C 4.013428 2.001494 0.981054
C 3.994825 2.495440 1.487807
C 4.495624 1.985296 1.505104
C 4.504415 2.490689 0.979256
C 4.246671 2.263212 1.254984
C 4.268433 2.757322 1.763901
C 4.739004 2.241452 1.744299
C 4.739200 2.772940 1.254783
C 5.001617 1.995139 0.995451
C 4.986147 2.501425 1.490356
C 5.483306 1.996092 1.498635
C 5.516253 2.499150 1.002649
C 5.251789 2.238338 1.235936
C 5.247729 2.738298 1.762810
C 5.747789 2.239060 1.747424
C 5.746512 2.761683 1.240373
C 0.003139 2.992388 0.988955
C 0.010414 3.502289 1.498935
C 0.512096 3.005702 1.488446
C 0.512495 3.516751 1.014230
C 0.265212 3.248359 1.231815
C 0.252100 3.735069 1.747926
C 0.738468 3.264790 1.733880
C 0.760074 3.768476 1.253005
C 0.990278 3.013990 0.993857
C 1.009567 3.488395 1.491968
C 1.489735 2.988792 1.502168
C 1.511154 3.503755 1.014549
C 1.243389 3.244482 1.249547
C 1.241277 3.762704 1.738232
C 1.762567 3.229589 1.753548
C 1.756641 3.740902 1.246325
C 1.998900 3.019360 0.988142
C 2.005507 3.480441 1.513892
C 2.517839 2.994928 1.504573
C 2.505112 3.492372 1.011161
C 2.238748 3.265314 1.247779
C 2.236916 3.738242 1.740225
C 2.736214 3.248293 1.738414
C 2.752873 3.740372 1.252362
C 3.017760 2.984027 1.004700
C 2.999280 3.498372 1.512537
C 3.507451 3.010000 1.508566
C 3.496160 3.514304 0.992271
C 3.249097 3.248329 1.238459
C 3.248957 3.752305 1.758122
C 3.760949 3.264591 1.757743
C 3.751352 3.731952 1.242388
C 3.990693 3.009508 0.992763
C 3.989777 3.518247 1.488061
C 4.506238 3.015999 1.503314
C 4.515426 3.508647 0.997300
C 4.237909 3.236175 1.233353
C 4.243175 3.743091 1.728526
C 4.763563 3.245195 1.741037
C 4.749064 3.756122 1.248172
C 4.985877 3.002801 1.012127
C 4.990858 3.496404 1.517512
C 5.501173 3.019626 1.498014
C 5.484869 3.506785 1.008543
C 5.246426 3.257953 1.238904
C 5.258950 3.754328 1.764331
C 5.741321 3.244396 1.743077
C 5.733229 3.750964 1.249169
C 0.019931 3.992369 1.005614
C 0.000818 4.490162 1.525677
C 0.508357 3.984256 1.480151
C 0.506558 4.518048 0.999508
C 0.270772 4.243136 1.252455
C 0.240075 4.744949 1.757630
C 0.765048 4.240135 1.747698
C 0.755745 4.740504 1.234451
C 1.003025 4.002807 1.000441
C 1.014081 4.486463 1.504068
C 1.501565 3.992891 1.522242
C 1.495083 4.506822 1.009861
C 1.268345 4.249535 1.240318
C 1.258339 4.743245 1.748887
C 1.751027 4.242007 1.757005
C 1.769016 4.737198 1.257166
C 2.010672 4.013281 0.995679
C 2.016464 4.507589 1.492323
C 2.501341 4.013257 1.512150
C 2.512806 4.491120 1.000625
C 2.258774 4.242823 1.255823
C 2.250070 4.739903 1.745799
C 2.742644 4.249190 1.759161
C 2.756639 4.772621 1.255954
C 2.993851 4.011967 1.003587
C 2.988715 4.507590 1.515867
C 3.494029 4.010523 1.492550
C 3.498131 4.509750 0.986726
C 3.244318 4.250590 1.267281
C 3.237777 4.746489 1.732245
C 3.763780 4.253270 1.757406
C 3.740424 4.759152 1.243819
C 3.983029 3.980334 1.003659
C 3.995724 4.493230 1.489638
C 4.482826 4.009120 1.498875
C 4.497180 4.494286 1.010613
C 4.241408 4.250076 1.241456
C 4.262506 4.752555 1.757146
C 4.744494 4.232095 1.739663
C 4.738966 4.745807 1.255280
C 5.002017 4.016548 0.998706
C 5.018792 4.504646 1.500263
C 5.495956 3.991701 1.489031
C 5.508090 4.489900 1.001848
C 5.261662 4.265920 1.246453
C 5.251882 4.761138 1.763967
C 5.741789 4.257295 1.758572
C 5.745436 4.735767 1.259626
C 0.002658 4.987207 0.993936
C 0.020738 5.504661 1.518172
C 0.510611 4.980500 1.497220
C 0.494815 5.490069 1.001893
C 0.248510 5.235745 1.253037
C 0.266196 5.740733 1.753538
C 0.767317 5.258316 1.741499
C 0.757420 5.745687 1.252267
C 1.006701 5.013202 0.997511
C 0.985892 5.484494 1.481037
C 1.493404 4.990794 1.493584
C 1.500472 5.502621 0.985564
C 1.242655 5.260075 1.254044
C 1.234936 5.746157 1.727496
C 1.730513 5.245408 1.749800
C 1.738789 5.749901 1.226628
C 2.002959 4.985119 1.005950
C 1.990376 5.491253 1.495257
C 2.494266 4.995455 1.490002
C 2.503466 5.489759 0.999416
C 2.262799 5.249141 1.255748
C 2.247013 5.732934 1.751910
C 2.744067 5.253414 1.752770
C 2.742455 5.745217 1.258839
C 2.994333 4.989590 0.985252
C 3.017035 5.492651 1.506846
C 3.492666 4.997650 1.510493
C 3.517517 5.508826 1.004059
C 3.236208 5.256625 1.256843
C 3.260131 5.746611 1.770725
C 3.749978 5.248559 1.771440
C 3.749580 5.736968 1.260418
C 4.008515 4.994798 0.984108
C 4.019286 5.499900 1.503062
C 4.507242 5.021065 1.490841
C 4.520564 5.498704 0.997437
C 4.220781 5.242805 1.247567
C 4.254860 5.737743 1.750338
C 4.747774 5.250843 1.739184
C 4.747016 5.740180 1.258362
C 4.993208 4.986972 1.008773
C 4.998357 5.509092 1.485426
C 5.503922 4.987210 1.503006
C 5.499056 5.506291 0.973288
C 5.245207 5.244033 1.239080
C 5.234786 5.741105 1.752844
C 5.741001 5.241246 1.763967
C 5.734081 5.747280 1.225435
C 0.039418 0.000504 1.990258
C 0.001835 0.496607 2.496815
C 0.486221 0.015547 2.498587
C 0.489618 0.498627 1.986498
C 0.252586 0.234014 2.247800
C 0.248051 0.758583 2.757939
C 0.753547 0.261319 2.748707
C 0.743902 0.755780 2.264370
C 0.984464 0.019947 2.001026
C 1.017077 0.497840 2.494732
C 1.483683 0.000037 2.516223
C 1.508940 0.494340 1.985027
C 1.258372 0.239565 2.264027
C 1.247556 0.733735 2.752138
C 1.738791 0.249270 2.754567
C 1.750702 0.760906 2.232917
C 1.984141 0.002257 1.985157
C 1.992194 0.497436 2.493928
C 2.498273 0.008179 2.480008
C 2.487100 0.513079 2.003848
C 2.241808 0.258290 2.259451
C 2.262011 0.744904 2.763678
C 2.751888 0.246487 2.758046
C 2.755470 0.754456 2.250159
C 3.001587 0.000875 2.017932
C 2.980895 0.501518 2.488715
C 3.517136 0.000443 2.481388
C 3.503755 0.496855 2.000244
C 3.260807 0.256370 2.238288
C 3.263623 0.751151 2.746675
C 3.759863 0.249960 2.766841
C 3.751556 0.762761 2.236453
C 3.992554 0.012026 1.998693
C 3.988343 0.493370 2.507948
C 4.513690 0.003776 2.529944
C 4.511063 0.503270 2.017314
C 4.253141 0.249401 2.254863
C 4.254603 0.755834 2.736789
C 4.761816 0.250354 2.753937
C 4.774060 0.757783 2.248788
C 5.013777 0.003134 1.981464
C 4.981087 0.502519 2.506767
C 5.498918 0.004381 2.512988
C 5.506628 0.487894 1.989536
C 5.236368 0.245044 2.257138
C 5.242157 0.776944 2.740765
C 5.749654 0.246321 2.738102
C 5.743868 0.739369 2.241000
C 0.005013 1.007085 2.004818
C 0.001152 1.497139 2.502528
C 0.488645 0.995950 2.493560
C 0.517715 1.508924 1.997168
C 0.253220 1.244591 2.239610
C 0.236281 1.761367 2.752194
C 0.739630 1.250489 2.753175
C 0.743968 1.729168 2.248207
C 0.996576 0.990262 1.988816
C 0.980942 1.506299 2.510857
C 1.498898 1.020274 2.512844
C 1.496423 1.498881 2.005558
C 1.250569 1.252012 2.275668
C 1.239315 1.763151 2.759280
C 1.758155 1.249225 2.751394
C 1.747368 1.756971 2.259715
C 1.999692 0.995941 2.013289
C 1.989343 1.505558 2.508519
C 2.504227 1.010154 2.499754
C 2.493217 1.475677 1.999048
C 2.260149 1.259580 2.255876
C 2.257567 1.736321 2.733066
C 2.746692 1.269105 2.752498
C 2.756555 1.747010 2.263724
C 3.018461 0.990461 1.998570
C 2.999653 1.497413 2.495667
C 3.490189 0.997778 2.481083
C 3.505305 1.508765 2.000401
C 3.259430 1.254754 2.268890
C 3.244792 1.764594 2.730476
C 3.760737 1.246498 2.765201
C 3.741809 1.755230 2.241645
C 3.986265 0.989526 1.982291
C 4.001633 1.521917 2.504926
C 4.500642 1.017757 2.516786
C 4.515869 1.489647 2.000190
C 4.237321 1.258953 2.259202
C 4.245506 1.734762 2.752594
C 4.756111 1.250371 2.752897
C 4.749911 1.746223 2.238216
C 5.008536 1.002344 2.011314
C 4.997614 1.516955 2.499310
C 5.487146 1.000649 2.498891
C 5.493919 1.500237 2.005261
C 5.238326 1.255711 2.244924
C 5.269539 1.763182 2.752995
C 5.737197 1.234834 2.740870
C 5.730496 1.747770 2.259081
C 0.002366 2.003379 2.018192
C 0.002842 2.516394 2.485593
C 0.507884 1.984323 2.482928
C 0.494540 2.512467 1.994762
C 0.253020 2.262023 2.233121
C 0.249919 2.743779 2.729635
C 0.747969 2.262169 2.764023
C 0.736073 2.761703 2.239778
C 1.016574 2.017302 2.001518
C 1.001310 2.493199 2.479991
C 1.498986 1.995310 2.485897
C 1.503668 2.496901 1.996865
C 1.240871 2.227084 2.255477
C 1.240387 2.760464 2.772803
C 1.751784 2.246270 2.753160
C 1.747755 2.751536 2.260166
C 1.986494 1.986669 1.998520
C 2.010063 2.511225 2.500897
C 2.500870 1.978897 2.505885
C 2.499521 2.513867 1.986816
C 2.262456 2.255300 2.252821
C 2.259946 2.741913 2.745685
C 2.758217 2.262554 2.737163
C 2.749139 2.741933 2.235310
C 3.016412 2.014608 1.996319
C 2.996110 2.497324 2.477368
C 3.499033 2.005978 2.497236
C 3.502918 2.485990 1.986858
C 3.253996 2.256130 2.239730
C 3.261517 2.745587 2.758115
C 3.743592 2.267297 2.746596
C 3.743468 2.758728 2.262449
C 4.004869 2.003303 1.999040
C 4.011408 2.488338 2.479695
C 4.507756 2.008815 2.490294
C 4.509937 2.497146 2.008835
C 4.254668 2.229723 2.246239
C 4.254109 2.764198 2.755335
C 4.758499 2.238732 2.753159
C 4.736613 2.748752 2.255392
C 4.996832 1.993859 2.016700
C 4.993312 2.503034 2.483645
C 5.490223 1.995499 2.494580
C 5.504799 2.478946 1.989211
C 5.269077 2.254323 2.243537
C 5.234496 2.745460 2.750056
C 5.729686 2.249209 2.744478
C 5.738475 2.753388 2.257776
C 0.008421 2.993361 2.030738
C 0.013970 3.503156 2.481376
C 0.490194 2.994223 2.508569
C 0.494392 3.483863 2.014288
C 0.253369 3.241640 2.263440
C 0.252134 3.736273 2.767345
C 0.740140 3.269893 2.753001
C 0.744355 3.739484 2.249582
C 0.995989 2.996958 1.982045
C 1.016295 3.502144 2.482321
C 1.505355 3.007804 2.519027
C 1.503965 3.509305 2.013106
C 1.244045 3.234693 2.258551
C 1.239608 3.752847 2.765638
C 1.764734 3.256325 2.736562
C 1.731076 3.766537 2.253415
C 2.000192 2.981454 1.998523
C 1.990369 3.509873 2.509202
C 2.496555 3.007203 2.494158
C 2.494728 3.499105 1.980567
C 2.239655 3.252542 2.228405
C 2.266241 3.748426 2.749038
C 2.744780 3.239283 2.732519
C 2.755371 3.734952 2.236298
C 2.999224 3.004591 1.981705
C 2.998162 3.499762 2.513235
C 3.507610 2.991549 2.508558
C 3.482743 3.492936 2.000416
C 3.260905 3.259059 2.257831
C 3.241488 3.758552 2.725009
C 3.763703 3.261175 2.747384
C 3.753437 3.738547 2.235183
C 4.006106 3.009707 1.991221
C 4.001970 3.493674 2.486926
C 4.502397 2.984530 2.504269
C 4.486542 3.481975 2.000625
C 4.236838 3.244953 2.242624
C 4.245854 3.747954 2.746058
C 4.744329 3.261593 2.744750
C 4.752102 3.753548 2.237200
C 4.990794 3.005775 1.992817
C 4.987840 3.506890 2.514580
C 5.502274 3.017199 2.486086
C 5.494780 3.502424 2.008837
C 5.242325 3.234964 2.250274
C 5.268461 3.748667 2.744195
C 5.745183 3.233161 2.758725
C 5.739463 3.743696 2.236635
C 0.000116 4.010448 2.004399
C 0.003563 4.479666 2.492370
C 0.515909 3.992256 2.494437
C 0.513795 4.504876 1.988848
C 0.244352 4.232120 2.255252
C 0.244038 4.756929 2.738657
C 0.755687 4.252064 2.768211
C 0.757380 4.740017 2.259116
C 1.000515 3.989112 1.984767
C 1.006372 4.497584 2.482216
C 1.485183 4.016719 2.491755
C 1.496310 4.489113 2.011952
C 1.251873 4.244342 2.237421
C 1.252492 4.734861 2.746922
C 1.762468 4.241559 2.736788
C 1.750242 4.739118 2.255786
C 2.005744 3.993422 1.992069
C 2.001845 4.502502 2.496713
C 2.487463 3.990104 2.499264
C 2.488759 4.490698 2.014508
C 2.269873 4.253055 2.265949
C 2.249916 4.737718 2.757283
C 2.746134 4.237542 2.741683
C 2.753408 4.768750 2.267770
C 3.009160 3.996515 1.987734
C 2.992650 4.518551 2.508886
C 3.482106 4.003965 2.508250
C 3.509561 4.507075 2.020786
C 3.228831 4.258550 2.251350
C 3.268805 4.739213 2.745045
C 3.754542 4.245705 2.761737
C 3.737722 4.745151 2.268021
C 4.007432 3.990534 2.012662
C 3.994976 4.487790 2.503654
C 4.485417 3.992341 2.500167
C 4.515061 4.493323 1.998067
C 4.259596 4.257370 2.243032
C 4.246388 4.743144 2.754934
C 4.739972 4.261194 2.739797
C 4.732467 4.737304 2.245819
C 4.982984 4.008021 1.995977
C 4.994976 4.487840 2.514027
C 5.487032 3.998789 2.503556
C 5.490873 4.507321 1.989115
C 5.264973 4.256323 2.256988
C 5.260994 4.744087 2.758775
C 5.735028 4.258163 2.752913
C 5.746950 4.718321 2.238355
C 0.020362 4.990626 1.999035
C 0.001346 5.487218 2.488216
C 0.510528 4.982837 2.497123
C 0.502486 5.483891 2.002743
C 0.254509 5.249178 2.260813
C 0.260811 5.734368 2.759513
C 0.762165 5.250354 2.737204
C 0.735322 5.739999 2.256504
C 1.014538 5.002165 1.980277
C 1.004641 5.514873 2.509070
C 1.501831 4.987694 2.485100
C 1.510171 5.507727 2.013519
C 1.242591 5.239397 2.229388
C 1.264976 5.730401 2.753651
C 1.742841 5.263902 2.762744
C 1.764024 5.725552 2.243860
C 1.986356 5.004333 1.989658
C 1.996842 5.486404 2.490624
C 2.502782 5.011906 2.502732
C 2.490209 5.477217 1.991413
C 2.252338 5.255717 2.266444
C 2.225385 5.746345 2.748547
C 2.747492 5.269864 2.733305
C 2.751060 5.737991 2.267583
C 3.000148 5.011492 2.002714
C 3.021508 5.493412 2.494386
C 3.501067 4.993308 2.519051
C 3.499107 5.490575 1.985939
C 3.255117 5.238775 2.243254
C 3.239094 5.748701 2.766467
C 3.726481 5.250619 2.754732
C 3.766922 5.744017 2.240332
C 4.017360 4.998980 1.997553
C 3.990712 5.508650 2.490729
C 4.505753 4.993598 2.494181
C 4.495112 5.489977 2.014329
C 4.268987 5.241936 2.255734
C 4.250984 5.731506 2.764371
C 4.755372 5.235891 2.741091
C 4.725882 5.744851 2.247068
C 5.006553 4.996451 2.006360
C 5.015794 5.498176 2.500449
C 5.508025 4.994241 2.498602
C 5.487194 5.507861 2.005555
C 5.245240 5.255025 2.234801
C 5.250525 5.741730 2.741789
C 5.736247 5.231244 2.753223
C 5.732268 5.744284 2.244011
C 0.022567 0.004902 2.993417
C 0.000463 0.520216 3.504541
C 0.481166 0.023676 3.500372
C 0.506744 0.500234 2.998349
C 0.254466 0.268654 3.241232
C 0.264813 0.761335 3.758683
C 0.745725 0.231558 3.759479
C 0.743917 0.755706 3.253448
C 1.013847 0.006996 2.996423
C 0.985205 0.490457 3.503876
C 1.512190 0.006962 3.515761
C 1.505483 0.502030 2.987921
C 1.250727 0.250860 3.242600
C 1.246155 0.753542 3.752456
C 1.748613 0.255827 3.736893
C 1.750721 0.757443 3.245729
C 1.991317 0.004760 2.993379
C 2.001660 0.481881 3.499778
C 2.512398 0.009445 3.495711
C 2.495429 0.484047 2.984298
C 2.264538 0.248752 3.248739
C 2.261651 0.758711 3.748974
C 2.756983 0.240152 3.736403
C 2.746860 0.748678 3.264120
C 3.007182 0.002805 3.006765
C 2.991179 0.490438 3.497878
C 3.497591 0.010758 3.497617
C 3.495786 0.511259 3.020120
C 3.232277 0.246492 3.259034
C 3.247475 0.744774 3.739524
C 3.752344 0.237180 3.734191
C 3.748271 0.747818 3.271345
C 4.011903 0.000858 3.004938
C 4.020152 0.500470 3.494233
C 4.502201 0.000499 3.499787
C 4.496658 0.510171 3.006722
C 4.246481 0.250758 3.253118
C 4.237008 0.731109 3.756084
C 4.747837 0.248339 3.745469
C 4.728805 0.762004 3.240999
C 5.011976 0.018175 3.007170
C 5.006723 0.519847 3.503857
C 5.511837 0.013817 3.510350
C 5.486896 0.514474 3.000291
C 5.230891 0.240779 3.268158
C 5.251187 0.750576 3.752139
C 5.730936 0.267572 3.732066
C 5.730585 0.754617 3.248311
C 0.005637 1.019658 2.990820
C 0.010467 1.516003 3.493235
C 0.484469 0.998531 3.488780
C 0.498612 1.504500 2.997337
C 0.240880 1.251163 3.238110
C 0.238072 1.739274 3.751209
C 0.750864 1.240142 3.758827
C 0.755693 1.730731 3.253473
C 0.986593 1.004969 3.005870
C 0.986216 1.488813 3.504818
C 1.486988 1.013475 3.505009
C 1.505902 1.507662 2.990574
C 1.245712 1.266663 3.237037
C 1.236813 1.757628 3.741689
C 1.763492 1.265169 3.752664
C 1.741585 1.734388 3.262661
C 1.984379 1.000373 2.990092
C 1.996932 1.484920 3.493551
C 2.494618 0.984037 3.498222
C 2.518229 1.501714 3.008830
C 2.247665 1.264361 3.258789
C 2.257873 1.757864 3.751079
C 2.743664 1.230195 3.739788
C 2.749851 1.754690 3.237539
C 2.993775 0.983661 2.996934
C 2.978935 1.499265 3.499078
C 3.509292 0.999733 3.490249
C 3.491848 1.490054 3.007356
C 3.267125 1.244294 3.248718
C 3.247713 1.737696 3.757212
C 3.760664 1.261412 3.755379
C 3.740591 1.759535 3.235450
C 4.005085 0.985301 3.011571
C 4.005302 1.491577 3.496860
C 4.482560 1.000439 3.504086
C 4.498722 1.490780 3.013358
C 4.245988 1.226909 3.251247
C 4.268763 1.739029 3.746043
C 4.739651 1.243541 3.741785
C 4.760179 1.747596 3.236723
C 5.020141 0.995194 2.995345
C 5.009259 1.504759 3.508167
C 5.512428 1.006817 3.500042
C 5.511093 1.516112 2.990986
C 5.230659 1.253206 3.257266
C 5.236780 1.755002 3.739940
C 5.743248 1.260880 3.742308
C 5.745485 1.760245 3.229264
C 0.008314 2.011621 3.021880
C 0.012146 2.505754 3.492003
C 0.509563 2.003965 3.501090
C 0.491710 2.500027 2.985706
C 0.256384 2.241440 3.264624
C 0.253339 2.770525 3.747762
C 0.750117 2.244734 3.765759
C 0.745428 2.769596 3.262147
C 0.992313 1.982465 3.001488
C 0.998939 2.492138 3.493944
C 1.497749 1.981362 3.502839
C 1.479114 2.513045 2.991483
C 1.255331 2.251867 3.261565
C 1.260880 2.730940 3.746456
C 1.760347 2.247721 3.757406
C 1.765426 2.755584 3.250039
C 2.010862 2.007493 3.012227
C 2.012657 2.495595 3.511722
C 2.514451 1.988410 3.485616
C 2.510039 2.505956 3.019071
C 2.247630 2.255186 3.248240
C 2.238174 2.756100 3.762186
C 2.736398 2.249229 3.737895
C 2.766042 2.755912 3.243538
C 2.997137 1.991958 2.990585
C 3.010664 2.507565 3.505177
C 3.480673 2.000666 3.500907
C 3.500995 2.506919 3.000123
C 3.259935 2.245674 3.260655
C 3.239696 2.751446 3.754120
C 3.764711 2.250972 3.762303
C 3.738892 2.761002 3.248787
C 3.991654 1.984270 2.997098
C 4.003374 2.483195 3.514559
C 4.524231 1.990073 3.511769
C 4.510941 2.501237 3.019339
C 4.240712 2.237888 3.258644
C 4.249599 2.737680 3.763913
C 4.761158 2.265731 3.734965
C 4.762007 2.758284 3.263460
C 4.992203 1.996125 2.998136
C 5.001426 2.510949 3.480522
C 5.492538 2.014030 3.490155
C 5.500848 2.505281 2.993673
C 5.237810 2.245870 3.232907
C 5.258919 2.731699 3.739964
C 5.740724 2.253454 3.765764
C 5.724885 2.753019 3.256968
C 0.009931 2.992961 2.980421
C 0.004744 3.479608 3.492773
C 0.488155 3.000047 3.492868
C 0.493450 3.491313 3.001793
C 0.259502 3.245530 3.247678
C 0.233762 3.761063 3.757237
C 0.730556 3.249332 3.737231
C 0.753075 3.759624 3.263875
C 0.998731 3.008607 3.009084
C 1.004803 3.507007 3.489857
C 1.501122 2.990611 3.502365
C 1.519285 3.494049 2.992771
C 1.262484 3.252104 3.241354
C 1.242418 3.761186 3.730569
C 1.752345 3.238640 3.747465
C 1.745272 3.738582 3.255910
C 1.998546 2.997922 3.006247
C 2.010917 3.491678 3.489378
C 2.513124 3.007094 3.509990
C 2.485836 3.501607 2.991882
C 2.228820 3.254808 3.230769
C 2.266895 3.757421 3.751832
C 2.759981 3.261820 3.747613
C 2.751535 3.755932 3.247134
C 3.004184 2.996374 2.984499
C 2.986558 3.498923 3.500703
C 3.488194 3.003842 3.515717
C 3.518398 3.482237 3.004103
C 3.234582 3.251606 3.247417
C 3.259442 3.741170 3.754708
C 3.748101 3.238973 3.761687
C 3.737177 3.757010 3.244880
C 3.991294 3.003007 3.011790
C 4.015484 3.493527 3.499919
C 4.481644 2.986444 3.510154
C 4.494662 3.506396 3.011261
C 4.253951 3.240834 3.261664
C 4.265857 3.746760 3.742016
C 4.759323 3.264408 3.739353
C 4.757680 3.750692 3.254494
C 4.999918 3.018091 3.004878
C 4.992791 3.506987 3.494570
C 5.508749 3.005836 3.499853
C 5.499901 3.499862 2.991161
C 5.244406 3.259810 3.238132
C 5.243390 3.745703 3.758086
C 5.735290 3.263840 3.751171
C 5.735103 3.743544 3.247541
C 0.000398 4.006897 2.982748
C 0.000561 4.511844 3.509748
C 0.496540 3.994668 3.518178
C 0.488542 4.517417 3.010253
C 0.228500 4.232590 3.249976
C 0.232218 4.757989 3.752029
C 0.767650 4.252571 3.760217
C 0.767061 4.747286 3.247819
C 0.996077 3.998309 2.979696
C 0.994527 4.489589 3.512534
C 1.491969 3.997729 3.510936
C 1.495014 4.518964 2.994411
C 1.241627 4.238619 3.264016
C 1.245739 4.745680 3.765197
C 1.740692 4.230757 3.741968
C 1.735017 4.732769 3.259749
C 2.000714 4.007707 2.998397
C 1.987414 4.501476 3.486907
C 2.502516 3.999446 3.504161
C 2.489676 4.505553 3.015216
C 2.254615 4.253035 3.251544
C 2.266303 4.748404 3.747792
C 2.754453 4.249231 3.765070
C 2.748869 4.760094 3.248485
C 2.995187 4.007835 2.995592
C 3.010331 4.500442 3.495992
C 3.480153 3.996751 3.505270
C 3.509434 4.493851 2.985449
C 3.233462 4.252326 3.241819
C 3.252178 4.737372 3.739479
C 3.766436 4.253184 3.759701
C 3.743278 4.744139 3.255689
C 4.003595 3.988708 2.992470
C 3.987690 4.498580 3.497748
C 4.500974 3.999644 3.509962
C 4.490814 4.515489 2.996782
C 4.265101 4.251985 3.262323
C 4.251695 4.758607 3.754258
C 4.764956 4.239637 3.748323
C 4.753374 4.743171 3.236057
C 4.983727 3.993619 3.004631
C 5.016027 4.512733 3.489385
C 5.511204 3.988798 3.502692
C 5.496161 4.494326 2.995686
C 5.255816 4.254648 3.267149
C 5.251265 4.745134 3.753909
C 5.735143 4.231558 3.746519
C 5.738751 4.772337 3.248850
C 0.006505 4.988136 2.998929
C 0.005469 5.497785 3.495133
C 0.489098 4.980372 3.506933
C 0.509275 5.480271 3.002462
C 0.239822 5.255495 3.243666
C 0.252428 5.746227 3.758181
C 0.756277 5.264121 3.740340
C 0.741989 5.727740 3.250421
C 1.010097 5.003173 3.008412
C 1.013112 5.502435 3.493659
C 1.486419 5.009860 3.499486
C 1.519506 5.500957 3.018967
C 1.238028 5.263842 3.246211
C 1.250577 5.738127 3.736931
C 1.726429 5.260906 3.754025
C 1.770840 5.745447 3.234614
C 2.013381 5.010124 2.988680
C 1.989929 5.489651 3.501049
C 2.488770 4.997347 3.513669
C 2.485683 5.494153 2.983262
C 2.256517 5.259615 3.244368
C 2.251549 5.740223 3.760155
C 2.754070 5.265954 3.748138
C 2.728526 5.749699 3.242433
C 2.999014 4.996992 2.986346
C 2.995379 5.509469 3.487544
C 3.490398 4.994649 3.493718
C 3.489496 5.488117 2.998122
C 3.244041 5.261700 3.238846
C 3.237953 5.747841 3.770833
C 3.737193 5.262383 3.745469
C 3.767737 5.733564 3.259073
C 3.979603 5.007923 3.002253
C 3.998784 5.502004 3.511653
C 4.502272 5.005281 3.483131
C 4.511585 5.516122 2.993749
C 4.250979 5.257847 3.237781
C 4.248356 5.743290 3.746954
C 4.749596 5.243630 3.756470
C 4.750471 5.734646 3.252880
C 4.996292 5.015723 2.989313
C 5.003137 5.524186 3.492643
C 5.493748 4.998244 3.517456
C 5.516445 5.484849 2.990681
C 5.266359 5.269725 3.256321
C 5.255758 5.745892 3.755179
C 5.737260 5.265273 3.748462
C 5.740174 5.730698 3.250825
C 0.017207 0.003800 3.988046
C 0.007453 0.516934 4.508289
C 0.492980 0.013053 4.506931
C 0.501766 0.499841 4.009588
C 0.269462 0.239864 4.252750
C 0.247195 0.769449 4.754312
C 0.739668 0.245476 4.760649
C 0.735709 0.758915 4.241950
C 1.010739 0.008169 4.005330
C 1.000484 0.506154 4.513298
C 1.498745 0.012167 4.518750
C 1.497245 0.504147 3.993788
C 1.260647 0.245693 4.242830
C 1.248937 0.747690 4.742683
C 1.745267 0.261070 4.752386
C 1.765705 0.743837 4.248949
C 2.009584 0.003085 3.998246
C 2.003102 0.501748 4.517358
C 2.497352 0.005671 4.509576
C 2.501668 0.501553 4.019065
C 2.255695 0.242834 4.250174
C 2.231244 0.745150 4.760677
C 2.760296 0.264834 4.759529
C 2.738095 0.757333 4.250434
C 3.004091 0.012571 4.001176
C 3.002082 0.502068 4.497138
C 3.494753 0.008993 4.512794
C 3.490283 0.504526 4.006223
C 3.258511 0.239054 4.256325
C 3.247832 0.753522 4.730651
C 3.753497 0.242174 4.754744
C 3.746097 0.754107 4.261689
C 3.987517 0.022838 4.001575
C 3.985231 0.505521 4.508983
C 4.509137 0.002045 4.504014
C 4.497497 0.499047 3.986371
C 4.229241 0.244876 4.245511
C 4.260299 0.764524 4.744771
C 4.741814 0.272382 4.747791
C 4.750003 0.730463 4.248588
C 4.979082 0.016932 4.010158
C 5.010635 0.504155 4.498937
C 5.510227 0.002635 4.516806
C 5.501772 0.504198 3.987748
C 5.242913 0.253684 4.258413
C 5.246057 0.737287 4.746526
C 5.748746 0.243110 4.759715
C 5.742923 0.766264 4.254648
C 0.018329 0.998226 3.987324
C 0.021442 1.497448 4.494911
C 0.506329 1.011961 4.507455
C 0.507451 1.489537 3.993924
C 0.261222 1.252265 4.251724
C 0.248973 1.734212 4.749848
C 0.751129 1.241580 4.755977
C 0.751864 1.760027 4.260848
C 0.982941 0.994800 4.009263
C 0.992104 1.476864 4.513733
C 1.509537 1.006838 4.485078
C 1.497519 1.499181 3.989432
C 1.246863 1.262759 4.265468
C 1.234778 1.750794 4.764625
C 1.762676 1.241695 4.737192
C 1.744802 1.770022 4.247469
C 2.014931 1.002893 4.004071
C 2.008749 1.485625 4.510079
C 2.508007 0.980811 4.508057
C 2.510154 1.507632 3.999374
C 2.260954 1.247765 4.255536
C 2.262271 1.735481 4.755281
C 2.750844 1.269277 4.757306
C 2.746870 1.749448 4.239310
C 2.989628 1.017752 3.995760
C 3.007372 1.494051 4.481854
C 3.496464 0.988879 4.498473
C 3.509387 1.495790 3.985704
C 3.236266 1.240646 4.262897
C 3.257811 1.765158 4.750478
C 3.745836 1.231337 4.760843
C 3.746781 1.734226 4.241994
C 3.987884 1.002059 4.000168
C 3.997141 1.486318 4.522526
C 4.508835 0.996138 4.513368
C 4.508060 1.508519 4.010684
C 4.253804 1.244949 4.263422
C 4.244520 1.743329 4.749514
C 4.745123 1.267299 4.736562
C 4.750294 1.743106 4.254867
C 4.994213 1.012216 4.002507
C 4.997473 1.501785 4.497120
C 5.490356 1.000802 4.496928
C 5.516688 1.506171 3.992468
C 5.248113 1.254401 4.251749
C 5.250514 1.761592 4.735447
C 5.743904 1.227369 4.749606
C 5.739651 1.745122 4.247999
C 0.005609 1.988719 3.978698
C 0.002524 2.496547 4.517068
C 0.491653 2.016062 4.483323
C 0.489601 2.497392 3.984621
C 0.237006 2.255578 4.265677
C 0.233661 2.754250 4.743760
C 0.743490 2.244795 4.729698
C 0.756573 2.754674 4.256701
C 0.989436 1.991978 4.004214
C 0.986675 2.508714 4.498164
C 1.502715 2.013911 4.509559
C 1.491204 2.508457 4.003841
C 1.242238 2.253534 4.266735
C 1.261296 2.765659 4.747878
C 1.771217 2.263236 4.756833
C 1.751239 2.737656 4.230987
C 1.997816 2.006922 3.997415
C 1.979878 2.493202 4.495328
C 2.500104 1.993455 4.516814
C 2.485763 2.499988 3.990010
C 2.254022 2.250600 4.236721
C 2.250429 2.727502 4.741467
C 2.746850 2.243436 4.743920
C 2.752963 2.734776 4.244687
C 2.997099 1.991006 3.990004
C 3.000012 2.495776 4.519124
C 3.492320 2.012523 4.500043
C 3.506612 2.481939 3.998245
C 3.250938 2.264685 4.253187
C 3.241766 2.777566 4.748720
C 3.764663 2.245665 4.740486
C 3.756711 2.766190 4.238351
C 3.993279 1.978238 4.003700
C 4.012820 2.506413 4.486341
C 4.491631 2.012005 4.483814
C 4.520203 2.499448 3.988779
C 4.247727 2.257877 4.263416
C 4.256344 2.732652 4.744172
C 4.734906 2.243469 4.758516
C 4.745378 2.753977 4.261863
C 4.996434 2.001158 3.980536
C 5.008018 2.489462 4.506338
C 5.500172 2.010175 4.517318
C 5.495075 2.490552 3.999503
C 5.258432 2.247798 4.256900
C 5.254488 2.740969 4.756720
C 5.748855 2.265938 4.769863
C 5.734596 2.726478 4.253306
C 0.008165 2.991801 4.010363
C 0.008312 3.497818 4.502359
C 0.491051 2.986829 4.511080
C 0.484711 3.522592 4.009183
C 0.247999 3.251481 4.234237
C 0.246465 3.745147 4.751579
C 0.754680 3.266199 4.755253
C 0.763702 3.743698 4.230989
C 1.005086 2.992313 3.998062
C 1.002565 3.501045 4.513696
C 1.491038 3.005174 4.502345
C 1.513526 3.503897 3.988773
C 1.248863 3.226688 4.246566
C 1.249183 3.734550 4.748164
C 1.736137 3.259988 4.740339
C 1.747208 3.760738 4.257845
C 2.015020 2.990941 4.016243
C 2.010556 3.498014 4.510974
C 2.497573 3.013594 4.511086
C 2.509362 3.518108 3.995442
C 2.241122 3.253778 4.228856
C 2.259017 3.757896 4.760044
C 2.749782 3.266270 4.764293
C 2.731667 3.742347 4.256311
C 3.006434 2.988446 4.006452
C 2.999544 3.479504 4.495288
C 3.497324 2.994622 4.508800
C 3.504504 3.515589 4.009967
C 3.252025 3.244228 4.249056
C 3.257130 3.759051 4.737480
C 3.765846 3.262952 4.750870
C 3.746961 3.766364 4.240546
C 4.008734 3.005604 3.998141
C 3.999042 3.512259 4.504794
C 4.509684 3.018364 4.483124
C 4.487689 3.496008 4.006672
C 4.240398 3.231593 4.249223
C 4.230889 3.753605 4.752497
C 4.773119 3.249905 4.746559
C 4.766136 3.755068 4.263709
C 5.009374 3.005146 4.012897
C 4.978195 3.479849 4.493134
C 5.513302 2.998518 4.484481
C 5.505494 3.487703 4.008684
C 5.253126 3.236349 4.261631
C 5.255556 3.748468 4.735918
C 5.749959 3.259401 4.757364
C 5.739464 3.733330 4.247893
C 0.001765 3.990650 4.012453
C 0.001735 4.503917 4.505307
C 0.497053 4.010883 4.497239
C 0.507833 4.497951 3.988126
C 0.231520 4.256213 4.266427
C 0.233848 4.744324 4.749136
C 0.758406 4.242176 4.761712
C 0.729723 4.754852 4.252925
C 0.997926 3.995482 4.013169
C 0.998055 4.515806 4.490857
C 1.506226 4.003952 4.491371
C 1.482832 4.493836 3.993788
C 1.256243 4.239458 4.235650
C 1.242375 4.740565 4.735223
C 1.760760 4.242803 4.737114
C 1.749057 4.751816 4.234038
C 1.997991 4.000943 4.009293
C 1.997727 4.508457 4.496141
C 2.495120 4.005076 4.498013
C 2.489156 4.499698 4.015824
C 2.246747 4.252725 4.248952
C 2.259437 4.756141 4.728111
C 2.761591 4.245402 4.765933
C 2.736701 4.752066 4.243161
C 3.003579 3.982682 4.005112
C 2.978384 4.496151 4.513934
C 3.498700 4.003412 4.507279
C 3.503280 4.500235 3.983680
C 3.256624 4.271218 4.247107
C 3.257479 4.762566 4.755948
C 3.750312 4.233693 4.763460
C 3.754095 4.758209 4.247057
C 4.012718 3.997495 3.991931
C 3.993746 4.499924 4.500444
C 4.494664 3.985503 4.485926
C 4.486332 4.507247 4.010792
C 4.243957 4.270025 4.255890
C 4.259605 4.731519 4.757225
C 4.754071 4.228003 4.757119
C 4.761105 4.742882 4.255875
C 5.007460 3.995134 3.986994
C 4.999134 4.476744 4.486587
C 5.501681 4.005076 4.510769
C 5.503616 4.519592 4.001935
C 5.253069 4.263945 4.261228
C 5.226153 4.744870 4.747003
C 5.746654 4.249548 4.734194
C 5.746481 4.741029 4.259277
C 0.008143 4.986797 4.014120
C 0.009377 5.512987 4.507643
C 0.477555 4.989568 4.516608
C 0.495553 5.515741 4.000250
C 0.251390 5.267166 4.251233
C 0.250684 5.745755 4.751463
C 0.750310 5.240499 4.745140
C 0.760958 5.741793 4.254127
C 1.002903 4.986236 4.007510
C 1.006264 5.498781 4.490358
C 1.505339 5.012871 4.495701
C 1.488243 5.509027 3.986623
C 1.249592 5.250869 4.256424
C 1.268985 5.742520 4.747704
C 1.756114 5.234449 4.749175
C 1.760414 5.746682 4.239115
C 1.982370 4.987409 3.987102
C 2.010736 5.519880 4.501699
C 2.483936 5.002344 4.489469
C 2.501600 5.482563 4.009206
C 2.248013 5.268951 4.265357
C 2.256615 5.737186 4.746307
C 2.754196 5.274467 4.750778
C 2.750242 5.749365 4.235810
C 2.996794 4.996353 4.016893
C 2.990026 5.494690 4.487476
C 3.503240 5.008872 4.515523
C 3.507199 5.510386 3.999149
C 3.240620 5.251188 4.255721
C 3.225399 5.745201 4.737005
C 3.756382 5.242960 4.745219
C 3.752990 5.744297 4.259835
C 3.988386 4.993374 4.000548
C 3.980583 5.492655 4.505548
C 4.477920 4.997248 4.504447
C 4.504561 5.504233 4.012002
C 4.257415 5.257742 4.239163
C 4.251134 5.746643 4.763936
C 4.749721 5.262670 4.768763
C 4.760557 5.735598 4.241347
C 4.989362 5.002758 3.998253
C 5.005950 5.503207 4.499405
C 5.494724 4.981559 4.505018
C 5.491331 5.499577 3.990236
C 5.251407 5.237857 4.256314
C 5.237095 5.736174 4.755213
C 5.742847 5.262630 4.761874
C 5.733282 5.736717 4.245322
C 0.002753 0.000641 4.972140
C 0.019292 0.500203 5.507041
C 0.523177 0.002460 5.488552
C 0.517870 0.498855 5.001498
C 0.251159 0.236342 5.264027
C 0.268564 0.748918 5.747164
C 0.734056 0.233198 5.748225
C 0.739451 0.753900 5.237702
C 1.005516 0.002660 5.006637
C 1.002097 0.501087 5.484523
C 1.510478 0.012270 5.520127
C 1.505931 0.509777 4.997737
C 1.248630 0.261106 5.270560
C 1.263593 0.749070 5.748219
C 1.743143 0.267761 5.746881
C 1.748523 0.739477 5.261770
C 2.016531 0.004684 5.011883
C 1.992964 0.513146 5.504391
C 2.483105 0.013890 5.515926
C 2.514393 0.490213 5.007284
C 2.262347 0.247936 5.245786
C 2.257682 0.755960 5.732538
C 2.733342 0.261153 5.746505
C 2.732866 0.755068 5.244189
C 2.993002 0.020345 5.000447
C 2.997588 0.494139 5.513714
C 3.503951 0.002020 5.504221
C 3.515600 0.502371 4.997606
C 3.243081 0.241754 5.236956
C 3.242222 0.735063 5.734438
C 3.741037 0.246083 5.747836
C 3.732704 0.749629 5.256030
C 4.017358 0.009973 4.997416
C 4.020756 0.495490 5.489194
C 4.512700 0.008801 5.510142
C 4.482214 0.495713 4.993413
C 4.250642 0.240353 5.259117
C 4.248819 0.751690 5.724880
C 4.763896 0.235027 5.746831
C 4.762898 0.755649 5.247806
C 5.014479 0.004281 4.996135
C 5.007982 0.486600 5.502186
C 5.513343 0.004724 5.503599
C 5.491325 0.502424 5.015618
C 5.249018 0.259174 5.257654
C 5.253316 0.755136 5.744839
C 5.736137 0.251194 5.741536
C 5.738653 0.751400 5.257247
C 0.025891 0.991369 5.008016
C 0.001621 1.494374 5.484918
C 0.504431 1.004691 5.486254
C 0.483644 1.489790 4.985973
C 0.236724 1.240858 5.254604
C 0.258979 1.735140 5.733424
C 0.732814 1.261690 5.747981
C 0.755880 1.742759 5.238020
C 1.011732 1.021199 5.001940
C 0.989576 1.497161 5.512953
C 1.495601 1.006843 5.522890
C 1.517038 1.499938 4.997890
C 1.246165 1.274677 5.252854
C 1.256995 1.762855 5.744542
C 1.752759 1.237020 5.732332
C 1.736470 1.745764 5.255988
C 2.006573 1.009060 4.995033
C 1.998627 1.495701 5.519493
C 2.496330 1.007097 5.484082
C 2.483118 1.502712 5.015904
C 2.244454 1.249340 5.237558
C 2.260971 1.734110 5.744489
C 2.758792 1.240778 5.736758
C 2.754347 1.754020 5.251905
C 3.016022 0.999859 5.001896
C 3.002579 1.483942 5.492483
C 3.503176 1.014462 5.483706
C 3.485614 1.484351 5.009306
C 3.237110 1.245407 5.242998
C 3.243837 1.732592 5.739573
C 3.769289 1.242606 5.744800
C 3.741977 1.744629 5.243917
C 4.007065 1.005355 4.988829
C 3.998565 1.498773 5.491588
C 4.519230 0.991264 5.494052
C 4.510321 1.487303 4.995047
C 4.244605 1.233489 5.237523
C 4.234496 1.754926 5.741068
C 4.759792 1.250793 5.733247
C 4.757884 1.760573 5.257144
C 4.984492 0.995327 4.995754
C 4.997046 1.500069 5.508281
C 5.510986 0.999736 5.493373
C 5.490966 1.493507 4.980948
C 5.229192 1.252430 5.257769
C 5.246023 1.738579 5.730669
C 5.737068 1.215699 5.744531
C 5.733182 1.761898 5.270570
C 0.003349 1.984487 5.012478
C 0.010656 2.505927 5.476831
C 0.485260 2.008942 5.490137
C 0.490267 2.507931 5.024991
C 0.251346 2.257483 5.264031
C 0.250061 2.735279 5.740109
C 0.738935 2.276484 5.747953
C 0.740809 2.745748 5.228219
C 1.006757 2.000409 5.003162
C 0.996717 2.502408 5.511787
C 1.499745 2.010627 5.515458
C 1.514068 2.497066 5.001290
C 1.236943 2.251318 5.235140
C 1.251012 2.733611 5.745337
C 1.751484 2.252435 5.728379
C 1.744885 2.734694 5.246523
C 1.999792 2.021641 5.002593
C 2.001126 2.479259 5.515053
C 2.510528 2.001623 5.478305
C 2.514062 2.488350 4.982814
C 2.263000 2.260481 5.237993
C 2.256722 2.743550 5.738477
C 2.744836 2.266679 5.748204
C 2.765814 2.763286 5.252604
C 2.989327 2.011970 5.009345
C 3.008108 2.509922 5.511239
C 3.495026 1.988907 5.504556
C 3.494109 2.502296 5.004112
C 3.255449 2.238184 5.256197
C 3.233315 2.760051 5.746898
C 3.753258 2.265001 5.741977
C 3.754880 2.755945 5.272832
C 3.996348 1.989975 4.985253
C 3.996545 2.502187 5.502390
C 4.482746 1.986749 5.501577
C 4.511037 2.497128 4.989738
C 4.254635 2.247961 5.258181
C 4.246161 2.733821 5.733002
C 4.760056 2.243472 5.734150
C 4.737237 2.753897 5.245681
C 5.009299 1.996407 4.985063
C 4.979816 2.497900 5.506260
C 5.497094 2.014686 5.488372
C 5.506208 2.508686 5.001971
C 5.248203 2.267264 5.250479
C 5.245935 2.754950 5.737646
C 5.732611 2.233842 5.741637
C 5.734590 2.739470 5.262762
C 0.013411 3.008363 5.003533
C 0.015975 3.493849 5.500912
C 0.504688 2.986575 5.494705
C 0.480969 3.497198 4.998235
C 0.255682 3.250805 5.239142
C 0.237588 3.740259 5.747315
C 0.735177 3.244741 5.737739
C 0.745263 3.750233 5.272380
C 0.983764 2.985744 4.993119
C 1.008213 3.483710 5.496774
C 1.494873 2.996476 5.485830
C 1.500487 3.514205 4.992624
C 1.254545 3.261301 5.237595
C 1.262478 3.741673 5.735542
C 1.755544 3.235128 5.737691
C 1.745766 3.754288 5.242062
C 2.001726 2.983705 4.991563
C 2.015490 3.497868 5.511036
C 2.497210 2.992147 5.508389
C 2.502268 3.506606 4.984860
C 2.263974 3.245557 5.246089
C 2.264140 3.751310 5.742061
C 2.745027 3.251651 5.739198
C 2.733744 3.743859 5.260193
C 3.000509 2.988341 5.001003
C 3.002960 3.503042 5.482161
C 3.496697 3.003962 5.482381
C 3.511802 3.494917 5.007578
C 3.259371 3.255404 5.265077
C 3.261695 3.730026 5.738857
C 3.734475 3.252275 5.738747
C 3.756174 3.741045 5.227836
C 4.004982 2.991388 4.999514
C 3.986204 3.500495 5.484416
C 4.490712 2.988478 5.508026
C 4.485282 3.498006 4.986692
C 4.239303 3.246714 5.265579
C 4.250427 3.734335 5.747752
C 4.761928 3.234416 5.727602
C 4.765011 3.741901 5.239036
C 4.986790 2.999233 5.003678
C 4.991617 3.488274 5.494202
C 5.517385 2.990158 5.511740
C 5.490156 3.503973 5.011123
C 5.241356 3.245970 5.244218
C 5.236929 3.746288 5.746718
C 5.749361 3.241759 5.727996
C 5.742925 3.768931 5.247429
C 0.000206 3.989088 4.993902
C 0.000850 4.489455 5.498534
C 0.505475 4.016966 5.491912
C 0.479342 4.505810 5.003486
C 0.248824 4.236212 5.235738
C 0.255607 4.752795 5.739328
C 0.734998 4.250658 5.748369
C 0.755986 4.762072 5.239626
C 0.985179 3.994163 5.018581
C 0.997152 4.497756 5.520438
C 1.494549 3.996353 5.506961
C 1.507810 4.494866 5.008552
C 1.244940 4.261237 5.251400
C 1.257174 4.749721 5.746314
C 1.726555 4.247936 5.743220
C 1.748476 4.740941 5.238171
C 1.987435 3.988448 5.001026
C 2.001422 4.488838 5.492596
C 2.482696 3.992717 5.491109
C 2.497764 4.486772 4.987009
C 2.266052 4.240915 5.241036
C 2.240188 4.748111 5.732473
C 2.778825 4.252663 5.749469
C 2.747520 4.750194 5.247541
C 3.007995 3.989296 5.004743
C 2.995021 4.506570 5.521968
C 3.485504 4.003567 5.504989
C 3.517567 4.503671 4.981193
C 3.242580 4.247261 5.266321
C 3.270622 4.753767 5.747884
C 3.757880 4.265224 5.744404
C 3.747292 4.729545 5.254464
C 3.989312 3.994166 5.014800
C 4.000423 4.484337 5.488245
C 4.477685 3.985650 5.494509
C 4.503855 4.489413 4.976496
C 4.240648 4.258493 5.243665
C 4.260237 4.772003 5.748157
C 4.739809 4.240439 5.742477
C 4.731926 4.751861 5.257919
C 5.016471 4.005153 5.014649
C 4.987877 4.514875 5.500792
C 5.512480 4.013483 5.491672
C 5.507058 4.511219 4.990863
C 5.237165 4.250882 5.263465
C 5.254069 4.764150 5.739878
C 5.735564 4.255548 5.747651
C 5.739269 4.759662 5.241193
C 0.001872 5.007063 4.980776
C 0.000446 5.514368 5.512446
C 0.497319 5.005002 5.495142
C 0.489444 5.493081 5.012415
C 0.234100 5.241884 5.242101
C 0.249049 5.747731 5.722876
C 0.743654 5.258877 5.731285
C 0.745686 5.745487 5.248048
C 0.989387 5.011914 4.997419
C 1.010358 5.504145 5.522978
C 1.498944 5.001966 5.488853
C 1.515740 5.510903 4.983272
C 1.266833 5.250319 5.233578
C 1.239022 5.747807 5.721699
C 1.768229 5.262849 5.749831
C 1.734824 5.747533 5.252894
C 2.018649 4.996110 4.985051
C 1.985970 5.502395 5.498917
C 2.507142 4.996637 5.483815
C 2.482319 5.493513 4.988747
C 2.250367 5.263878 5.240449
C 2.241999 5.742117 5.741312
C 2.751309 5.230636 5.738752
C 2.728852 5.741730 5.240350
C 3.003460 5.006461 4.994593
C 3.003233 5.475797 5.500751
C 3.493394 4.996976 5.504596
C 3.488258 5.508646 4.994489
C 3.250607 5.265838 5.253083
C 3.269128 5.749773 5.745490
C 3.746477 5.228781 5.743050
C 3.750393 5.742996 5.246764
C 4.002801 5.001796 4.979653
C 4.014047 5.509348 5.501017
C 4.503333 4.988024 5.505502
C 4.515645 5.497411 5.016265
C 4.247621 5.252611 5.251055
C 4.262238 5.745449 5.742249
C 4.767323 5.245708 5.740107
C 4.732513 5.746960 5.256302
C 5.010396 5.003118 5.012595
C 5.010796 5.493858 5.515021
C 5.525694 4.998761 5.504319
C 5.501393 5.499249 5.020501
C 5.240992 5.268295 5.251934
C 5.278073 5.739810 5.740020
C 5.735614 5.250326 5.743237
C 5.746881 5.732071 5.256746
1728
Frame 3/10
C 0.010070 0.012008 0.031936
C 0.024757 0.471812 0.488875
C 0.477487 0.000146 0.505073
C 0.516997 0.497485 0.046470
C 0.278494 0.250684 0.267045
C 0.214387 0.733063 0.745447
C 0.717958 0.260682 0.765904
C 0.744454 0.739998 0.274153
C 1.027697 0.007055 0.021202
C 1.001234 0.507832 0.481143
C 1.517207 0.002018 0.452905
C 1.513024 0.473549 0.018861
C 1.263408 0.256243 0.238595
C 1.271762 0.711719 0.766755
C 1.729559 0.220457 0.729279
C 1.720325 0.736183 0.237419
C 1.958893 0.004060 0.014721
C 1.968042 0.485637 0.484432
C 2.476880 0.012549 0.505878
C 2.527778 0.487410 0.014306
C 2.259802 0.235921 0.231914
C 2.247163 0.776874 0.772918
C 2.736872 0.226325 0.795242
C 2.748147 0.767142 0.223076
C 3.018990 0.007931 0.024673
C 3.004566 0.479759 0.498524
C 3.486730 0.007048 0.499768
C 3.513814 0.516185 0.014298
C 3.289851 0.262133 0.251077
C 3.281155 0.773406 0.764236
C 3.767456 0.224229 0.759015
C 3.769957 0.759060 0.233767
C 4.037077 0.046205 0.008437
C 4.036254 0.502987 0.492907
C 4.478652 0.005036 0.532368
C 4.498151 0.492775 0.001741
C 4.266286 0.295818 0.245797
C 4.295379 0.742074 0.750277
C 4.755375 0.261513 0.779165
C 4.745123 0.781474 0.240011
C 4.994818 0.037908 0.014914
C 4.969680 0.501912 0.502710
C 5.501397 0.049153 0.489620
C 5.458100 0.495122 0.039946
C 5.242256 0.226328 0.246602
C 5.246135 0.756124 0.763992
C 5.721035 0.260645 0.788111
C 5.731378 0.727654 0.233893
C 0.015857 0.976462 0.013108
C 0.031319 1.525602 0.491778
C 0.489712 1.000408 0.519623
C 0.522161 1.491763 0.028466
C 0.234484 1.268218 0.276900
C 0.288532 1.758017 0.762995
C 0.715375 1.231509 0.749725
C 0.751164 1.737803 0.260688
C 1.041848 0.968254 0.007531
C 0.993341 1.494113 0.459960
C 1.499795 0.980083 0.509963
C 1.486179 1.506463 0.001687
C 1.255071 1.260999 0.232137
C 1.217634 1.758885 0.738891
C 1.763146 1.243453 0.733501
C 1.744610 1.790240 0.273955
C 2.007960 0.992426 0.031688
C 1.960369 1.520137 0.508911
C 2.505211 1.009592 0.491117
C 2.516592 1.527349 0.000182
C 2.262969 1.269478 0.219194
C 2.283530 1.761149 0.729711
C 2.742651 1.222268 0.739004
C 2.742905 1.746751 0.252272
C 3.025806 1.019807 0.023090
C 2.979156 1.478328 0.515354
C 3.508794 1.001820 0.504623
C 3.504781 1.496908 0.019894
C 3.279898 1.246216 0.231023
C 3.274751 1.757753 0.768043
C 3.719275 1.215640 0.751860
C 3.710019 1.741682 0.266226
C 4.030246 1.003160 0.002011
C 3.958788 1.527316 0.509387
C 4.488646 1.013883 0.492618
C 4.497710 1.482801 0.022817
C 4.275431 1.272540 0.278171
C 4.257922 1.724996 0.771514
C 4.757710 1.235005 0.754877
C 4.735432 1.744968 0.246050
C 5.027879 0.979153 0.024345
C 4.992615 1.462037 0.511012
C 5.468779 0.961690 0.510919
C 5.494560 1.486698 0.030376
C 5.251872 1.235567 0.244555
C 5.255106 1.750416 0.750010
C 5.707484 1.218899 0.746049
C 5.738943 1.734394 0.221389
C 0.005708 1.960291 0.020063
C 0.017657 2.518619 0.499568
C 0.472042 2.003785 0.482026
C 0.526564 2.516454 0.027831
C 0.273126 2.283909 0.244709
C 0.254806 2.710427 0.752547
C 0.726698 2.259896 0.732554
C 0.725577 2.740667 0.277720
C 1.022379 2.028425 0.033535
C 1.002729 2.501339 0.502366
C 1.488937 1.989751 0.472844
C 1.536556 2.479424 0.010781
C 1.263828 2.261587 0.261809
C 1.238814 2.770669 0.790409
C 1.751088 2.286599 0.736335
C 1.745771 2.719083 0.273022
C 2.019751 2.010801 0.004724
C 1.991968 2.465837 0.491000
C 2.509687 1.978175 0.489362
C 2.493240 2.553781 0.038255
C 2.257188 2.282017 0.227605
C 2.281704 2.739555 0.757732
C 2.732812 2.226636 0.721701
C 2.755220 2.733644 0.229809
C 2.960232 2.010931 0.013249
C 3.018236 2.521281 0.517936
C 3.481714 1.972340 0.501508
C 3.499003 2.455072 0.021063
C 3.234841 2.214628 0.271436
C 3.252781 2.716578 0.772860
C 3.718569 2.215151 0.768293
C 3.767590 2.747746 0.250161
C 3.968373 2.019854 0.041395
C 3.995369 2.509538 0.481184
C 4.507831 2.038431 0.473947
C 4.472859 2.527264 0.003804
C 4.226899 2.254391 0.261718
C 4.279117 2.752333 0.741344
C 4.756610 2.253778 0.753520
C 4.760518 2.785581 0.238912
C 5.030188 2.012947 0.002963
C 5.006410 2.488259 0.493173
C 5.534924 2.010993 0.530956
C 5.535175 2.510015 0.013147
C 5.251507 2.230591 0.282856
C 5.211162 2.741145 0.740213
C 5.700971 2.255732 0.753461
C 5.714040 2.776291 0.244619
C 0.011423 3.005375 0.016397
C 0.038094 3.505768 0.527168
C 0.468314 3.004537 0.491502
C 0.479316 3.501111 0.012987
C 0.254653 3.285669 0.277981
C 0.282246 3.766082 0.711489
C 0.776507 3.281038 0.756310
C 0.739378 3.774458 0.251844
C 0.992055 2.998355 0.035488
C 1.013014 3.515577 0.487945
C 1.511608 3.022100 0.483570
C 1.496031 3.503419 0.023904
C 1.256958 3.238874 0.247552
C 1.248324 3.787975 0.771145
C 1.762909 3.248694 0.742176
C 1.750678 3.720919 0.237394
C 1.966453 2.978344 0.028395
C 2.019848 3.486843 0.524211
C 2.533187 3.002388 0.489358
C 2.519754 3.531494 0.009753
C 2.250003 3.263150 0.235541
C 2.221231 3.743326 0.741801
C 2.709077 3.231688 0.760110
C 2.784086 3.748156 0.271514
C 3.008293 2.952045 0.035630
C 3.031705 3.513833 0.494360
C 3.471177 3.014956 0.486014
C 3.536655 3.502749 0.011609
C 3.261804 3.262841 0.205819
C 3.212260 3.745596 0.743248
C 3.721064 3.250296 0.742107
C 3.749752 3.715576 0.272356
C 3.987280 3.004053 0.026469
C 4.011208 3.499506 0.456852
C 4.508532 2.999900 0.539772
C 4.489875 3.517186 0.010498
C 4.225020 3.216400 0.260675
C 4.243437 3.756834 0.789009
C 4.751617 3.266977 0.745046
C 4.742952 3.729603 0.233472
C 4.981277 3.031056 0.009162
C 4.969231 3.473077 0.495422
C 5.508395 3.027430 0.497291
C 5.491821 3.481919 0.026972
C 5.222844 3.269312 0.256353
C 5.256224 3.753260 0.751715
C 5.749384 3.196230 0.769237
C 5.727802 3.783680 0.239836
C 0.032216 3.960047 0.020238
C 0.006016 4.493579 0.470195
C 0.527788 4.018622 0.524366
C 0.485021 4.532506 0.006340
C 0.255254 4.279939 0.255844
C 0.236054 4.731468 0.788193
C 0.748766 4.248761 0.773439
C 0.716019 4.775751 0.245205
C 1.014571 4.016700 0.004920
C 0.989802 4.489764 0.513389
C 1.496348 3.998163 0.537510
C 1.464047 4.478712 0.001241
C 1.281526 4.231235 0.251479
C 1.238247 4.750253 0.726018
C 1.732836 4.239331 0.721962
C 1.737452 4.766928 0.230790
C 2.029870 3.998053 0.003207
C 1.986303 4.518458 0.530277
C 2.483515 3.969547 0.508593
C 2.472320 4.501595 0.027870
C 2.272552 4.238249 0.225694
C 2.254352 4.743837 0.746087
C 2.754491 4.262661 0.757341
C 2.742821 4.791155 0.250310
C 2.998032 4.011474 0.051492
C 3.027506 4.488185 0.518271
C 3.495882 4.008462 0.502627
C 3.502549 4.535019 0.032459
C 3.236160 4.245480 0.268893
C 3.237397 4.740859 0.760955
C 3.734336 4.281355 0.767248
C 3.790355 4.736384 0.247541
C 4.011827 4.043764 0.012128
C 4.000038 4.479832 0.506146
C 4.501049 4.034961 0.479971
C 4.518136 4.481860 0.052522
C 4.237010 4.253209 0.274883
C 4.257149 4.759387 0.769431
C 4.742869 4.249580 0.706324
C 4.740509 4.737924 0.236312
C 4.989228 3.991904 0.001648
C 4.992324 4.496556 0.535749
C 5.530977 3.998924 0.520199
C 5.494186 4.475402 0.019780
C 5.213829 4.242868 0.267241
C 5.246491 4.771140 0.746174
C 5.748640 4.232581 0.755589
C 5.737911 4.746753 0.227754
C 0.001682 4.974595 0.007140
C 0.026275 5.518586 0.469316
C 0.515811 4.998714 0.541644
C 0.543597 5.528942 0.002589
C 0.261929 5.214203 0.222606
C 0.261046 5.744055 0.777767
C 0.769302 5.262318 0.737921
C 0.764895 5.733600 0.289344
C 0.964938 4.994019 0.008702
C 0.988985 5.491923 0.500695
C 1.501678 4.989222 0.517659
C 1.504470 5.507040 0.042658
C 1.250794 5.257467 0.206227
C 1.204419 5.739855 0.726744
C 1.752098 5.247175 0.784747
C 1.739813 5.736882 0.290735
C 2.005970 4.985081 0.005151
C 2.004990 5.534415 0.509527
C 2.485511 4.980013 0.489095
C 2.498251 5.449537 0.023861
C 2.253195 5.214461 0.242153
C 2.278711 5.742413 0.701361
C 2.754642 5.246782 0.730284
C 2.729429 5.735827 0.265379
C 3.016137 4.955677 0.008685
C 3.027167 5.483856 0.507657
C 3.536254 5.011284 0.472668
C 3.482305 5.460351 0.020516
C 3.233551 5.281419 0.241350
C 3.278510 5.712107 0.767265
C 3.768795 5.286561 0.758451
C 3.738384 5.718593 0.277069
C 3.972064 5.007596 0.046727
C 3.997714 5.508992 0.471599
C 4.494525 4.956301 0.521401
C 4.505683 5.452996 0.001128
C 4.262543 5.258979 0.250464
C 4.237367 5.742678 0.772664
C 4.754786 5.248408 0.779007
C 4.723102 5.725136 0.210766
C 5.056486 4.993824 0.021256
C 4.995736 5.537427 0.499579
C 5.522544 4.978009 0.519184
C 5.514541 5.464658 0.026592
C 5.269819 5.244187 0.234124
C 5.248917 5.747401 0.789400
C 5.725567 5.263700 0.760890
C 5.720279 5.721463 0.246610
C 0.019828 0.042308 1.010895
C 0.011059 0.534003 1.456257
C 0.496631 0.018167 1.462259
C 0.523472 0.512557 0.994241
C 0.251199 0.243515 1.272166
C 0.240758 0.721173 1.748595
C 0.763861 0.276852 1.741144
C 0.763540 0.742351 1.205257
C 0.991639 0.010938 1.048528
C 1.014474 0.513518 1.502342
C 1.535060 0.024695 1.523084
C 1.520536 0.460649 0.991247
C 1.287644 0.262287 1.243882
C 1.245640 0.745048 1.734826
C 1.800823 0.252965 1.731717
C 1.736755 0.789804 1.260976
C 1.997330 0.021068 0.965734
C 2.029955 0.486286 1.462728
C 2.500320 0.026418 1.527960
C 2.509147 0.466020 0.973933
C 2.281003 0.265317 1.267341
C 2.262707 0.803626 1.743071
C 2.758700 0.215433 1.772306
C 2.713971 0.732289 1.230895
C 2.997056 0.000319 0.987018
C 3.029573 0.457803 1.499378
C 3.467629 0.020066 1.502095
C 3.519485 0.533814 0.982494
C 3.219565 0.218023 1.261192
C 3.255612 0.728220 1.719052
C 3.761678 0.251421 1.762849
C 3.731591 0.743408 1.270096
C 4.039088 0.022101 0.974530
C 3.978993 0.516324 1.494924
C 4.495919 0.040415 1.485670
C 4.506239 0.489698 0.973352
C 4.247386 0.236614 1.225942
C 4.280605 0.742268 1.740224
C 4.778899 0.268307 1.737003
C 4.744709 0.746557 1.248442
C 4.983404 0.018584 0.961350
C 4.976743 0.505963 1.453679
C 5.480624 0.027243 1.502693
C 5.483390 0.518070 0.975178
C 5.251721 0.261351 1.226970
C 5.273097 0.757443 1.722361
C 5.721457 0.234577 1.745045
C 5.721496 0.738382 1.252411
C 0.031760 0.958700 1.012171
C 0.003761 1.494508 1.478879
C 0.504345 0.988849 1.500279
C 0.520044 1.494374 0.964360
C 0.207810 1.247839 1.242984
C 0.277609 1.739222 1.730412
C 0.714529 1.249190 1.752395
C 0.761138 1.771018 1.245645
C 0.986353 0.995448 1.028204
C 0.979824 1.477340 1.529619
C 1.521904 1.035876 1.523206
C 1.479980 1.467279 0.968013
C 1.275612 1.258171 1.271902
C 1.264375 1.782139 1.759081
C 1.739163 1.257133 1.785878
C 1.733774 1.769992 1.213280
C 1.997872 1.030261 0.996581
C 2.021277 1.473532 1.476981
C 2.449324 1.001560 1.488734
C 2.480050 1.457042 0.988233
C 2.244463 1.275108 1.222930
C 2.294414 1.742948 1.735001
C 2.775983 1.248599 1.726387
C 2.714637 1.766467 1.227514
C 2.994992 0.979754 1.009187
C 2.984782 1.517868 1.512400
C 3.516222 0.994680 1.498511
C 3.495028 1.477575 1.028611
C 3.247213 1.243630 1.222369
C 3.280800 1.768899 1.739747
C 3.748073 1.269616 1.776824
C 3.742101 1.734782 1.237152
C 3.966141 0.990148 0.969315
C 4.000079 1.497716 1.516828
C 4.523059 1.027027 1.485976
C 4.480143 1.512088 1.014153
C 4.260564 1.255160 1.241459
C 4.210781 1.751250 1.732254
C 4.776161 1.228775 1.750065
C 4.745067 1.741264 1.216101
C 5.014040 1.013615 1.000772
C 4.979127 1.503422 1.472088
C 5.500667 0.995419 1.470656
C 5.508015 1.512712 1.025310
C 5.244946 1.238952 1.243838
C 5.215720 1.717279 1.732235
C 5.736341 1.269362 1.707016
C 5.729031 1.708076 1.282352
C 0.006516 2.017036 0.981857
C 0.005644 2.501953 1.518539
C 0.514070 2.014888 1.497015
C 0.545958 2.491415 1.015481
C 0.250187 2.229044 1.252526
C 0.238475 2.745889 1.778748
C 0.785900 2.266840 1.738524
C 0.787979 2.754174 1.255166
C 1.028233 2.002493 0.988555
C 0.984017 2.517183 1.495652
C 1.496369 2.022847 1.492417
C 1.523856 2.507385 1.008892
C 1.237776 2.294722 1.237664
C 1.249522 2.729658 1.737916
C 1.789055 2.251996 1.743058
C 1.723716 2.744423 1.281836
C 2.000732 1.994532 1.025225
C 2.012706 2.508538 1.475858
C 2.489853 1.968863 1.491446
C 2.453089 2.503044 1.013755
C 2.262416 2.242344 1.240957
C 2.243210 2.755352 1.721025
C 2.765723 2.275605 1.716498
C 2.736052 2.780329 1.257539
C 2.965419 1.993060 1.022435
C 3.036870 2.482457 1.522533
C 3.534129 1.968400 1.491003
C 3.480333 2.462646 0.984821
C 3.239975 2.211880 1.214826
C 3.217446 2.742829 1.773396
C 3.759351 2.292215 1.781109
C 3.767537 2.738545 1.276113
C 4.026856 2.002987 0.962108
C 3.989649 2.490880 1.475615
C 4.491248 1.970593 1.510208
C 4.508831 2.481378 0.958511
C 4.243341 2.276425 1.259967
C 4.286867 2.764644 1.777803
C 4.728008 2.232903 1.738597
C 4.728399 2.795881 1.259565
C 5.003233 1.990277 0.990902
C 4.972294 2.502850 1.480713
C 5.466612 1.992185 1.497271
C 5.532507 2.498299 1.005298
C 5.253579 2.226676 1.221872
C 5.245459 2.726597 1.775620
C 5.745577 2.228120 1.744849
C 5.743025 2.773365 1.230745
C 0.006278 2.984776 0.977911
C 0.020828 3.504577 1.497869
C 0.524191 3.011404 1.476891
C 0.524989 3.533503 1.028460
C 0.280424 3.246719 1.213631
C 0.254200 3.720138 1.745853
C 0.726935 3.279580 1.717760
C 0.770149 3.786951 1.256011
C 0.980555 3.027980 0.987715
C 1.019133 3.476790 1.483936
C 1.479470 2.977584 1.504337
C 1.522308 3.507510 1.029099
C 1.236778 3.238965 1.249094
C 1.232553 3.775408 1.726464
C 1.775134 3.209178 1.757096
C 1.763282 3.731803 1.242650
C 1.997801 3.038721 0.976284
C 2.011013 3.460881 1.527785
C 2.535678 2.989857 1.509147
C 2.510224 3.484743 1.022322
C 2.227496 3.280629 1.245557
C 2.223832 3.726485 1.730450
C 2.722428 3.246586 1.726828
C 2.755747 3.730744 1.254725
C 3.035519 2.968053 1.009400
C 2.998561 3.496744 1.525075
C 3.514902 3.020000 1.517132
C 3.492319 3.528608 0.984542
C 3.248194 3.246657 1.226919
C 3.247914 3.754610 1.766243
C 3.771899 3.279182 1.765485
C 3.752704 3.713903 1.234776
C 3.981387 3.019017 0.985525
C 3.979555 3.536494 1.476121
C 4.512475 3.031997 1.506629
C 4.530851 3.517294 0.994601
C 4.225819 3.222349 1.216706
C 4.236350 3.736182 1.707051
C 4.777126 3.240389 1.732074
C 4.748127 3.762243 1.246345
C 4.971755 3.005602 1.024254
C 4.981717 3.492807 1.535024
C 5.502347 3.039253 1.496029
C 5.469738 3.513570 1.017086
C 5.242852 3.265907 1.227807
C 5.267900 3.758655 1.778662
C 5.732641 3.238793 1.736153
C 5.716458 3.751927 1.248339
C 0.039862 3.984738 1.011228
C 0.001635 4.480323 1.551355
C 0.516713 3.968512 1.460301
C 0.513116 4.536095 0.999016
C 0.291543 4.236271 1.254911
C 0.230149 4.739899 1.765260
C 0.780096 4.230271 1.745395
C 0.761490 4.731008 1.218901
C 1.006049 4.005614 1.000883
C 1.028161 4.472926 1.508136
C 1.503130 3.985781 1.544485
C 1.490166 4.513645 1.019722
C 1.286690 4.249070 1.230636
C 1.266678 4.736490 1.747774
C 1.752054 4.234014 1.764009
C 1.788031 4.724395 1.264331
C 2.021345 4.026562 0.991358
C 2.032928 4.515178 1.484647
C 2.502682 4.026515 1.524301
C 2.525611 4.482240 1.001251
C 2.267548 4.235646 1.261646
C 2.250140 4.729807 1.741597
C 2.735288 4.248379 1.768322
C 2.763278 4.795242 1.261909
C 2.987701 4.023935 1.007174
C 2.977431 4.515180 1.531734
C 3.488058 4.021045 1.485101
C 3.496262 4.519501 0.973452
C 3.238636 4.251180 1.284561
C 3.225553 4.742979 1.714489
C 3.777560 4.256540 1.764812
C 3.730848 4.768303 1.237638
C 3.966057 3.960669 1.007318
C 3.991449 4.486459 1.479276
C 4.465652 4.018240 1.497750
C 4.494360 4.488573 1.021227
C 4.232816 4.250152 1.232911
C 4.275011 4.755110 1.764292
C 4.738988 4.214190 1.729326
C 4.727932 4.741614 1.260559
C 5.004034 4.033095 0.997412
C 5.037583 4.509291 1.500527
C 5.491912 3.983402 1.478061
C 5.516180 4.479800 1.003696
C 5.273324 4.281840 1.242907
C 5.253763 4.772277 1.777935
C 5.733578 4.264590 1.767145
C 5.740871 4.721535 1.269253
C 0.005317 4.974415 0.987873
C 0.041476 5.509322 1.536344
C 0.521222 4.961000 1.494439
C 0.489631 5.480138 1.003787
C 0.247020 5.221489 1.256074
C 0.282392 5.731466 1.757077
C 0.784633 5.266632 1.732997
C 0.764841 5.741375 1.254533
C 1.013402 5.026403 0.995021
C 0.971784 5.468988 1.462074
C 1.486808 4.981588 1.487168
C 1.500944 5.505242 0.971129
C 1.235310 5.270150 1.258088
C 1.219872 5.742314 1.704992
C 1.711026 5.240816 1.749601
C 1.727577 5.749803 1.203255
C 2.005917 4.970237 1.011900
C 1.980752 5.482505 1.490514
C 2.488532 4.990911 1.480004
C 2.506932 5.479518 0.998831
C 2.275599 5.248282 1.261497
C 2.244025 5.715868 1.753820
C 2.738133 5.256829 1.755541
C 2.734909 5.740433 1.267678
C 2.988665 4.979181 0.970504
C 3.034070 5.485302 1.513693
C 3.485331 4.995299 1.520987
C 3.535034 5.517651 1.008118
C 3.222416 5.263250 1.263685
C 3.270262 5.743223 1.791450
C 3.749955 5.247118 1.792880
C 3.749159 5.723935 1.270836
C 4.017030 4.989597 0.968217
C 4.038573 5.499801 1.506124
C 4.514483 5.042129 1.481682
C 4.541127 5.497408 0.994874
C 4.191563 5.235610 1.245135
C 4.259719 5.725485 1.750677
C 4.745548 5.251686 1.728367
C 4.744031 5.730360 1.266724
C 4.986416 4.973945 1.017546
C 4.996715 5.518184 1.470851
C 5.507844 4.974421 1.506012
C 5.498111 5.512581 0.946576
C 5.240414 5.238066 1.228160
C 5.219571 5.732210 1.755687
C 5.732002 5.232492 1.777933
C 5.718162 5.744560 1.200869
C 0.078837 0.001007 1.980516
C 0.003669 0.493214 2.493631
C 0.472442 0.031094 2.497173
C 0.479236 0.497253 1.972995
C 0.255172 0.218028 2.245600
C 0.246101 0.767167 2.765878
C 0.757094 0.272637 2.747414
C 0.737804 0.761560 2.278740
C 0.968928 0.039895 2.002052
C 1.034153 0.495681 2.489464
C 1.467367 0.000073 2.532447
C 1.517880 0.488680 1.970054
C 1.266744 0.229129 2.278055
C 1.245112 0.717470 2.754276
C 1.727583 0.248540 2.759135
C 1.751404 0.771813 2.215833
C 1.968282 0.004515 1.970313
C 1.984389 0.494872 2.487856
C 2.496545 0.016357 2.460017
C 2.474201 0.526159 2.007695
C 2.233616 0.266579 2.268902
C 2.274022 0.739808 2.777357
C 2.753777 0.242974 2.766091
C 2.760939 0.758912 2.250319
C 3.003174 0.001749 2.035865
C 2.961789 0.503036 2.477429
C 3.534272 0.000886 2.462776
C 3.507510 0.493709 2.000488
C 3.271613 0.262740 2.226575
C 3.277247 0.752302 2.743350
C 3.769726 0.249921 2.783682
C 3.753111 0.775521 2.222906
C 3.985107 0.024052 1.997385
C 3.976686 0.486740 2.515895
C 4.527381 0.007552 2.559888
C 4.522126 0.506540 2.034627
C 4.256283 0.248802 2.259726
C 4.259206 0.761669 2.723577
C 4.773633 0.250707 2.757873
C 4.798120 0.765565 2.247575
C 5.027554 0.006268 1.962929
C 4.962174 0.505039 2.513534
C 5.497835 0.008762 2.525975
C 5.513256 0.475788 1.979073
C 5.222737 0.240087 2.264276
C 5.234314 0.803887 2.731530
C 5.749307 0.242642 2.726203
C 5.737736 0.728738 2.232001
C 0.010025 1.014169 2.009636
C 0.002303 1.494277 2.505056
C 0.477291 0.991899 2.487120
C 0.535431 1.517847 1.994337
C 0.256441 1.239182 2.229219
C 0.222562 1.772734 2.754388
C 0.729259 1.250977 2.756351
C 0.737936 1.708336 2.246414
C 0.993153 0.980524 1.977631
C 0.961883 1.512598 2.521715
C 1.497797 1.040549 2.525689
C 1.492846 1.497763 2.011115
C 1.251137 1.254025 2.301337
C 1.228630 1.776302 2.768560
C 1.766309 1.248451 2.752788
C 1.744736 1.763943 2.269431
C 1.999383 0.991881 2.026578
C 1.978685 1.511117 2.517039
C 2.508454 1.020308 2.499508
C 2.486434 1.451354 1.998096
C 2.270298 1.269161 2.261752
C 2.265134 1.722642 2.716133
C 2.743384 1.288210 2.754997
C 2.763109 1.744020 2.277448
C 3.036922 0.980922 1.997139
C 2.999307 1.494827 2.491333
C 3.480377 0.995555 2.462166
C 3.510609 1.517530 2.000802
C 3.268860 1.259509 2.287779
C 3.239585 1.779188 2.710952
C 3.771475 1.242996 2.780402
C 3.733618 1.760459 2.233290
C 3.972531 0.979052 1.964582
C 4.003266 1.543835 2.509851
C 4.501284 1.035513 2.533573
C 4.531739 1.479294 2.000380
C 4.224642 1.267906 2.268404
C 4.241013 1.719523 2.755188
C 4.762222 1.250742 2.755794
C 4.749823 1.742446 2.226432
C 5.017072 1.004687 2.022628
C 4.995228 1.533910 2.498621
C 5.474291 1.001298 2.497783
C 5.487838 1.500474 2.010521
C 5.226653 1.261421 2.239849
C 5.289079 1.776364 2.755989
C 5.724394 1.219669 2.731740
C 5.710991 1.745539 2.268163
C 0.004732 2.006759 2.036383
C 0.005685 2.532788 2.471187
C 0.515769 1.968647 2.465857
C 0.489080 2.524935 1.989523
C 0.256039 2.274045 2.216242
C 0.249838 2.737557 2.709270
C 0.745938 2.274337 2.778047
C 0.722145 2.773405 2.229556
C 1.033148 2.034604 2.003037
C 1.002620 2.486398 2.459982
C 1.497972 1.990620 2.471793
C 1.507336 2.493803 1.993731
C 1.231742 2.204168 2.260954
C 1.230774 2.770929 2.795607
C 1.753568 2.242539 2.756321
C 1.745510 2.753071 2.270333
C 1.972988 1.973338 1.997040
C 2.020127 2.522449 2.501793
C 2.501740 1.957794 2.511769
C 2.499043 2.527734 1.973632
C 2.274912 2.260600 2.255643
C 2.269893 2.733827 2.741369
C 2.766434 2.275108 2.724326
C 2.748278 2.733866 2.220620
C 3.032823 2.029217 1.992639
C 2.992219 2.494648 2.454735
C 3.498066 2.011956 2.494473
C 3.505837 2.471981 1.973716
C 3.257993 2.262259 2.229461
C 3.273034 2.741174 2.766231
C 3.737184 2.284595 2.743193
C 3.736937 2.767457 2.274899
C 4.009739 2.006606 1.998081
C 4.022816 2.476676 2.459390
C 4.515511 2.017630 2.480587
C 4.519875 2.494291 2.017671
C 4.259337 2.209446 2.242477
C 4.258218 2.778395 2.760670
C 4.766998 2.227464 2.756318
C 4.723226 2.747503 2.260784
C 4.993664 1.987719 2.033399
C 4.986625 2.506068 2.467289
C 5.480445 1.990998 2.489160
C 5.509598 2.457891 1.978422
C 5.288154 2.258646 2.237073
C 5.218992 2.740920 2.750112
C 5.709371 2.248418 2.738956
C 5.726949 2.756775 2.265553
C 0.016841 2.986722 2.061477
C 0.027941 3.506312 2.462751
C 0.480388 2.988445 2.517138
C 0.488784 3.467725 2.028576
C 0.256738 3.233280 2.276880
C 0.254269 3.722546 2.784691
C 0.730279 3.289786 2.756002
C 0.738711 3.728968 2.249164
C 0.991977 2.993916 1.964090
C 1.032589 3.504289 2.464643
C 1.510710 3.015609 2.538055
C 1.507930 3.518609 2.026212
C 1.238090 3.219385 2.267103
C 1.229217 3.755695 2.781276
C 1.779468 3.262650 2.723125
C 1.712152 3.783075 2.256830
C 2.000385 2.962909 1.997046
C 1.980738 3.519746 2.518404
C 2.493109 3.014405 2.488317
C 2.489457 3.498211 1.961134
C 2.229310 3.255084 2.206810
C 2.282481 3.746851 2.748075
C 2.739560 3.228565 2.715038
C 2.760742 3.719904 2.222597
C 2.998448 3.009182 1.963410
C 2.996324 3.499524 2.526470
C 3.515220 2.983099 2.517116
C 3.465487 3.485873 2.000832
C 3.271810 3.268118 2.265662
C 3.232975 3.767104 2.700018
C 3.777407 3.272349 2.744768
C 3.756875 3.727093 2.220365
C 4.012212 3.019414 1.982443
C 4.003941 3.487348 2.473851
C 4.504793 2.969060 2.508538
C 4.473085 3.463951 2.001249
C 4.223676 3.239907 2.235249
C 4.241708 3.745908 2.742117
C 4.738659 3.273186 2.739500
C 4.754204 3.757096 2.224401
C 4.981587 3.011551 1.985634
C 4.975681 3.513780 2.529161
C 5.504547 3.034399 2.472172
C 5.489561 3.504847 2.017674
C 5.234651 3.219928 2.250548
C 5.286922 3.747333 2.738389
C 5.740367 3.216323 2.767451
C 5.728927 3.737391 2.223270
C 0.000233 4.020896 2.008798
C 0.007126 4.459332 2.484741
C 0.531819 3.984512 2.488875
C 0.527590 4.509752 1.977696
C 0.238703 4.214239 2.260505
C 0.238076 4.763858 2.727314
C 0.761375 4.254128 2.786423
C 0.764761 4.730034 2.268233
C 1.001029 3.978224 1.969534
C 1.012744 4.495169 2.464432
C 1.470366 4.033438 2.483511
C 1.492620 4.478227 2.023904
C 1.253745 4.238684 2.224842
C 1.254983 4.719722 2.743844
C 1.774936 4.233118 2.723577
C 1.750484 4.728235 2.261572
C 2.011487 3.986845 1.984137
C 2.003690 4.505005 2.493425
C 2.474925 3.980208 2.498529
C 2.477518 4.481396 2.029016
C 2.289745 4.256111 2.281897
C 2.249832 4.725435 2.764566
C 2.742267 4.225084 2.733366
C 2.756816 4.787499 2.285539
C 3.018321 3.993030 1.975468
C 2.985300 4.537103 2.517773
C 3.464211 4.007929 2.516500
C 3.519122 4.514150 2.041571
C 3.207663 4.267101 2.252701
C 3.287609 4.728427 2.740090
C 3.759085 4.241409 2.773474
C 3.725443 4.740301 2.286042
C 4.014864 3.981069 2.025325
C 3.989952 4.475580 2.507308
C 4.470834 3.984681 2.500333
C 4.530123 4.486646 1.996133
C 4.269192 4.264741 2.236064
C 4.242775 4.736287 2.759869
C 4.729944 4.272388 2.729594
C 4.714934 4.724608 2.241639
C 4.965969 4.016041 1.991955
C 4.989952 4.475679 2.528054
C 5.474064 3.997577 2.507111
C 5.481745 4.514643 1.978229
C 5.279947 4.262645 2.263976
C 5.271988 4.738173 2.767551
C 5.720057 4.266326 2.755827
C 5.743900 4.686641 2.226710
C 0.040725 4.981251 1.998071
C 0.002691 5.474436 2.476431
C 0.521057 4.965673 2.494246
C 0.504973 5.467782 2.005487
C 0.259018 5.248357 2.271626
C 0.271623 5.718735 2.769026
C 0.774330 5.250709 2.724408
C 0.720645 5.729998 2.263008
C 1.029076 5.004330 1.960553
C 1.009283 5.529747 2.518140
C 1.503661 4.975387 2.470201
C 1.520342 5.515454 2.027038
C 1.235183 5.228795 2.208777
C 1.279952 5.710802 2.757302
C 1.735683 5.277805 2.775488
C 1.778049 5.701104 2.237720
C 1.972713 5.008666 1.979317
C 1.993684 5.472809 2.481247
C 2.505565 5.023813 2.505464
C 2.480418 5.454433 1.982826
C 2.254676 5.261434 2.282889
C 2.200770 5.742690 2.747094
C 2.744983 5.289729 2.716610
C 2.752119 5.725983 2.285166
C 3.000295 5.022984 2.005428
C 3.043015 5.486824 2.488772
C 3.502134 4.986617 2.538102
C 3.498214 5.481150 1.971878
C 3.260235 5.227550 2.236508
C 3.228188 5.747403 2.782934
C 3.702963 5.251237 2.759465
C 3.783844 5.738033 2.230664
C 4.034721 4.997960 1.995106
C 3.981423 5.517301 2.481459
C 4.511506 4.987196 2.488363
C 4.490224 5.479954 2.028658
C 4.287974 5.233871 2.261469
C 4.251967 5.713013 2.778742
C 4.760744 5.221782 2.732183
C 4.701764 5.739702 2.244136
C 5.013107 4.992902 2.012720
C 5.031587 5.496352 2.500899
C 5.516051 4.988483 2.497204
C 5.474389 5.515723 2.011110
C 5.240480 5.260051 2.219602
C 5.251051 5.733460 2.733578
C 5.722494 5.212487 2.756447
C 5.714537 5.738568 2.238021
C 0.045135 0.009804 2.986833
C 0.000925 0.540432 3.509083
C 0.462332 0.047352 3.500744
C 0.513488 0.500468 2.996699
C 0.258933 0.287307 3.232465
C 0.279627 0.772669 3.767366
C 0.741450 0.213116 3.768959
C 0.737834 0.761412 3.256895
C 1.027695 0.013992 2.992846
C 0.970409 0.480915 3.507751
C 1.524380 0.013925 3.531523
C 1.510967 0.504061 2.975843
C 1.251454 0.251720 3.235201
C 1.242310 0.757085 3.754912
C 1.747226 0.261654 3.723787
C 1.751441 0.764886 3.241459
C 1.982634 0.009520 2.986757
C 2.003320 0.463762 3.499556
C 2.524797 0.018891 3.491421
C 2.490859 0.468094 2.968595
C 2.279076 0.247503 3.247477
C 2.273302 0.767421 3.747947
C 2.763967 0.230305 3.722805
C 2.743720 0.747357 3.278241
C 3.014364 0.005609 3.013529
C 2.982358 0.480876 3.495756
C 3.495182 0.021515 3.495234
C 3.491573 0.522518 3.040240
C 3.214555 0.242985 3.268067
C 3.244950 0.739547 3.729049
C 3.754687 0.224360 3.718382
C 3.746543 0.745637 3.292690
C 4.023807 0.001716 3.009876
C 4.040305 0.500940 3.488466
C 4.504401 0.000997 3.499575
C 4.493316 0.520342 3.013444
C 4.242961 0.251515 3.256237
C 4.224016 0.712218 3.762167
C 4.745674 0.246678 3.740937
C 4.707611 0.774008 3.231997
C 5.023953 0.036351 3.014341
C 5.013447 0.539695 3.507714
C 5.523674 0.027634 3.520700
C 5.473791 0.528948 3.000581
C 5.211782 0.231558 3.286315
C 5.252373 0.751152 3.754278
C 5.711871 0.285143 3.714133
C 5.711170 0.759233 3.246623
C 0.011274 1.039316 2.981641
C 0.020934 1.532005 3.486470
C 0.468939 0.997063 3.477560
C 0.497225 1.509001 2.994675
C 0.231761 1.252326 3.226220
C 0.226144 1.728547 3.752418
C 0.751727 1.230283 3.767654
C 0.761386 1.711462 3.256945
C 0.973186 1.009938 3.011741
C 0.972432 1.477626 3.509636
C 1.473976 1.026950 3.510019
C 1.511804 1.515324 2.981148
C 1.241424 1.283327 3.224074
C 1.223626 1.765256 3.733378
C 1.776985 1.280339 3.755328
C 1.733171 1.718776 3.275322
C 1.968758 1.000746 2.980185
C 1.993864 1.469840 3.487102
C 2.489237 0.968073 3.496445
C 2.536457 1.503429 3.017659
C 2.245329 1.278721 3.267577
C 2.265746 1.765728 3.752159
C 2.737328 1.210391 3.729577
C 2.749701 1.759379 3.225078
C 2.987550 0.967323 2.993869
C 2.957870 1.498531 3.498156
C 3.518584 0.999465 3.480499
C 3.483696 1.480108 3.014712
C 3.284251 1.238588 3.247435
C 3.245426 1.725392 3.764423
C 3.771328 1.272823 3.760757
C 3.731181 1.769070 3.220899
C 4.010171 0.970601 3.023142
C 4.010605 1.483155 3.493719
C 4.465119 1.000878 3.508172
C 4.497444 1.481559 3.026716
C 4.241976 1.203818 3.252495
C 4.287527 1.728058 3.742086
C 4.729301 1.237082 3.733569
C 4.770358 1.745192 3.223445
C 5.040282 0.990388 2.990691
C 5.018518 1.509517 3.516334
C 5.524856 1.013634 3.500084
C 5.522187 1.532224 2.981972
C 5.211318 1.256413 3.264532
C 5.223561 1.760004 3.729881
C 5.736496 1.271760 3.734615
C 5.740970 1.770490 3.208529
C 0.016628 2.023241 3.043760
C 0.024292 2.511507 3.484007
C 0.519126 2.007931 3.502179
C 0.483421 2.500054 2.971411
C 0.262768 2.232879 3.279247
C 0.256678 2.791050 3.745524
C 0.750234 2.239469 3.781519
C 0.740856 2.789192 3.274294
C 0.984627 1.964930 3.002976
C 0.997877 2.484275 3.487888
C 1.495497 1.962725 3.505678
C 1.458229 2.526091 2.982967
C 1.260661 2.253734 3.273130
C 1.271761 2.711881 3.742913
C 1.770694 2.245443 3.764811
C 1.780852 2.761167 3.250078
C 2.021724 2.014986 3.024454
C 2.025314 2.491191 3.523444
C 2.528901 1.976820 3.471232
C 2.520078 2.511912 3.038141
C 2.245260 2.260372 3.246480
C 2.226347 2.762199 3.774372
C 2.722796 2.248459 3.725789
C 2.782084 2.761824 3.237075
C 2.994273 1.983915 2.981170
C 3.021327 2.515130 3.510354
C 3.461347 2.001332 3.501814
C 3.501989 2.513838 3.000247
C 3.269869 2.241348 3.271309
C 3.229392 2.752891 3.758240
C 3.779422 2.251944 3.774606
C 3.727784 2.772003 3.247574
C 3.983309 1.968539 2.994196
C 4.006748 2.466391 3.529118
C 4.548461 1.980145 3.523537
C 4.521881 2.502474 3.038677
C 4.231424 2.225776 3.267288
C 4.249199 2.725359 3.777826
C 4.772316 2.281462 3.719929
C 4.774013 2.766569 3.276921
C 4.984406 1.992250 2.996272
C 5.002853 2.521898 3.461044
C 5.485075 2.028060 3.480311
C 5.501695 2.510562 2.987347
C 5.225619 2.241740 3.215814
C 5.267839 2.713398 3.729929
C 5.731448 2.256908 3.781527
C 5.699770 2.756038 3.263936
C 0.019861 2.985923 2.960843
C 0.009487 3.459217 3.485547
C 0.476311 3.000094 3.485736
C 0.486899 3.482627 3.003587
C 0.269005 3.241060 3.245357
C 0.217523 3.772125 3.764475
C 0.711111 3.248665 3.724462
C 0.756151 3.769249 3.277750
C 0.997463 3.017213 3.018168
C 1.009606 3.514014 3.479715
C 1.502244 2.981221 3.504731
C 1.538571 3.488099 2.985541
C 1.274968 3.254208 3.232708
C 1.234836 3.772372 3.711139
C 1.754691 3.227281 3.744929
C 1.740544 3.727165 3.261820
C 1.997092 2.995844 3.012494
C 2.021835 3.483357 3.478755
C 2.526247 3.014187 3.519980
C 2.471673 3.503214 2.983765
C 2.207639 3.259615 3.211538
C 2.283789 3.764842 3.753665
C 2.769961 3.273640 3.745225
C 2.753071 3.761864 3.244268
C 3.008368 2.992748 2.968998
C 2.973116 3.497846 3.501405
C 3.476388 3.007684 3.531433
C 3.536796 3.464473 3.008205
C 3.219164 3.253212 3.244834
C 3.268884 3.732340 3.759417
C 3.746202 3.227947 3.773375
C 3.724353 3.764020 3.239760
C 3.982589 3.006013 3.023580
C 4.030968 3.487055 3.499839
C 4.463288 2.972889 3.520308
C 4.489324 3.512792 3.022523
C 4.257903 3.231669 3.273328
C 4.281714 3.743519 3.734032
C 4.768646 3.278815 3.728706
C 4.765360 3.751383 3.258988
C 4.999836 3.036181 3.009756
C 4.985581 3.513975 3.489139
C 5.517497 3.011672 3.499706
C 5.499803 3.499724 2.982321
C 5.238812 3.269620 3.226265
C 5.236780 3.741406 3.766172
C 5.720580 3.277680 3.752341
C 5.720206 3.737087 3.245083
C 0.000796 4.013794 2.965496
C 0.001122 4.523687 3.519496
C 0.493081 3.989337 3.536355
C 0.477084 4.534835 3.020506
C 0.207001 4.215180 3.249951
C 0.214437 4.765978 3.754058
C 0.785300 4.255142 3.770434
C 0.784123 4.744572 3.245637
C 0.992155 3.996618 2.959392
C 0.989055 4.479179 3.525068
C 1.483938 3.995459 3.521871
C 1.490028 4.537928 2.988821
C 1.233253 4.227239 3.278032
C 1.241478 4.741360 3.780395
C 1.731384 4.211515 3.733936
C 1.720035 4.715538 3.269497
C 2.001428 4.015413 2.996794
C 1.974828 4.502952 3.473814
C 2.505033 3.998891 3.508323
C 2.479352 4.511105 3.030431
C 2.259231 4.256069 3.253088
C 2.282607 4.746807 3.745583
C 2.758907 4.248461 3.780141
C 2.747739 4.770189 3.246969
C 2.990374 4.015670 2.991183
C 3.020662 4.500885 3.491985
C 3.460306 3.993503 3.510541
C 3.518868 4.487702 2.970899
C 3.216923 4.254653 3.233638
C 3.254356 4.724744 3.728957
C 3.782872 4.256367 3.769401
C 3.736557 4.738278 3.261378
C 4.007190 3.977417 2.984940
C 3.975379 4.497160 3.495497
C 4.501947 3.999287 3.519924
C 4.481628 4.530979 2.993564
C 4.280202 4.253970 3.274646
C 4.253389 4.767214 3.758515
C 4.779912 4.229274 3.746645
C 4.756748 4.736342 3.222114
C 4.967454 3.987237 3.009261
C 5.032054 4.525467 3.478771
C 5.522408 3.977596 3.505384
C 5.492322 4.488652 2.991373
C 5.261632 4.259295 3.284298
C 5.252531 4.740268 3.757817
C 5.720285 4.213117 3.743038
C 5.727503 4.794675 3.247700
C 0.013010 4.976272 2.997858
C 0.010939 5.495571 3.490267
C 0.478196 4.960745 3.513867
C 0.518550 5.460542 3.004924
C 0.229645 5.260989 3.237332
C 0.254856 5.742454 3.766362
C 0.762555 5.278242 3.730680
C 0.733978 5.705480 3.250841
C 1.020194 5.006347 3.016824
C 1.026225 5.504871 3.487319
C 1.472837 5.019721 3.498972
C 1.539011 5.501913 3.037935
C 1.226056 5.277683 3.242422
C 1.251155 5.726254 3.723861
C 1.702857 5.271812 3.758050
C 1.791680 5.740895 3.219227
C 2.026761 5.020248 2.977359
C 1.979857 5.479302 3.502098
C 2.477540 4.994694 3.527339
C 2.471366 5.488306 2.966524
C 2.263035 5.269230 3.238737
C 2.253097 5.730446 3.770311
C 2.758140 5.281907 3.746277
C 2.707051 5.749398 3.234866
C 2.998028 4.993985 2.972692
C 2.990758 5.518939 3.475088
C 3.480796 4.989298 3.487435
C 3.478991 5.476234 2.996243
C 3.238082 5.273399 3.227692
C 3.225907 5.745683 3.791665
C 3.724386 5.274767 3.740937
C 3.785474 5.717127 3.268145
C 3.959205 5.015845 3.004507
C 3.997567 5.504007 3.523306
C 4.504543 5.010562 3.466261
C 4.523171 5.532244 2.987499
C 4.251958 5.265694 3.225562
C 4.246711 5.736579 3.743909
C 4.749193 5.237260 3.762939
C 4.750942 5.719292 3.255760
C 4.992584 5.031446 2.978625
C 5.006274 5.548372 3.485285
C 5.487495 4.996489 3.534912
C 5.532890 5.469697 2.981363
C 5.282718 5.289450 3.262642
C 5.261516 5.741785 3.760358
C 5.724520 5.280547 3.746923
C 5.730347 5.711395 3.251649
C 0.034415 0.007600 3.976091
C 0.014905 0.533868 4.516578
C 0.485960 0.026106 4.513862
C 0.503531 0.499681 4.019176
C 0.288923 0.229727 4.255500
C 0.244391 0.788898 4.758624
C 0.729336 0.240952 4.771297
C 0.721417 0.767829 4.233900
C 1.021478 0.016338 4.010661
C 1.000969 0.512308 4.526595
C 1.497490 0.024333 4.537501
C 1.494491 0.508295 3.987575
C 1.271294 0.241385 4.235661
C 1.247875 0.745380 4.735366
C 1.740534 0.272140 4.754773
C 1.781411 0.737675 4.247897
C 2.019169 0.006169 3.996492
C 2.006205 0.503497 4.534716
C 2.494705 0.011343 4.519153
C 2.503335 0.503107 4.038131
C 2.261389 0.235669 4.250348
C 2.212488 0.740299 4.771353
C 2.770592 0.279668 4.769059
C 2.726190 0.764666 4.250868
C 3.008182 0.025142 4.002352
C 3.004164 0.504135 4.494277
C 3.489505 0.017985 4.525588
C 3.480566 0.509053 4.012446
C 3.267023 0.228109 4.262650
C 3.245664 0.757044 4.711302
C 3.756993 0.234348 4.759489
C 3.742194 0.758213 4.273378
C 3.975034 0.045677 4.003149
C 3.970462 0.511042 4.517965
C 4.518274 0.004091 4.508028
C 4.494995 0.498095 3.972743
C 4.208481 0.239752 4.241022
C 4.270598 0.779048 4.739542
C 4.733628 0.294765 4.745582
C 4.750006 0.710925 4.247177
C 4.958164 0.033864 4.020316
C 5.021271 0.508309 4.497874
C 5.520454 0.005270 4.533612
C 5.503543 0.508397 3.975496
C 5.235826 0.257369 4.266826
C 5.242115 0.724573 4.743051
C 5.747493 0.236219 4.769431
C 5.735846 0.782528 4.259297
C 0.036659 0.996453 3.974647
C 0.042884 1.494897 4.489821
C 0.512659 1.023921 4.514911
C 0.514903 1.479074 3.987849
C 0.272445 1.254530 4.253447
C 0.247945 1.718424 4.749695
C 0.752257 1.233159 4.761955
C 0.753728 1.770053 4.271695
C 0.965882 0.989599 4.018526
C 0.984208 1.453728 4.527467
C 1.519074 1.013676 4.470155
C 1.495038 1.498363 3.978864
C 1.243726 1.275518 4.280935
C 1.219556 1.751589 4.779251
C 1.775352 1.233391 4.724384
C 1.739604 1.790045 4.244938
C 2.029861 1.005785 4.008141
C 2.017498 1.471249 4.520157
C 2.516013 0.961623 4.516113
C 2.520309 1.515264 3.998747
C 2.271908 1.245530 4.261072
C 2.274543 1.720962 4.760562
C 2.751688 1.288553 4.764612
C 2.743740 1.748896 4.228620
C 2.979256 1.035504 3.991521
C 3.014745 1.488103 4.463707
C 3.492929 0.977758 4.496945
C 3.518774 1.491579 3.971408
C 3.222532 1.231292 4.275794
C 3.265622 1.780315 4.750956
C 3.741672 1.212675 4.771687
C 3.743563 1.718453 4.233988
C 3.975767 1.004117 4.000336
C 3.994282 1.472637 4.545053
C 4.517669 0.992276 4.526736
C 4.516120 1.517039 4.021369
C 4.257608 1.239898 4.276843
C 4.239040 1.736658 4.749027
C 4.740245 1.284599 4.723124
C 4.750587 1.736213 4.259733
C 4.988427 1.024433 4.005013
C 4.994945 1.503570 4.494241
C 5.480712 1.001603 4.493856
C 5.533375 1.512341 3.984936
C 5.246227 1.258802 4.253498
C 5.251028 1.773184 4.720895
C 5.737808 1.204738 4.749211
C 5.729303 1.740244 4.245998
C 0.011218 1.977437 3.957395
C 0.005048 2.493094 4.534137
C 0.483306 2.032124 4.466646
C 0.479201 2.494785 3.969242
C 0.224011 2.261157 4.281355
C 0.217321 2.758501 4.737520
C 0.736981 2.239591 4.709395
C 0.763146 2.759349 4.263401
C 0.978873 1.983956 4.008428
C 0.973350 2.517428 4.496327
C 1.505429 2.027822 4.519117
C 1.482407 2.516914 4.007683
C 1.234475 2.257067 4.283471
C 1.272592 2.781317 4.745756
C 1.792434 2.276472 4.763665
C 1.752477 2.725312 4.211975
C 1.995631 2.013845 3.994831
C 1.959757 2.486404 4.490657
C 2.500207 1.986909 4.533628
C 2.471527 2.499976 3.980020
C 2.258044 2.251200 4.223442
C 2.250857 2.705005 4.732935
C 2.743701 2.236872 4.737839
C 2.755926 2.719553 4.239374
C 2.994198 1.982013 3.980007
C 3.000025 2.491553 4.538248
C 3.484639 2.025046 4.500087
C 3.513225 2.463878 3.996491
C 3.251877 2.279370 4.256373
C 3.233532 2.805131 4.747440
C 3.779326 2.241330 4.730972
C 3.763421 2.782379 4.226701
C 3.986559 1.956475 4.007401
C 4.025640 2.512827 4.472683
C 4.483262 2.024010 4.467627
C 4.540405 2.498897 3.977559
C 4.245454 2.265753 4.276832
C 4.262687 2.715304 4.738344
C 4.719813 2.236938 4.767032
C 4.740757 2.757954 4.273726
C 4.992869 2.002317 3.961072
C 5.016036 2.478924 4.512677
C 5.500344 2.020349 4.534636
C 5.490150 2.481103 3.999006
C 5.266865 2.245596 4.263800
C 5.258975 2.731938 4.763440
C 5.747711 2.281876 4.789726
C 5.719191 2.702957 4.256611
C 0.016330 2.983601 4.020727
C 0.016624 3.495635 4.504719
C 0.482102 2.973658 4.522159
C 0.469422 3.545184 4.018366
C 0.245999 3.252961 4.218474
C 0.242930 3.740293 4.753157
C 0.759360 3.282397 4.760505
C 0.777403 3.737397 4.211977
C 1.010171 2.984625 3.996124
C 1.005130 3.502091 4.527392
C 1.482076 3.010349 4.504691
C 1.527053 3.507794 3.977546
C 1.247727 3.203376 4.243132
C 1.248367 3.719099 4.746327
C 1.722275 3.269976 4.730679
C 1.744415 3.771475 4.265690
C 2.030040 2.981881 4.032486
C 2.021111 3.496027 4.521948
C 2.495146 3.027188 4.522173
C 2.518724 3.536216 3.990884
C 2.232243 3.257556 4.207712
C 2.268034 3.765791 4.770087
C 2.749564 3.282541 4.778586
C 2.713334 3.734695 4.262622
C 3.012869 2.976893 4.012905
C 2.999087 3.459007 4.490576
C 3.494648 2.989244 4.517599
C 3.509007 3.531178 4.019934
C 3.254050 3.238456 4.248113
C 3.264261 3.768102 4.724961
C 3.781692 3.275903 4.751739
C 3.743921 3.782729 4.231092
C 4.017467 3.011208 3.996282
C 3.998084 3.524519 4.509589
C 4.519368 3.036728 4.466249
C 4.475378 3.492016 4.013344
C 4.230795 3.213186 4.248447
C 4.211779 3.757211 4.754993
C 4.796239 3.249811 4.743118
C 4.782272 3.760137 4.277419
C 5.018748 3.010292 4.025794
C 4.956390 3.459698 4.486269
C 5.526604 2.997036 4.468962
C 5.510987 3.475407 4.017368
C 5.256252 3.222698 4.273263
C 5.261113 3.746936 4.721837
C 5.749918 3.268801 4.764728
C 5.728929 3.716660 4.245786
C 0.003530 3.981301 4.024906
C 0.003469 4.507834 4.510615
C 0.494106 4.021766 4.494479
C 0.515666 4.495903 3.976252
C 0.213040 4.262427 4.282854
C 0.217697 4.738648 4.748272
C 0.766811 4.234351 4.773425
C 0.709446 4.759703 4.255850
C 0.995852 3.990964 4.026338
C 0.996111 4.531612 4.481714
C 1.512452 4.007903 4.482742
C 1.465664 4.487672 3.987576
C 1.262485 4.228915 4.221301
C 1.234750 4.731129 4.720446
C 1.771520 4.235606 4.724228
C 1.748114 4.753633 4.218077
C 1.995982 4.001887 4.018585
C 1.995454 4.516913 4.492283
C 2.490240 4.010152 4.496027
C 2.478311 4.499397 4.031647
C 2.243495 4.255449 4.247903
C 2.268874 4.762281 4.706222
C 2.773183 4.240804 4.781865
C 2.723402 4.754131 4.236321
C 3.007158 3.965364 4.010224
C 2.956769 4.492303 4.527868
C 3.497400 4.006824 4.514557
C 3.506559 4.500470 3.967359
C 3.263248 4.292436 4.244214
C 3.264959 4.775131 4.761895
C 3.750625 4.217386 4.776920
C 3.758190 4.766418 4.244113
C 4.025435 3.994990 3.983861
C 3.987491 4.499848 4.500888
C 4.489329 3.971006 4.471853
C 4.472664 4.514495 4.021584
C 4.237913 4.290050 4.261780
C 4.269211 4.713037 4.764450
C 4.758141 4.206006 4.764239
C 4.772210 4.735764 4.261750
C 5.014920 3.990268 3.973988
C 4.998269 4.453489 4.473174
C 5.503361 4.010152 4.521538
C 5.507232 4.539185 4.003869
C 5.256137 4.277891 4.272456
C 5.202307 4.739740 4.744006
C 5.743308 4.249095 4.718387
C 5.742963 4.732059 4.268553
C 0.016285 4.973594 4.028241
C 0.018754 5.525974 4.515286
C 0.455111 4.979137 4.533216
C 0.491107 5.531483 4.000500
C 0.252780 5.284332 4.252467
C 0.251367 5.741510 4.752926
C 0.750621 5.230998 4.740280
C 0.771915 5.733586 4.258253
C 1.005805 4.972473 4.015019
C 1.012528 5.497563 4.480716
C 1.510677 5.025743 4.491401
C 1.476486 5.518055 3.973245
C 1.249184 5.251738 4.262848
C 1.287971 5.735040 4.745408
C 1.762228 5.218898 4.748349
C 1.770828 5.743364 4.228229
C 1.964740 4.974818 3.974205
C 2.021471 5.539759 4.503399
C 2.467872 5.004687 4.478938
C 2.503201 5.465125 4.018411
C 2.246026 5.287902 4.280714
C 2.263229 5.724373 4.742614
C 2.758392 5.298935 4.751555
C 2.750485 5.748731 4.221619
C 2.993588 4.992706 4.033786
C 2.980052 5.489381 4.474952
C 3.506480 5.017743 4.531047
C 3.514398 5.520772 3.998298
C 3.231241 5.252376 4.261443
C 3.200798 5.740402 4.724011
C 3.762765 5.235921 4.740438
C 3.755981 5.738594 4.269669
C 3.976772 4.986748 4.001096
C 3.961166 5.485310 4.511097
C 4.455841 4.994495 4.508894
C 4.509122 5.508465 4.024004
C 4.264830 5.265485 4.228325
C 4.252269 5.743287 4.777873
C 4.749441 5.275340 4.787526
C 4.771113 5.721196 4.232695
C 4.978724 5.005516 3.996506
C 5.011901 5.506414 4.498809
C 5.489448 4.963118 4.510035
C 5.482662 5.499153 3.980473
C 5.252814 5.225715 4.262628
C 5.224190 5.722347 4.760425
C 5.735693 5.275261 4.773748
C 5.716565 5.723435 4.240643
C 0.005506 0.001282 4.944280
C 0.038584 0.500407 5.514083
C 0.546355 0.004920 5.477103
C 0.535739 0.497709 5.002997
C 0.252318 0.222684 5.278054
C 0.287128 0.747836 5.744328
C 0.718112 0.216395 5.746451
C 0.728901 0.757801 5.225404
C 1.011032 0.005319 5.013275
C 1.004194 0.502174 5.469045
C 1.520955 0.024539 5.540253
C 1.511862 0.519554 4.995475
C 1.247261 0.272213 5.291120
C 1.277186 0.748139 5.746438
C 1.736285 0.285521 5.743762
C 1.747046 0.728953 5.273541
C 2.033062 0.009368 5.023765
C 1.985928 0.526292 5.508782
C 2.466209 0.027780 5.531852
C 2.528786 0.480426 5.014569
C 2.274694 0.245872 5.241572
C 2.265364 0.761920 5.715076
C 2.716684 0.272307 5.743009
C 2.715733 0.760135 5.238377
C 2.986004 0.040690 5.000894
C 2.995175 0.488278 5.527429
C 3.507901 0.004040 5.508442
C 3.531200 0.504742 4.995212
C 3.236163 0.233507 5.223912
C 3.234443 0.720127 5.718876
C 3.732074 0.242165 5.745671
C 3.715407 0.749259 5.262060
C 4.034715 0.019946 4.994831
C 4.041511 0.490980 5.478388
C 4.525400 0.017602 5.520283
C 4.464427 0.491427 4.986826
C 4.251285 0.230706 5.268233
C 4.247638 0.753380 5.699759
C 4.777791 0.220053 5.743662
C 4.775797 0.761297 5.245612
C 5.028959 0.008561 4.992270
C 5.015964 0.473200 5.504371
C 5.526686 0.009448 5.507199
C 5.482650 0.504849 5.031237
C 5.248037 0.268347 5.265308
C 5.256632 0.760273 5.739677
C 5.722273 0.252387 5.733072
C 5.727306 0.752800 5.264494
C 0.051782 0.982738 5.016033
C 0.003242 1.488747 5.469836
C 0.508861 1.009381 5.472508
C 0.467289 1.479580 4.971946
C 0.223449 1.231716 5.259208
C 0.267958 1.720281 5.716848
C 0.715629 1.273380 5.745962
C 0.761761 1.735518 5.226041
C 1.023465 1.042398 5.003880
C 0.979152 1.494323 5.525906
C 1.491202 1.013687 5.545781
C 1.534077 1.499875 4.995780
C 1.242330 1.299355 5.255708
C 1.263989 1.775710 5.739083
C 1.755518 1.224039 5.714664
C 1.722939 1.741529 5.261976
C 2.013146 1.018121 4.990066
C 1.997254 1.491403 5.538986
C 2.492661 1.014195 5.468164
C 2.466235 1.505425 5.031808
C 2.238907 1.248679 5.225115
C 2.271942 1.718220 5.738977
C 2.767585 1.231556 5.723515
C 2.758694 1.758040 5.253810
C 3.032043 0.999718 5.003793
C 3.005159 1.467883 5.484965
C 3.506353 1.028924 5.467412
C 3.471228 1.468702 5.018611
C 3.224221 1.240814 5.235996
C 3.237673 1.715185 5.729146
C 3.788578 1.235211 5.739601
C 3.733954 1.739258 5.237834
C 4.014131 1.010711 4.977659
C 3.997130 1.497547 5.483175
C 4.538461 0.982528 5.488105
C 4.520643 1.474606 4.990093
C 4.239209 1.216977 5.225045
C 4.218991 1.759853 5.732135
C 4.769584 1.251585 5.716495
C 4.765768 1.771145 5.264287
C 4.968984 0.990655 4.991507
C 4.994092 1.500138 5.516562
C 5.521972 0.999471 5.486746
C 5.481932 1.487014 4.961896
C 5.208383 1.254861 5.265539
C 5.242046 1.727157 5.711339
C 5.724137 1.181398 5.739062
C 5.716363 1.773797 5.291140
C 0.006698 1.968974 5.024957
C 0.021312 2.511855 5.453661
C 0.470520 2.017884 5.480273
C 0.480534 2.515862 5.049983
C 0.252692 2.264967 5.278063
C 0.250121 2.720557 5.730218
C 0.727870 2.302967 5.745906
C 0.731618 2.741496 5.206438
C 1.013514 2.000819 5.006324
C 0.993434 2.504815 5.523573
C 1.499490 2.021254 5.530916
C 1.528136 2.494133 5.002580
C 1.223886 2.252636 5.220280
C 1.252023 2.717221 5.740673
C 1.752967 2.254869 5.706757
C 1.739771 2.719387 5.243046
C 1.999584 2.043282 5.005187
C 2.002252 2.458518 5.530106
C 2.521055 2.003246 5.456610
C 2.528125 2.476700 4.965628
C 2.275999 2.270963 5.225986
C 2.263444 2.737099 5.726953
C 2.739673 2.283358 5.746408
C 2.781628 2.776572 5.255208
C 2.978655 2.023940 5.018691
C 3.016216 2.519843 5.522479
C 3.490053 1.977813 5.509112
C 3.488218 2.504592 5.008224
C 3.260898 2.226367 5.262393
C 3.216630 2.770103 5.743797
C 3.756516 2.280002 5.733954
C 3.759760 2.761891 5.295665
C 3.992695 1.979949 4.970507
C 3.993090 2.504374 5.504780
C 4.465491 1.973499 5.503154
C 4.522073 2.494256 4.979475
C 4.259270 2.245921 5.266362
C 4.242322 2.717641 5.716004
C 4.770112 2.236944 5.718301
C 4.724474 2.757794 5.241363
C 5.018599 1.992814 4.970125
C 4.959632 2.495800 5.512519
C 5.494189 2.029371 5.476744
C 5.512415 2.517372 5.003941
C 5.246406 2.284527 5.250958
C 5.241870 2.759900 5.725292
C 5.715222 2.217684 5.733273
C 5.719180 2.728940 5.275523
C 0.026821 3.016725 5.007065
C 0.031950 3.487698 5.501824
C 0.509376 2.973150 5.489410
C 0.461937 3.494395 4.996470
C 0.261364 3.251610 5.228285
C 0.225176 3.730518 5.744631
C 0.720354 3.239481 5.725478
C 0.740527 3.750466 5.294761
C 0.967528 2.971487 4.986238
C 1.016425 3.467420 5.493548
C 1.489747 2.992952 5.471659
C 1.500973 3.528410 4.985249
C 1.259091 3.272602 5.225190
C 1.274955 3.733345 5.721083
C 1.761088 3.220257 5.725381
C 1.741532 3.758576 5.234125
C 2.003452 2.967411 4.983126
C 2.030980 3.495736 5.522073
C 2.494419 2.984294 5.516779
C 2.504536 3.513211 4.969720
C 2.277948 3.241114 5.242177
C 2.278279 3.752620 5.734122
C 2.740055 3.253302 5.728395
C 2.717489 3.737717 5.270387
C 3.001018 2.976683 5.002005
C 3.005919 3.506084 5.464322
C 3.493394 3.007924 5.464762
C 3.523604 3.489833 5.015156
C 3.268741 3.260807 5.280155
C 3.273390 3.710052 5.727715
C 3.718950 3.254551 5.727493
C 3.762348 3.732091 5.205673
C 4.009964 2.982776 4.999028
C 3.972408 3.500989 5.468833
C 4.481424 2.976955 5.516053
C 4.470565 3.496013 4.973383
C 4.228605 3.243427 5.281158
C 4.250853 3.718670 5.745505
C 4.773857 3.218832 5.705203
C 4.780023 3.733802 5.228073
C 4.973580 2.998467 5.007356
C 4.983235 3.476548 5.488404
C 5.534769 2.980316 5.523481
C 5.480312 3.507946 5.022245
C 5.232712 3.241940 5.238437
C 5.223858 3.742575 5.743436
C 5.748722 3.233518 5.705992
C 5.735851 3.787863 5.244857
C 0.000412 3.978175 4.987804
C 0.001700 4.478910 5.497067
C 0.510950 4.033933 5.483823
C 0.458685 4.511620 5.006972
C 0.247647 4.222424 5.221475
C 0.261214 4.755590 5.728657
C 0.719996 4.251315 5.746737
C 0.761973 4.774145 5.229253
C 0.970359 3.988326 5.037162
C 0.994303 4.495513 5.540877
C 1.489097 3.992707 5.513921
C 1.515620 4.489732 5.017104
C 1.239880 4.272475 5.252800
C 1.264348 4.749441 5.742628
C 1.703111 4.245872 5.736440
C 1.746953 4.731882 5.226341
C 1.974869 3.976896 5.002052
C 2.002844 4.477676 5.485192
C 2.465393 3.985434 5.482217
C 2.495528 4.473544 4.974018
C 2.282104 4.231830 5.232071
C 2.230376 4.746222 5.714945
C 2.807649 4.255325 5.748938
C 2.745041 4.750388 5.245082
C 3.015990 3.978593 5.009485
C 2.990042 4.513140 5.543937
C 3.471009 4.007133 5.509979
C 3.535133 4.507343 4.962385
C 3.235159 4.244522 5.282641
C 3.291243 4.757534 5.745768
C 3.765760 4.280448 5.738808
C 3.744584 4.709090 5.258929
C 3.978625 3.988332 5.029600
C 4.000845 4.468674 5.476491
C 4.455370 3.971301 5.489019
C 4.507710 4.478825 4.952991
C 4.231295 4.266986 5.237330
C 4.270474 4.794006 5.746314
C 4.729619 4.230879 5.734954
C 4.713851 4.753722 5.265838
C 5.032943 4.010305 5.029297
C 4.975753 4.529750 5.501584
C 5.524960 4.026965 5.483343
C 5.514116 4.522438 4.981727
C 5.224331 4.251763 5.276931
C 5.258139 4.778301 5.729757
C 5.721127 4.261096 5.745302
C 5.728537 4.769323 5.232385
C 0.003744 5.014126 4.961552
C 0.000891 5.528736 5.524892
C 0.494638 5.010005 5.490285
C 0.478888 5.486163 5.024831
C 0.218201 5.233767 5.234202
C 0.248099 5.745462 5.695751
C 0.737307 5.267753 5.712570
C 0.741372 5.740974 5.246096
C 0.978774 5.023827 4.994838
C 1.020717 5.508290 5.545956
C 1.497889 5.003933 5.477706
C 1.531479 5.521806 4.966544
C 1.283666 5.250638 5.217156
C 1.228043 5.745614 5.693397
C 1.786459 5.275699 5.749661
C 1.719647 5.745066 5.255788
C 2.037298 4.992219 4.970102
C 1.971940 5.504791 5.497833
C 2.514284 4.993274 5.467630
C 2.464639 5.487025 4.977494
C 2.250734 5.277756 5.230898
C 2.233998 5.734234 5.732625
C 2.752618 5.211272 5.727503
C 2.707705 5.733461 5.230701
C 3.006920 5.012921 4.989186
C 3.006466 5.451594 5.501502
C 3.486788 4.993953 5.509192
C 3.476516 5.517293 4.988978
C 3.251214 5.281676 5.256166
C 3.288256 5.749546 5.740981
C 3.742955 5.207561 5.736100
C 3.750786 5.735991 5.243528
C 4.005602 5.003591 4.959305
C 4.028093 5.518695 5.502034
C 4.506666 4.976047 5.511004
C 4.531290 5.494821 5.032530
C 4.245242 5.255222 5.252111
C 4.274476 5.740898 5.734499
C 4.784645 5.241416 5.730213
C 4.715026 5.743920 5.262604
C 5.020793 5.006237 5.025191
C 5.021591 5.487716 5.530041
C 5.551389 4.997522 5.508639
C 5.502785 5.498498 5.041002
C 5.231984 5.286590 5.253868
C 5.306147 5.729620 5.730041
C 5.721229 5.250652 5.736475
C 5.743762 5.714141 5.263491
1728
Frame 4/10
C 0.015104 0.018012 0.047904
C 0.037135 0.457717 0.483312
C 0.466231 0.000218 0.507609
C 0.525495 0.496228 0.069705
C 0.292741 0.251026 0.275567
C 0.196581 0.724595 0.743170
C 0.701937 0.266024 0.773855
C 0.741680 0.734997 0.286230
C 1.041545 0.010583 0.031802
C 1.001851 0.511749 0.471714
C 1.525811 0.003027 0.429357
C 1.519536 0.460323 0.028292
C 1.270112 0.259364 0.232893
C 1.282644 0.692578 0.775133
C 1.719338 0.205686 0.718918
C 1.705488 0.729275 0.231128
C 1.938339 0.006090 0.022082
C 1.952064 0.478455 0.476648
C 2.465319 0.018823 0.508818
C 2.541667 0.481115 0.021458
C 2.264703 0.228881 0.222871
C 2.245744 0.790310 0.784378
C 2.730308 0.214487 0.817862
C 2.747221 0.775712 0.209614
C 3.028484 0.011896 0.037010
C 3.006850 0.469639 0.497787
C 3.480095 0.010573 0.499652
C 3.520721 0.524277 0.021447
C 3.309776 0.268200 0.251615
C 3.296733 0.785109 0.771354
C 3.776183 0.211343 0.763522
C 3.779936 0.763590 0.225650
C 4.055616 0.069307 0.012655
C 4.054380 0.504480 0.489360
C 4.467978 0.007554 0.548552
C 4.497226 0.489162 0.002611
C 4.274429 0.318727 0.243695
C 4.318068 0.738110 0.750415
C 4.758062 0.267270 0.793747
C 4.742685 0.797210 0.235017
C 4.992227 0.056862 0.022371
C 4.954521 0.502868 0.504065
C 5.502095 0.073729 0.484430
C 5.437150 0.492683 0.059919
C 5.238385 0.214492 0.244903
C 5.244203 0.759186 0.770988
C 5.706553 0.265967 0.807167
C 5.722067 0.716481 0.225840
C 0.023786 0.964692 0.019662
C 0.046979 1.538403 0.487667
C 0.484569 1.000612 0.529434
C 0.533241 1.487645 0.042699
C 0.226725 1.277327 0.290349
C 0.307797 1.762026 0.769492
C 0.698063 1.222264 0.749587
C 0.751746 1.731705 0.266033
C 1.062772 0.952381 0.011297
C 0.990012 1.491170 0.439939
C 1.499692 0.970124 0.514945
C 1.479268 1.509695 0.002530
C 1.257606 1.266498 0.223206
C 1.201450 1.763327 0.733337
C 1.769719 1.240179 0.725252
C 1.741915 1.810360 0.285933
C 2.011940 0.988638 0.047533
C 1.940554 1.530206 0.513367
C 2.507817 1.014388 0.486675
C 2.524887 1.541024 0.000273
C 2.269454 1.279216 0.203792
C 2.300296 1.766723 0.719566
C 2.738976 1.208403 0.733506
C 2.739357 1.745127 0.253408
C 3.038709 1.029711 0.034635
C 2.968734 1.467492 0.523030
C 3.513192 1.002730 0.506935
C 3.507171 1.495362 0.029841
C 3.294846 1.244324 0.221534
C 3.287126 1.761630 0.777064
C 3.703912 1.198460 0.752791
C 3.690029 1.737523 0.274339
C 4.045369 1.004741 0.003017
C 3.938182 1.540974 0.514080
C 4.482969 1.020824 0.488927
C 4.496564 1.474202 0.034226
C 4.288146 1.283809 0.292257
C 4.261883 1.712494 0.782271
C 4.761565 1.227508 0.757316
C 4.728149 1.742451 0.244076
C 5.041818 0.968730 0.036518
C 4.988922 1.443056 0.516518
C 5.453168 0.942535 0.516379
C 5.491840 1.480047 0.045564
C 5.252808 1.228351 0.241832
C 5.257658 1.750624 0.750015
C 5.686226 1.203348 0.744074
C 5.733415 1.726590 0.207084
C 0.008562 1.940437 0.030095
C 0.026486 2.527929 0.499352
C 0.458063 2.005677 0.473039
C 0.539845 2.524682 0.041746
C 0.284688 2.300863 0.242064
C 0.257209 2.690640 0.753820
C 0.715047 2.264845 0.723831
C 0.713365 2.736001 0.291580
C 1.033569 2.042638 0.050303
C 1.004094 2.502008 0.503549
C 1.483406 1.984626 0.459266
C 1.554834 2.469136 0.016172
C 1.270742 2.267380 0.267713
C 1.233221 2.781004 0.810614
C 1.751631 2.304898 0.729502
C 1.743656 2.703625 0.284533
C 2.029626 2.016201 0.007087
C 1.987952 2.448755 0.486500
C 2.514530 1.967263 0.484043
C 2.489861 2.580672 0.057382
C 2.260783 2.298025 0.216407
C 2.297556 2.734332 0.761598
C 2.724218 2.214953 0.707552
C 2.757831 2.725466 0.219714
C 2.940348 2.016397 0.019874
C 3.027353 2.531921 0.526905
C 3.472571 1.958511 0.502262
C 3.498504 2.432609 0.031594
C 3.227261 2.196942 0.282154
C 3.254172 2.699866 0.784290
C 3.702854 2.197727 0.777439
C 3.776385 2.746619 0.250242
C 3.952560 2.029782 0.062093
C 3.993054 2.514308 0.471775
C 4.511746 2.057647 0.460920
C 4.459288 2.540895 0.005707
C 4.215348 2.256587 0.267577
C 4.293676 2.753500 0.737016
C 4.759915 2.255666 0.755280
C 4.765778 2.803372 0.233368
C 5.045282 2.019421 0.004445
C 5.009614 2.482388 0.489759
C 5.552385 2.016489 0.546434
C 5.552763 2.515023 0.019720
C 5.252261 2.220886 0.299283
C 5.191743 2.736717 0.735320
C 5.676456 2.258597 0.755191
C 5.696060 2.789436 0.241929
C 0.017134 3.008062 0.024596
C 0.057141 3.508652 0.540752
C 0.452470 3.006806 0.487253
C 0.468973 3.501667 0.019481
C 0.256979 3.303503 0.291971
C 0.298369 3.774123 0.692233
C 0.789761 3.296557 0.759465
C 0.734068 3.786688 0.252765
C 0.988082 2.997532 0.053232
C 1.019521 3.523365 0.481918
C 1.517412 3.033150 0.475355
C 1.494046 3.505128 0.035856
C 1.260437 3.233312 0.246327
C 1.247486 3.806963 0.781717
C 1.769363 3.248041 0.738265
C 1.751017 3.706378 0.231091
C 1.949680 2.967516 0.042593
C 2.029773 3.480264 0.536317
C 2.549780 3.003582 0.484037
C 2.529630 3.547241 0.014629
C 2.250004 3.269725 0.228312
C 2.206847 3.739990 0.737701
C 2.688616 3.222532 0.765165
C 2.801129 3.747234 0.282271
C 3.012439 2.928067 0.053445
C 3.047557 3.520749 0.491540
C 3.456766 3.022434 0.479020
C 3.554983 3.504124 0.017414
C 3.267706 3.269262 0.183729
C 3.193390 3.743394 0.739872
C 3.706596 3.250444 0.738161
C 3.749628 3.698364 0.283535
C 3.980920 3.006079 0.039704
C 4.016811 3.499259 0.435279
C 4.512798 2.999850 0.559658
C 4.484812 3.525779 0.015747
C 4.212531 3.199600 0.266013
C 4.240155 3.760251 0.808513
C 4.752425 3.275466 0.742568
C 4.739428 3.719404 0.225208
C 4.971915 3.046584 0.013742
C 4.953846 3.459616 0.493133
C 5.512592 3.041145 0.495937
C 5.487732 3.472878 0.040458
C 5.209266 3.278969 0.259529
C 5.259336 3.754889 0.752572
C 5.749076 3.169344 0.778855
C 5.716704 3.800520 0.234754
C 0.048324 3.940071 0.030357
C 0.009023 4.490369 0.455292
C 0.541682 4.027933 0.536548
C 0.477532 4.548759 0.009510
C 0.257881 4.294909 0.258765
C 0.229082 4.722203 0.807290
C 0.748149 4.248142 0.785158
C 0.699028 4.788626 0.242808
C 1.021857 4.025050 0.007379
C 0.984704 4.484646 0.520084
C 1.494522 3.997244 0.556265
C 1.446070 4.468068 0.001862
C 1.297290 4.221852 0.252218
C 1.232370 4.750380 0.714027
C 1.724254 4.233996 0.707943
C 1.731178 4.775393 0.221185
C 2.044805 3.997080 0.004810
C 1.979455 4.527687 0.545415
C 2.475273 3.954320 0.512889
C 2.458480 4.502392 0.041805
C 2.283827 4.232373 0.213541
C 2.256528 4.740755 0.744130
C 2.756737 4.268991 0.761011
C 2.739232 4.811732 0.250465
C 2.997049 4.017211 0.077238
C 3.041259 4.482278 0.527407
C 3.493822 4.012693 0.503941
C 3.503824 4.552528 0.048689
C 3.229240 4.243220 0.278339
C 3.231095 4.736289 0.766433
C 3.726503 4.297032 0.775871
C 3.810532 4.729576 0.246312
C 4.017741 4.065646 0.018192
C 4.000057 4.469749 0.509219
C 4.501574 4.052441 0.469956
C 4.527204 4.472790 0.078782
C 4.230515 4.254814 0.287325
C 4.260724 4.764081 0.779146
C 4.739304 4.249370 0.684485
C 4.735763 4.731885 0.229467
C 4.983842 3.987856 0.002472
C 4.988486 4.494833 0.553623
C 5.546466 3.998386 0.530298
C 5.491278 4.463103 0.029671
C 5.195743 4.239302 0.275862
C 5.244736 4.781710 0.744260
C 5.747960 4.223872 0.758383
C 5.731867 4.745130 0.216631
C 0.002523 4.961892 0.010709
C 0.039413 5.527879 0.453974
C 0.523717 4.998072 0.562466
C 0.565396 5.543413 0.003884
C 0.267894 5.196305 0.208909
C 0.266568 5.741082 0.791651
C 0.778953 5.268478 0.731882
C 0.772342 5.725400 0.309015
C 0.947407 4.991029 0.013053
C 0.983477 5.487885 0.501042
C 1.502518 4.983833 0.526489
C 1.506706 5.510560 0.063987
C 1.251191 5.261201 0.184341
C 1.181628 5.734783 0.715116
C 1.753146 5.245763 0.802120
C 1.734720 5.730322 0.311103
C 2.008955 4.977622 0.007726
C 2.007485 5.551622 0.514290
C 2.478266 4.970020 0.483643
C 2.497376 5.424306 0.035792
C 2.254793 5.196691 0.238230
C 2.293066 5.738619 0.677041
C 2.756963 5.245174 0.720426
C 2.719144 5.728741 0.273068
C 3.024205 4.933516 0.013027
C 3.040751 5.475784 0.511485
C 3.554380 5.016926 0.459003
C 3.473457 5.440527 0.030774
C 3.225327 5.297128 0.237024
C 3.292766 5.693161 0.775898
C 3.778193 5.304842 0.762677
C 3.732577 5.702890 0.290603
C 3.958096 5.011393 0.070090
C 3.996571 5.513488 0.457399
C 4.491788 4.934451 0.532102
C 4.508525 5.429494 0.001692
C 4.268815 5.263469 0.250696
C 4.231050 5.739017 0.783996
C 4.757179 5.247612 0.793510
C 4.709653 5.712705 0.191148
C 5.084730 4.990736 0.031883
C 4.993604 5.556141 0.499369
C 5.533816 4.967013 0.528777
C 5.521812 5.446987 0.039888
C 5.279728 5.241280 0.226186
C 5.248376 5.746102 0.809099
C 5.713351 5.270550 0.766335
C 5.705418 5.707194 0.244915
C 0.029742 0.063461 1.016343
C 0.016589 0.551004 1.434385
C 0.494947 0.027251 1.443389
C 0.535208 0.518836 0.991361
C 0.251799 0.240273 1.283249
C 0.236137 0.706759 1.747892
C 0.770791 0.290279 1.736716
C 0.770310 0.738527 1.182886
C 0.987458 0.016408 1.072792
C 1.021711 0.520277 1.503513
C 1.552590 0.037042 1.534626
C 1.530804 0.440974 0.986871
C 1.306467 0.268431 1.240823
C 1.243460 0.742572 1.727239
C 1.826234 0.254447 1.722576
C 1.730132 0.809706 1.266464
C 1.995994 0.031603 0.948602
C 2.044932 0.479429 1.444092
C 2.500480 0.039627 1.541940
C 2.513720 0.449031 0.960900
C 2.296505 0.272976 1.276011
C 2.269060 0.830439 1.739607
C 2.763049 0.198150 1.783459
C 2.695956 0.723434 1.221343
C 2.995584 0.000478 0.980528
C 3.044360 0.436704 1.499067
C 3.451443 0.030099 1.503142
C 3.529227 0.550721 0.973742
C 3.204347 0.202034 1.266788
C 3.258417 0.717330 1.703578
C 3.767518 0.252132 1.769274
C 3.722387 0.740112 1.280145
C 4.058631 0.033151 0.961794
C 3.968489 0.524486 1.492386
C 4.493879 0.060622 1.478504
C 4.509359 0.484547 0.960028
C 4.246079 0.229921 1.213913
C 4.295907 0.738402 1.735336
C 4.793349 0.277460 1.730505
C 4.742063 0.744836 1.247663
C 4.975106 0.027876 0.942025
C 4.965115 0.508944 1.430519
C 5.470936 0.040864 1.504040
C 5.475085 0.527105 0.962768
C 5.252581 0.267026 1.215456
C 5.284646 0.761164 1.708542
C 5.707186 0.226865 1.742567
C 5.707244 0.732573 1.253617
C 0.047639 0.938051 1.018256
C 0.005642 1.491762 1.468319
C 0.506518 0.983274 1.500419
C 0.530065 1.491562 0.946541
C 0.186714 1.246758 1.239476
C 0.291414 1.733833 1.720618
C 0.696793 1.248786 1.753592
C 0.766707 1.781526 1.243467
C 0.979530 0.993172 1.042306
C 0.969736 1.466010 1.544429
C 1.532856 1.053814 1.534810
C 1.469970 1.450918 0.952019
C 1.288418 1.262256 1.282854
C 1.271563 1.798208 1.763622
C 1.733744 1.260700 1.803817
C 1.725660 1.779988 1.194920
C 1.996808 1.045391 0.994872
C 2.031915 1.460297 1.465472
C 2.423986 1.002340 1.483101
C 2.470076 1.435564 0.982349
C 2.241694 1.287661 1.209396
C 2.316620 1.739422 1.727502
C 2.788974 1.247898 1.714580
C 2.696955 1.774701 1.216271
C 2.992489 0.969630 1.013781
C 2.977173 1.526801 1.518600
C 3.524333 0.992020 1.497767
C 3.492542 1.466363 1.042916
C 3.245819 1.240445 1.208553
C 3.296200 1.778349 1.734620
C 3.747110 1.279424 1.790237
C 3.738152 1.727173 1.230728
C 3.949212 0.985222 0.953972
C 4.000118 1.496574 1.525242
C 4.534588 1.040541 1.478965
C 4.470214 1.518132 1.021230
C 4.265846 1.257740 1.237189
C 4.191171 1.751874 1.723381
C 4.789241 1.218163 1.750098
C 4.742601 1.736896 1.199151
C 5.021060 1.020422 1.001158
C 4.968690 1.505133 1.458131
C 5.501001 0.993128 1.455984
C 5.512022 1.519069 1.037965
C 5.242420 1.233427 1.240757
C 5.198580 1.700918 1.723352
C 5.729511 1.279043 1.685524
C 5.718546 1.687114 1.298528
C 0.009774 2.025554 0.972786
C 0.008467 2.502930 1.527809
C 0.521105 2.022331 1.495523
C 0.568938 2.487122 1.023221
C 0.250280 2.218567 1.253789
C 0.232713 2.743834 1.793122
C 0.803850 2.275260 1.732786
C 0.806968 2.756261 1.257749
C 1.042349 2.003740 0.982833
C 0.976025 2.525774 1.493478
C 1.494553 2.034271 1.488625
C 1.535783 2.511078 1.013337
C 1.231664 2.317083 1.231497
C 1.249283 2.719488 1.731873
C 1.808583 2.252994 1.739587
C 1.710574 2.741634 1.297755
C 2.001098 1.991797 1.037837
C 2.019059 2.512807 1.463787
C 2.484780 1.953295 1.487169
C 2.429634 2.504566 1.020632
C 2.268624 2.238516 1.236436
C 2.239815 2.758028 1.706538
C 2.773585 2.288407 1.699747
C 2.729078 2.795493 1.261308
C 2.948129 1.989590 1.033653
C 3.055305 2.473685 1.533800
C 3.551194 1.952600 1.486504
C 3.470499 2.443969 0.977231
C 3.234962 2.192821 1.197239
C 3.201169 2.739243 1.785093
C 3.764027 2.313322 1.796664
C 3.776305 2.732818 1.289169
C 4.040283 2.004481 0.943162
C 3.984474 2.486320 1.463422
C 4.486871 1.955889 1.515311
C 4.513246 2.472067 0.937767
C 4.240012 2.289637 1.264951
C 4.305300 2.771966 1.791704
C 4.717013 2.224355 1.732896
C 4.717599 2.818821 1.264348
C 5.004850 1.985416 0.986353
C 4.958442 2.504275 1.471069
C 5.449917 1.988277 1.495906
C 5.548760 2.497449 1.007947
C 5.255368 2.215014 1.207808
C 5.243188 2.714895 1.788430
C 5.743366 2.217180 1.742273
C 5.739537 2.785048 1.221118
C 0.009418 2.977164 0.966866
C 0.031242 3.506866 1.496804
C 0.536287 3.017106 1.465337
C 0.537484 3.550254 1.042691
C 0.295636 3.245078 1.195446
C 0.256300 3.705206 1.743779
C 0.715403 3.294370 1.701640
C 0.780223 3.805427 1.259016
C 0.970833 3.041970 0.981572
C 1.028700 3.465185 1.475903
C 1.469205 2.966375 1.506505
C 1.533463 3.511265 1.043648
C 1.230167 3.233447 1.248642
C 1.223830 3.788112 1.714697
C 1.787701 3.188768 1.760644
C 1.769923 3.722705 1.238974
C 1.996701 3.058081 0.964427
C 2.016520 3.441322 1.541677
C 2.553518 2.984785 1.513720
C 2.515336 3.477115 1.033484
C 2.216243 3.295943 1.243336
C 2.210748 3.714727 1.720674
C 2.708642 3.244879 1.715242
C 2.758620 3.721115 1.257087
C 3.053279 2.952080 1.014100
C 2.997841 3.495116 1.537612
C 3.522354 3.029999 1.525698
C 3.488479 3.542912 0.976813
C 3.247291 3.244986 1.215378
C 3.246871 3.756915 1.774365
C 3.782848 3.293773 1.773228
C 3.754057 3.695855 1.227164
C 3.972080 3.028525 0.978288
C 3.969332 3.554741 1.464182
C 4.518713 3.047996 1.509943
C 4.546277 3.525941 0.991901
C 4.213728 3.208524 1.200059
C 4.229525 3.729273 1.685577
C 4.790689 3.235584 1.723110
C 4.747191 3.768365 1.244517
C 4.957632 3.008404 1.036381
C 4.972575 3.489211 1.552536
C 5.503520 3.058879 1.494043
C 5.454607 3.520354 1.025629
C 5.239278 3.273860 1.216711
C 5.276850 3.762983 1.792993
C 5.723962 3.233189 1.729230
C 5.699687 3.752891 1.247508
C 0.059794 3.977107 1.016842
C 0.002453 4.470485 1.577032
C 0.525070 3.952769 1.440452
C 0.519674 4.554143 0.998524
C 0.312315 4.229407 1.257366
C 0.220224 4.734848 1.772890
C 0.795144 4.220406 1.743093
C 0.767235 4.721512 1.203352
C 1.009074 4.008421 1.001324
C 1.042242 4.459389 1.512204
C 1.504694 3.978672 1.566727
C 1.485249 4.520467 1.029583
C 1.305035 4.248605 1.220953
C 1.275018 4.729734 1.746661
C 1.753081 4.226021 1.771014
C 1.807047 4.711593 1.271497
C 2.032017 4.039842 0.987037
C 2.049391 4.522767 1.476970
C 2.504023 4.039772 1.536451
C 2.538417 4.473360 1.001876
C 2.276322 4.228469 1.267469
C 2.250210 4.719710 1.737396
C 2.727931 4.247569 1.777483
C 2.769917 4.817863 1.267863
C 2.981552 4.035902 1.010760
C 2.966146 4.522770 1.547601
C 3.482087 4.031568 1.477651
C 3.494393 4.529251 0.960179
C 3.232954 4.251770 1.301842
C 3.213330 4.739468 1.696734
C 3.791340 4.259809 1.772218
C 3.721271 4.777455 1.231457
C 3.949086 3.941003 1.010976
C 3.987173 4.479689 1.468914
C 4.448478 4.027359 1.496625
C 4.491540 4.482859 1.031840
C 4.224224 4.250228 1.224367
C 4.287517 4.757665 1.771438
C 4.733482 4.196284 1.718988
C 4.716898 4.737421 1.265839
C 5.006051 4.049643 0.996119
C 5.056375 4.513937 1.500790
C 5.487868 3.975102 1.467092
C 5.524270 4.469701 1.005544
C 5.284986 4.297759 1.239360
C 5.255645 4.783415 1.791902
C 5.725367 4.271885 1.775717
C 5.736307 4.707302 1.278879
C 0.007975 4.961622 0.981809
C 0.062215 5.513983 1.554515
C 0.531833 4.941500 1.491659
C 0.484446 5.470207 1.005680
C 0.245530 5.207234 1.259111
C 0.298588 5.722199 1.760615
C 0.801950 5.274949 1.724496
C 0.772261 5.737062 1.256800
C 1.020103 5.039605 0.992532
C 0.957676 5.453482 1.443111
C 1.480212 4.972382 1.480752
C 1.501416 5.507863 0.956693
C 1.227964 5.280226 1.262132
C 1.204809 5.738472 1.682489
C 1.691540 5.236224 1.749401
C 1.716366 5.749704 1.179883
C 2.008876 4.955356 1.017851
C 1.971128 5.473758 1.485770
C 2.482797 4.986366 1.470006
C 2.510398 5.469277 0.998247
C 2.288398 5.247422 1.267245
C 2.241038 5.698803 1.755731
C 2.732200 5.260243 1.758311
C 2.727364 5.735650 1.276517
C 2.982998 4.968771 0.955756
C 3.051105 5.477952 1.520539
C 3.477997 4.992949 1.531480
C 3.552551 5.526477 1.012177
C 3.208623 5.269875 1.270528
C 3.280392 5.739834 1.812175
C 3.749933 5.245677 1.814320
C 3.748739 5.710903 1.281254
C 4.025544 4.984395 0.952325
C 4.057859 5.499701 1.509186
C 4.521725 5.063194 1.472523
C 4.561691 5.496111 0.992310
C 4.162344 5.228414 1.242702
C 4.264579 5.713228 1.751015
C 4.743322 5.252528 1.717551
C 4.741047 5.720540 1.275086
C 4.979624 4.960917 1.026319
C 4.995072 5.527277 1.456277
C 5.511766 4.961631 1.509018
C 5.497167 5.518872 0.919864
C 5.235621 5.232099 1.217239
C 5.204357 5.723315 1.758531
C 5.723003 5.223738 1.791900
C 5.702243 5.741840 1.176304
C 0.118255 0.001511 1.970773
C 0.005504 0.489820 2.490446
C 0.458664 0.046641 2.495760
C 0.468855 0.495880 1.959493
C 0.257758 0.202042 2.243401
C 0.244152 0.775750 2.773816
C 0.760640 0.283956 2.746121
C 0.731705 0.767339 2.293110
C 0.953392 0.059842 2.003078
C 1.051230 0.493521 2.484196
C 1.451050 0.000110 2.548670
C 1.526821 0.483020 1.955080
C 1.275115 0.218694 2.292082
C 1.242668 0.701205 2.756414
C 1.716374 0.247810 2.763702
C 1.752106 0.782719 2.198750
C 1.952424 0.006772 1.955470
C 1.976583 0.492308 2.481783
C 2.494818 0.024536 2.440025
C 2.461301 0.539238 2.011543
C 2.225423 0.274869 2.278354
C 2.286034 0.734713 2.791035
C 2.755665 0.239462 2.774137
C 2.766409 0.763368 2.250478
C 3.004761 0.002624 2.053797
C 2.942684 0.504554 2.466144
C 3.551408 0.001330 2.444164
C 3.511266 0.490564 2.000732
C 3.282420 0.269111 2.214863
C 3.290870 0.753453 2.740025
C 3.779590 0.249881 2.800523
C 3.754667 0.788282 2.209359
C 3.977661 0.036078 1.996078
C 3.965029 0.480110 2.523843
C 4.541071 0.011327 2.589831
C 4.533188 0.509810 2.051941
C 4.259424 0.248202 2.264589
C 4.263808 0.767503 2.710366
C 4.785449 0.251061 2.761810
C 4.822180 0.773348 2.246363
C 5.041331 0.009402 1.944393
C 4.943261 0.507558 2.520301
C 5.496753 0.013142 2.538963
C 5.519884 0.463681 1.968609
C 5.209105 0.235131 2.271414
C 5.226471 0.830831 2.722295
C 5.748961 0.238962 2.714305
C 5.731605 0.718107 2.223001
C 0.015038 1.021254 2.014454
C 0.003455 1.491416 2.507584
C 0.465936 0.987849 2.480680
C 0.553146 1.526771 1.991505
C 0.259661 1.233772 2.218829
C 0.208843 1.784101 2.756582
C 0.718889 1.251466 2.759526
C 0.731904 1.687504 2.244620
C 0.989729 0.970786 1.966447
C 0.942825 1.518896 2.532572
C 1.496695 1.060823 2.538533
C 1.489269 1.496644 2.016673
C 1.251706 1.256037 2.327005
C 1.217946 1.789452 2.777840
C 1.774464 1.247676 2.754182
C 1.742105 1.770914 2.279146
C 1.999075 0.987822 2.039866
C 1.968028 1.516675 2.525558
C 2.512680 1.030462 2.499262
C 2.479651 1.427031 1.997144
C 2.280447 1.278741 2.267629
C 2.272701 1.708964 2.699199
C 2.740076 1.307315 2.757495
C 2.769664 1.741030 2.291172
C 3.055383 0.971383 1.995709
C 2.998960 1.492240 2.487000
C 3.470566 0.993333 2.443249
C 3.515914 1.526295 2.001202
C 3.278290 1.264263 2.306669
C 3.234377 1.793782 2.691428
C 3.782212 1.239493 2.795603
C 3.725428 1.765689 2.224936
C 3.958796 0.968577 1.946873
C 4.004898 1.565752 2.514777
C 4.501926 1.053270 2.550359
C 4.547608 1.468941 2.000570
C 4.211962 1.276859 2.277607
C 4.236519 1.704285 2.757783
C 4.768333 1.251113 2.758691
C 4.749734 1.738669 2.214649
C 5.025608 1.007031 2.033942
C 4.992842 1.550864 2.497931
C 5.461437 1.001948 2.496674
C 5.481757 1.500711 2.015782
C 5.214979 1.267132 2.234773
C 5.308618 1.789546 2.758984
C 5.711591 1.204503 2.722610
C 5.691487 1.743309 2.277244
C 0.007099 2.010138 2.054575
C 0.008527 2.549182 2.456780
C 0.523653 1.952970 2.448785
C 0.483620 2.537402 1.984285
C 0.259059 2.286068 2.199363
C 0.249758 2.731336 2.688905
C 0.743907 2.286506 2.792070
C 0.708218 2.785108 2.219334
C 1.049722 2.051906 2.004555
C 1.003930 2.479597 2.439973
C 1.496957 1.985931 2.457690
C 1.511004 2.490704 1.990596
C 1.222612 2.181252 2.266431
C 1.221161 2.781393 2.818410
C 1.755353 2.238809 2.759481
C 1.743264 2.754607 2.280499
C 1.959482 1.960007 1.995560
C 2.030190 2.533674 2.502690
C 2.502610 1.936691 2.517654
C 2.498564 2.541601 1.960449
C 2.287367 2.265900 2.258464
C 2.279839 2.725740 2.737054
C 2.774651 2.287662 2.711489
C 2.747416 2.725798 2.205930
C 3.049235 2.043825 1.988958
C 2.988329 2.491972 2.432103
C 3.497098 2.017934 2.491709
C 3.508755 2.457971 1.960574
C 3.261989 2.268389 2.219191
C 3.284550 2.736761 2.774346
C 3.730776 2.301892 2.739789
C 3.730405 2.776185 2.287348
C 4.014608 2.009909 1.997121
C 4.034223 2.465015 2.439086
C 4.523267 2.026445 2.470881
C 4.529812 2.491437 2.026506
C 4.264005 2.189170 2.238716
C 4.262328 2.792593 2.766005
C 4.775497 2.216196 2.759477
C 4.709839 2.746255 2.266177
C 4.990495 1.981578 2.050099
C 4.979937 2.509101 2.450934
C 5.470668 1.986497 2.483741
C 5.514397 2.436837 1.967633
C 5.307231 2.262969 2.230610
C 5.203488 2.736380 2.750168
C 5.689057 2.247628 2.733434
C 5.715424 2.760163 2.273329
C 0.025262 2.980083 2.092215
C 0.041911 3.509468 2.444127
C 0.470582 2.982668 2.525706
C 0.483176 3.451588 2.042864
C 0.260106 3.224921 2.290320
C 0.256403 3.708818 2.802036
C 0.720419 3.309679 2.759004
C 0.733066 3.718452 2.248746
C 0.987966 2.990874 1.946135
C 1.048884 3.506433 2.446964
C 1.516065 3.023413 2.557082
C 1.511895 3.527914 2.039318
C 1.232135 3.204078 2.275654
C 1.218825 3.758542 2.796913
C 1.794202 3.268975 2.709687
C 1.693229 3.799612 2.260245
C 2.000577 2.944363 1.995569
C 1.971107 3.529619 2.527605
C 2.489664 3.021608 2.482475
C 2.484185 3.497316 1.941701
C 2.218964 3.257627 2.185215
C 2.298722 3.745277 2.747113
C 2.734340 3.217848 2.697557
C 2.766113 3.704856 2.208895
C 2.997672 3.013773 1.945115
C 2.994485 3.499287 2.539706
C 3.522830 2.974648 2.525674
C 3.448230 3.478809 2.001247
C 3.282715 3.277177 2.273494
C 3.224463 3.775656 2.675027
C 3.791110 3.283524 2.742152
C 3.760312 3.715640 2.205548
C 4.018318 3.029122 1.973664
C 4.005911 3.481021 2.460777
C 4.507190 2.953589 2.512807
C 4.459627 3.445926 2.001874
C 4.210514 3.234860 2.227873
C 4.237561 3.743863 2.738175
C 4.732988 3.284780 2.734250
C 4.756306 3.760643 2.211601
C 4.972381 3.017326 1.978451
C 4.963521 3.520669 2.543741
C 5.506821 3.051598 2.458258
C 5.484341 3.507271 2.026511
C 5.226976 3.204893 2.250822
C 5.305383 3.746000 2.732584
C 5.735550 3.199484 2.776176
C 5.718390 3.731087 2.209904
C 0.000349 4.031344 2.013197
C 0.010689 4.438998 2.477111
C 0.547728 3.976768 2.483312
C 0.541384 4.514628 1.966544
C 0.233055 4.196359 2.265757
C 0.232114 4.770787 2.715970
C 0.767062 4.256192 2.804634
C 0.772141 4.720050 2.277349
C 1.001544 3.967336 1.954301
C 1.019116 4.492753 2.446648
C 1.455548 4.050157 2.475266
C 1.488930 4.467340 2.035856
C 1.255618 4.233027 2.212263
C 1.257475 4.704583 2.740766
C 1.787405 4.224678 2.710365
C 1.750725 4.717353 2.267357
C 2.017231 3.980267 1.976206
C 2.005536 4.507507 2.490138
C 2.462388 3.970312 2.497793
C 2.466277 4.472093 2.043524
C 2.309618 4.259166 2.297846
C 2.249749 4.713153 2.771849
C 2.738401 4.212626 2.725048
C 2.760224 4.806249 2.303309
C 3.027481 3.989545 1.963202
C 2.977950 4.555654 2.526659
C 3.446317 4.011894 2.524749
C 3.528682 4.521226 2.062357
C 3.186494 4.275651 2.254051
C 3.306414 4.717640 2.735135
C 3.763627 4.237114 2.785211
C 3.713165 4.735452 2.304062
C 4.022295 3.971603 2.037987
C 3.984928 4.463369 2.510962
C 4.456251 3.977022 2.500500
C 4.545184 4.479968 1.994200
C 4.278788 4.272111 2.229096
C 4.239163 4.729431 2.764803
C 4.719916 4.283582 2.719390
C 4.697402 4.711911 2.237458
C 4.948953 4.024062 1.987932
C 4.984928 4.463519 2.542081
C 5.461095 3.996366 2.510667
C 5.472618 4.521964 1.967344
C 5.294920 4.268968 2.270965
C 5.282982 4.732260 2.776326
C 5.705085 4.274488 2.758740
C 5.740851 4.654962 2.215066
C 0.061087 4.971877 1.997106
C 0.004037 5.461654 2.464647
C 0.531585 4.948510 2.491370
C 0.507459 5.451673 2.008230
C 0.263526 5.247535 2.282439
C 0.282434 5.703103 2.778539
C 0.786496 5.251063 2.711613
C 0.705967 5.719997 2.269512
C 1.043614 5.006495 1.940830
C 1.013924 5.544620 2.527210
C 1.505492 4.963081 2.455301
C 1.530513 5.523181 2.040557
C 1.227774 5.218192 2.188165
C 1.294928 5.691203 2.760953
C 1.728524 5.291707 2.788231
C 1.792073 5.676656 2.231580
C 1.959069 5.012999 1.968975
C 1.990526 5.459213 2.471871
C 2.508347 5.035719 2.508196
C 2.470627 5.431650 1.974239
C 2.257013 5.267151 2.299333
C 2.176156 5.739035 2.745641
C 2.742475 5.309593 2.699914
C 2.753179 5.713974 2.302749
C 3.000443 5.034476 2.008141
C 3.064523 5.480236 2.483158
C 3.503201 4.979925 2.557153
C 3.497321 5.471725 1.957817
C 3.265352 5.216325 2.229761
C 3.217282 5.746104 2.799401
C 3.679444 5.251856 2.764197
C 3.800766 5.732050 2.220995
C 4.052081 4.996940 1.992659
C 3.972135 5.525951 2.472188
C 4.517259 4.980794 2.482544
C 4.485336 5.469931 2.042987
C 4.306961 5.225807 2.267203
C 4.252951 5.694519 2.793113
C 4.766116 5.207673 2.723274
C 4.677646 5.734553 2.241204
C 5.019660 4.989354 2.019081
C 5.047381 5.494528 2.501348
C 5.524076 4.982724 2.495806
C 5.461583 5.523584 2.016665
C 5.235720 5.265076 2.204403
C 5.251576 5.725189 2.725367
C 5.708741 5.193731 2.759670
C 5.696805 5.732852 2.232032
C 0.067702 0.014706 2.980250
C 0.001388 0.560648 3.513624
C 0.443498 0.071027 3.501116
C 0.520232 0.500702 2.995048
C 0.263399 0.305961 3.223697
C 0.294440 0.784004 3.776050
C 0.737176 0.194673 3.778438
C 0.731750 0.767117 3.260343
C 1.041542 0.020988 2.989270
C 0.955614 0.471372 3.511627
C 1.536570 0.020887 3.547284
C 1.516450 0.506091 2.963764
C 1.252180 0.252580 3.227801
C 1.238465 0.760627 3.757368
C 1.745839 0.267480 3.710680
C 1.752162 0.772328 3.237188
C 1.973951 0.014281 2.980136
C 2.004980 0.445644 3.499333
C 2.537195 0.028336 3.487132
C 2.486288 0.452142 2.952893
C 2.293614 0.246255 3.246216
C 2.284952 0.776132 3.746921
C 2.770950 0.220457 3.709208
C 2.740580 0.746035 3.292361
C 3.021546 0.008414 3.020294
C 2.973538 0.471314 3.493634
C 3.492773 0.032273 3.492852
C 3.487359 0.533777 3.060360
C 3.196832 0.239477 3.277101
C 3.242425 0.734321 3.718573
C 3.757031 0.211539 3.702573
C 3.744814 0.743455 3.314034
C 4.035710 0.002574 3.014814
C 4.060457 0.501410 3.482699
C 4.506602 0.001496 3.499362
C 4.489974 0.530513 3.020166
C 4.239442 0.252273 3.259355
C 4.211023 0.693327 3.768251
C 4.743511 0.245017 3.736406
C 4.686416 0.786012 3.222996
C 5.035929 0.054526 3.021511
C 5.020170 0.559542 3.511570
C 5.535510 0.041451 3.531050
C 5.460687 0.543421 3.000872
C 5.192673 0.222337 3.304473
C 5.253560 0.751728 3.756416
C 5.692807 0.302715 3.696199
C 5.691754 0.763850 3.244934
C 0.016912 1.058973 2.972461
C 0.031401 1.548008 3.479705
C 0.453408 0.995594 3.466340
C 0.495837 1.513501 2.992012
C 0.222641 1.253489 3.214329
C 0.214216 1.717821 3.753628
C 0.752591 1.220425 3.776482
C 0.767079 1.692192 3.260418
C 0.959779 1.014907 3.017611
C 0.958648 1.466439 3.514453
C 1.460964 1.040425 3.515028
C 1.517705 1.522987 2.971721
C 1.237137 1.299990 3.211111
C 1.210439 1.772884 3.725067
C 1.790477 1.295508 3.757992
C 1.724756 1.703163 3.287983
C 1.953137 1.001119 2.970277
C 1.990796 1.454760 3.480653
C 2.483855 0.952110 3.494667
C 2.554686 1.505143 3.026489
C 2.242994 1.293082 3.276366
C 2.273619 1.773592 3.753238
C 2.730993 1.190586 3.719365
C 2.749552 1.764069 3.212618
C 2.981325 0.950984 2.990803
C 2.936806 1.497796 3.497235
C 3.527876 0.999198 3.470748
C 3.475544 1.470161 3.022068
C 3.301376 1.232882 3.246153
C 3.243140 1.713089 3.771635
C 3.781991 1.284235 3.766136
C 3.721772 1.778605 3.206349
C 4.015256 0.955902 3.034713
C 4.015907 1.474732 3.490579
C 4.447679 1.001317 3.512257
C 4.496165 1.472339 3.040075
C 4.237964 1.180726 3.253742
C 4.306290 1.717086 3.738129
C 4.718952 1.230624 3.725354
C 4.780537 1.742788 3.210168
C 5.060423 0.985581 2.986036
C 5.027777 1.514276 3.524501
C 5.537284 1.020451 3.500127
C 5.533280 1.548336 2.972958
C 5.191976 1.259619 3.271798
C 5.210341 1.765007 3.719821
C 5.729744 1.282639 3.726923
C 5.736455 1.780735 3.187793
C 0.024942 2.034862 3.065640
C 0.036437 2.517261 3.476010
C 0.528688 2.011896 3.503269
C 0.475131 2.500081 2.957117
C 0.269152 2.224319 3.293871
C 0.260017 2.811575 3.743287
C 0.750351 2.234203 3.797278
C 0.736284 2.808789 3.286441
C 0.976940 1.947395 3.004464
C 0.996816 2.476413 3.481832
C 1.493246 1.944087 3.508517
C 1.437343 2.539136 2.974450
C 1.265992 2.255601 3.284695
C 1.282641 2.692821 3.739369
C 1.781041 2.243164 3.772217
C 1.796278 2.766751 3.250118
C 2.032586 2.022478 3.036681
C 2.037971 2.486786 3.535167
C 2.543352 1.965231 3.456847
C 2.530117 2.517868 3.057212
C 2.242890 2.265558 3.244720
C 2.214521 2.768299 3.786558
C 2.709195 2.247688 3.713684
C 2.798126 2.767737 3.230613
C 2.991410 1.975873 2.971754
C 3.031991 2.522695 3.515532
C 3.442020 2.001998 3.502721
C 3.502984 2.520757 3.000370
C 3.279804 2.237022 3.281964
C 3.219088 2.754337 3.762360
C 3.794133 2.252917 3.786908
C 3.716676 2.783005 3.246361
C 3.974963 1.952809 2.991294
C 4.010121 2.449586 3.543678
C 4.572692 1.970218 3.535306
C 4.532822 2.503712 3.058016
C 4.222136 2.213665 3.275931
C 4.248798 2.713039 3.791739
C 4.783475 2.297193 3.704894
C 4.786020 2.774853 3.290381
C 4.976609 1.988376 2.994408
C 5.004279 2.532847 3.441566
C 5.477613 2.042090 3.470466
C 5.502543 2.515843 2.981020
C 5.213429 2.237611 3.198721
C 5.276758 2.695097 3.719893
C 5.722173 2.260361 3.797291
C 5.674656 2.759058 3.270905
C 0.029792 2.978884 2.941264
C 0.014231 3.438825 3.478320
C 0.464466 3.000140 3.478604
C 0.480349 3.473940 3.005380
C 0.278507 3.236589 3.243035
C 0.201285 3.783188 3.771712
C 0.691667 3.247997 3.711693
C 0.759226 3.778873 3.291625
C 0.996194 3.025820 3.027253
C 1.014408 3.521021 3.469572
C 1.503366 2.971832 3.507096
C 1.557856 3.482148 2.978312
C 1.287452 3.256311 3.224062
C 1.227255 3.783558 3.691708
C 1.757036 3.215921 3.742394
C 1.735816 3.715747 3.267730
C 1.995639 2.993766 3.018741
C 2.032752 3.475035 3.468133
C 2.539371 3.021281 3.529970
C 2.457509 3.504821 2.975647
C 2.186459 3.264423 3.192308
C 2.300684 3.772263 3.755497
C 2.779942 3.285460 3.742838
C 2.754606 3.767796 3.241402
C 3.012553 2.989122 2.953498
C 2.959674 3.496769 3.502108
C 3.464581 3.011526 3.547150
C 3.555195 3.446710 3.012308
C 3.203747 3.254818 3.242250
C 3.278326 3.723510 3.764125
C 3.744304 3.216920 3.785062
C 3.711530 3.771030 3.234641
C 3.973883 3.009020 3.035370
C 4.046451 3.480582 3.499758
C 4.444932 2.959333 3.530462
C 4.483986 3.519187 3.033784
C 4.261854 3.222503 3.284992
C 4.297571 3.740279 3.726047
C 4.777969 3.293223 3.718059
C 4.773041 3.752075 3.263482
C 4.999754 3.054272 3.014634
C 4.978372 3.520962 3.483709
C 5.526246 3.017508 3.499559
C 5.499704 3.499586 2.973482
C 5.233218 3.279430 3.214397
C 5.230170 3.737109 3.774258
C 5.705870 3.291520 3.753512
C 5.705309 3.730631 3.242624
C 0.001194 4.020690 2.948245
C 0.001683 4.535531 3.529244
C 0.489621 3.984005 3.554533
C 0.465626 4.552252 3.030759
C 0.185501 4.197770 3.249927
C 0.196655 4.773967 3.756086
C 0.802950 4.257712 3.780651
C 0.801184 4.741857 3.243456
C 0.988232 3.994927 2.939088
C 0.983582 4.468768 3.537602
C 1.475907 3.993188 3.532807
C 1.485042 4.556892 2.983232
C 1.224880 4.215858 3.292048
C 1.237217 4.737040 3.795592
C 1.722077 4.192272 3.725904
C 1.705052 4.698307 3.279246
C 2.002142 4.023120 2.995192
C 1.962242 4.504429 3.460721
C 2.507549 3.998337 3.512484
C 2.469029 4.516658 3.045647
C 2.263846 4.259104 3.254632
C 2.298910 4.745211 3.743375
C 2.763360 4.247692 3.795211
C 2.746608 4.780283 3.245454
C 2.985561 4.023505 2.986775
C 3.030994 4.501327 3.487977
C 3.440458 3.990254 3.515811
C 3.528302 4.481553 2.956348
C 3.200385 4.256979 3.225457
C 3.256534 4.712117 3.718436
C 3.799308 4.259551 3.779102
C 3.729835 4.732417 3.267068
C 4.010785 3.966125 2.977410
C 3.963069 4.495740 3.493245
C 4.502921 3.998931 3.529886
C 4.472443 4.546468 2.990345
C 4.295303 4.255955 3.286969
C 4.255084 4.775821 3.762773
C 4.794869 4.218911 3.744968
C 4.760123 4.729513 3.208172
C 4.951182 3.980856 3.013892
C 5.048081 4.538200 3.468156
C 5.533612 3.966394 3.508077
C 5.488483 4.482978 2.987059
C 5.267448 4.263943 3.301447
C 5.253796 4.735401 3.761726
C 5.705428 4.194675 3.739557
C 5.716254 4.817012 3.246549
C 0.019515 4.964407 2.996787
C 0.016408 5.493356 3.485400
C 0.467293 4.941117 3.520800
C 0.527825 5.440814 3.007386
C 0.219467 5.266484 3.230998
C 0.257284 5.738681 3.774543
C 0.768832 5.292364 3.721020
C 0.725967 5.683220 3.251262
C 1.030291 5.009520 3.025236
C 1.039337 5.507306 3.480978
C 1.459256 5.029581 3.498459
C 1.558517 5.502870 3.056902
C 1.214083 5.291525 3.238633
C 1.251732 5.714380 3.710792
C 1.679286 5.282718 3.762075
C 1.812520 5.736342 3.203841
C 2.040142 5.030372 2.966039
C 1.969786 5.468953 3.503148
C 2.466310 4.992041 3.541008
C 2.457049 5.482459 2.949787
C 2.269552 5.278844 3.233105
C 2.254646 5.720669 3.780466
C 2.762211 5.297861 3.744415
C 2.685577 5.749098 3.227299
C 2.997042 4.990977 2.959038
C 2.986138 5.528408 3.462633
C 3.471193 4.983948 3.481153
C 3.468487 5.464350 2.994365
C 3.232122 5.285099 3.216538
C 3.213860 5.743524 3.812498
C 3.711580 5.287150 3.736406
C 3.803211 5.700691 3.277218
C 3.938808 5.023768 3.006760
C 3.996351 5.506011 3.534960
C 4.506815 5.015844 3.449392
C 4.534756 5.548366 2.981248
C 4.252937 5.273541 3.213343
C 4.245067 5.729869 3.740863
C 4.748789 5.230890 3.769409
C 4.751414 5.703938 3.258640
C 4.988877 5.047168 2.967938
C 5.009411 5.572558 3.477928
C 5.481243 4.994733 3.552367
C 5.549335 5.454546 2.972044
C 5.299078 5.309175 3.268964
C 5.267274 5.737677 3.765538
C 5.711779 5.295820 3.745385
C 5.720521 5.692093 3.252474
C 0.051622 0.011401 3.964137
C 0.022358 0.550802 4.524867
C 0.478940 0.039159 4.520794
C 0.505297 0.499522 4.028765
C 0.308385 0.219591 4.258249
C 0.241586 0.808347 4.762936
C 0.719004 0.236428 4.781946
C 0.707126 0.776744 4.225851
C 1.032217 0.024507 4.015991
C 1.001453 0.518462 4.539893
C 1.496234 0.036500 4.556251
C 1.491736 0.512442 3.981363
C 1.281941 0.237078 4.228491
C 1.246812 0.743070 4.728049
C 1.735801 0.283210 4.757159
C 1.797116 0.731512 4.246846
C 2.028753 0.009254 3.994737
C 2.009307 0.505245 4.552073
C 2.492057 0.017014 4.528729
C 2.505003 0.504660 4.057196
C 2.267084 0.228503 4.250521
C 2.193732 0.735449 4.782030
C 2.780888 0.294502 4.778588
C 2.714286 0.772000 4.251302
C 3.012273 0.037713 4.003528
C 3.006246 0.506203 4.491415
C 3.484258 0.026978 4.538382
C 3.470849 0.513579 4.018669
C 3.275534 0.217163 4.268976
C 3.243497 0.760566 4.691953
C 3.760490 0.226522 4.764233
C 3.738290 0.762320 4.285067
C 3.962551 0.068515 4.004724
C 3.955693 0.516564 4.526948
C 4.527411 0.006136 4.512042
C 4.492492 0.497142 3.959114
C 4.187722 0.234628 4.236532
C 4.280897 0.793572 4.734314
C 4.725443 0.317147 4.743372
C 4.750009 0.691388 4.245765
C 4.937246 0.050796 4.030474
C 5.031906 0.512464 4.496811
C 5.530681 0.007906 4.550417
C 5.505315 0.512595 3.963244
C 5.228740 0.261053 4.275239
C 5.238172 0.711860 4.739577
C 5.746239 0.229329 4.779146
C 5.728769 0.798792 4.263945
C 0.054988 0.994679 3.961971
C 0.064325 1.492345 4.484732
C 0.518988 1.035882 4.522366
C 0.522354 1.468612 3.981773
C 0.283667 1.256796 4.255171
C 0.246918 1.702636 4.749543
C 0.753386 1.224739 4.767932
C 0.755591 1.780080 4.282543
C 0.948824 0.984399 4.027788
C 0.976313 1.430593 4.541200
C 1.528610 1.020514 4.455233
C 1.492557 1.497544 3.968295
C 1.240590 1.288277 4.296403
C 1.204334 1.752383 4.793876
C 1.788028 1.225086 4.711576
C 1.734406 1.810067 4.242407
C 2.044792 1.008678 4.012212
C 2.026247 1.456874 4.530236
C 2.524020 0.942434 4.524170
C 2.530463 1.522897 3.998121
C 2.282862 1.243294 4.266608
C 2.286814 1.706443 4.765843
C 2.752533 1.307830 4.771918
C 2.740610 1.748344 4.217930
C 2.968884 1.053255 3.987281
C 3.022117 1.482154 4.445561
C 3.489393 0.966638 4.495418
C 3.528161 1.487369 3.957112
C 3.208798 1.221939 4.288691
C 3.273433 1.795473 4.751434
C 3.737507 1.194012 4.782530
C 3.740344 1.702679 4.225982
C 3.963651 1.006176 4.000504
C 3.991423 1.458955 4.567579
C 4.526504 0.988414 4.540104
C 4.524181 1.525558 4.032053
C 4.261411 1.234847 4.290265
C 4.233559 1.729987 4.748541
C 4.735368 1.301898 4.709686
C 4.750881 1.729319 4.264600
C 4.982640 1.036649 4.007520
C 4.992418 1.505355 4.491361
C 5.471068 1.002405 4.490785
C 5.550063 1.518512 3.977404
C 5.244340 1.263203 4.255247
C 5.251542 1.784775 4.706342
C 5.731711 1.182106 4.748817
C 5.718954 1.735366 4.243996
C 0.016827 1.966156 3.936093
C 0.007572 2.489641 4.551205
C 0.474959 2.048185 4.449968
C 0.468802 2.492177 3.953862
C 0.211017 2.266735 4.297032
C 0.200982 2.762751 4.731280
C 0.730471 2.234386 4.689093
C 0.769719 2.764023 4.270102
C 0.968309 1.975934 4.012642
C 0.960025 2.526143 4.494491
C 1.508144 2.041734 4.528676
C 1.473611 2.525371 4.011524
C 1.226713 2.260601 4.300206
C 1.283889 2.796976 4.743634
C 1.813651 2.289707 4.770498
C 1.753716 2.712967 4.192962
C 1.993447 2.020767 3.992246
C 1.939635 2.479606 4.485985
C 2.500311 1.980364 4.550442
C 2.457290 2.499964 3.970030
C 2.262067 2.251799 4.210163
C 2.251286 2.682507 4.724402
C 2.740551 2.230308 4.731759
C 2.758889 2.704329 4.234061
C 2.991297 1.973019 3.970011
C 3.000037 2.487329 4.557372
C 3.476959 2.037568 4.500130
C 3.519837 2.445816 3.994736
C 3.252815 2.294055 4.259560
C 3.225298 2.832697 4.746159
C 3.793990 2.236995 4.721458
C 3.770132 2.798569 4.215052
C 3.979838 1.934713 4.011101
C 4.038460 2.519240 4.459024
C 4.474894 2.036015 4.451441
C 4.560608 2.498345 3.966338
C 4.243181 2.273630 4.290248
C 4.269031 2.697957 4.732515
C 4.704719 2.230406 4.775547
C 4.736135 2.761932 4.285589
C 4.989303 2.003475 3.941608
C 5.024054 2.468386 4.519015
C 5.500516 2.030524 4.551955
C 5.485224 2.471655 3.998510
C 5.275297 2.243394 4.270701
C 5.263463 2.722907 4.770160
C 5.746566 2.297814 4.809588
C 5.703787 2.679435 4.259917
C 0.024495 2.975402 4.031090
C 0.024936 3.493453 4.507078
C 0.473153 2.960488 4.533239
C 0.454133 3.567776 4.027549
C 0.243998 3.254442 4.202711
C 0.239395 3.735440 4.754736
C 0.764040 3.298596 4.765758
C 0.791105 3.731095 4.192966
C 1.015257 2.976938 3.994186
C 1.007695 3.503136 4.541089
C 1.473114 3.015523 4.507036
C 1.540579 3.511691 3.966319
C 1.246590 3.180064 4.239698
C 1.247550 3.703649 4.744491
C 1.708412 3.279965 4.721018
C 1.741623 3.782213 4.273535
C 2.045059 2.972822 4.048729
C 2.031667 3.494041 4.532922
C 2.492719 3.040782 4.533259
C 2.528087 3.554324 3.986326
C 2.223365 3.261335 4.186568
C 2.277051 3.773687 4.780131
C 2.749346 3.298811 4.792879
C 2.695001 3.727042 4.268933
C 3.019303 2.965339 4.019357
C 2.998631 3.438511 4.485863
C 3.491972 2.983867 4.526399
C 3.513511 3.546766 4.029902
C 3.256076 3.232684 4.247169
C 3.271391 3.777152 4.712441
C 3.797538 3.288855 4.752609
C 3.740882 3.799093 4.221638
C 4.026201 3.016813 3.994422
C 3.997126 3.536778 4.514383
C 4.529052 3.055093 4.449373
C 4.463066 3.488024 4.020015
C 4.221193 3.194779 4.247670
C 4.192668 3.760816 4.757490
C 4.819358 3.249716 4.739676
C 4.798408 3.765205 4.291128
C 5.028121 3.015438 4.038691
C 4.934585 3.439547 4.479403
C 5.539906 2.995554 4.453443
C 5.516481 3.463110 4.026052
C 5.259379 3.209047 4.284894
C 5.266669 3.745404 4.707755
C 5.749877 3.278202 4.772092
C 5.718393 3.699991 4.243680
C 0.005295 3.971951 4.037359
C 0.005204 4.511751 4.515922
C 0.491159 4.032649 4.491718
C 0.523500 4.493854 3.964378
C 0.194561 4.268640 4.299281
C 0.201545 4.732972 4.747408
C 0.775217 4.226527 4.785137
C 0.689169 4.764555 4.258776
C 0.993778 3.986445 4.039506
C 0.994166 4.547418 4.472570
C 1.518679 4.011855 4.474112
C 1.448496 4.481507 3.981364
C 1.268728 4.218373 4.206951
C 1.227125 4.721694 4.705669
C 1.782280 4.228409 4.711342
C 1.747170 4.755449 4.202115
C 1.993973 4.002830 4.027878
C 1.993181 4.525370 4.488424
C 2.485360 4.015229 4.494040
C 2.467467 4.499095 4.047471
C 2.240242 4.258174 4.246855
C 2.278311 4.768422 4.684334
C 2.784774 4.236205 4.797798
C 2.710102 4.756197 4.229482
C 3.010737 3.948046 4.015336
C 2.935153 4.488454 4.541802
C 3.496100 4.010235 4.521836
C 3.509839 4.500705 3.951039
C 3.269872 4.313655 4.241321
C 3.272438 4.787697 4.767843
C 3.750937 4.201079 4.790380
C 3.762285 4.774626 4.241170
C 4.038153 3.992485 3.975792
C 3.981237 4.499772 4.501332
C 4.483993 3.956510 4.457779
C 4.458996 4.521742 4.032376
C 4.231870 4.310074 4.267670
C 4.278816 4.694556 4.771675
C 4.762212 4.184010 4.771358
C 4.783314 4.728646 4.267625
C 5.022380 3.985403 3.960983
C 4.997403 4.430233 4.459761
C 5.505042 4.015228 4.532306
C 5.510849 4.558777 4.005804
C 5.259206 4.291836 4.283684
C 5.178460 4.734610 4.741008
C 5.739962 4.248643 4.702581
C 5.739444 4.723088 4.277830
C 0.024428 4.960391 4.042361
C 0.028131 5.538961 4.522928
C 0.432666 4.968705 4.549824
C 0.486660 5.547224 4.000751
C 0.254170 5.301498 4.253700
C 0.252051 5.737265 4.754390
C 0.750931 5.221496 4.735420
C 0.782873 5.725378 4.262380
C 1.008708 4.958709 4.022529
C 1.018792 5.496344 4.471074
C 1.516016 5.038614 4.487102
C 1.464729 5.527082 3.959868
C 1.248776 5.252607 4.269273
C 1.306956 5.727560 4.743112
C 1.768343 5.203347 4.747524
C 1.781243 5.740046 4.217344
C 1.947110 4.962227 3.961307
C 2.032207 5.559639 4.505098
C 2.451808 5.007031 4.468407
C 2.504801 5.447688 4.027617
C 2.244038 5.306854 4.296071
C 2.269844 5.711559 4.738921
C 2.762587 5.323402 4.752333
C 2.750727 5.748096 4.207429
C 2.990382 4.989059 4.050679
C 2.970078 5.484071 4.462428
C 3.509720 5.026615 4.546570
C 3.521597 5.531158 3.997447
C 3.221861 5.253564 4.267164
C 3.176197 5.735603 4.711016
C 3.769147 5.228881 4.735657
C 3.758971 5.732892 4.279504
C 3.965158 4.980121 4.001645
C 3.941749 5.477965 4.516645
C 4.433761 4.991743 4.513341
C 4.513684 5.512698 4.036006
C 4.272246 5.273227 4.217488
C 4.253403 5.739930 4.791809
C 4.749162 5.288010 4.806290
C 4.781670 5.706794 4.224042
C 4.968086 5.008274 3.994759
C 5.017851 5.509620 4.498214
C 5.484172 4.944677 4.515053
C 5.473994 5.498730 3.970709
C 5.254221 5.213572 4.268942
C 5.211285 5.708521 4.765638
C 5.728540 5.287891 4.785621
C 5.699847 5.710152 4.235965
C 0.008259 0.001924 4.916420
C 0.057876 0.500610 5.521124
C 0.569532 0.007381 5.465655
C 0.553609 0.496564 5.004495
C 0.253477 0.209026 5.292081
C 0.305692 0.746755 5.741491
C 0.702168 0.199593 5.744676
C 0.718352 0.761701 5.213107
C 1.016547 0.007979 5.019912
C 1.006291 0.503260 5.453568
C 1.531433 0.036809 5.560380
C 1.517792 0.529331 4.993212
C 1.245891 0.283319 5.311679
C 1.290779 0.747209 5.744657
C 1.729428 0.303282 5.740643
C 1.745569 0.718430 5.285311
C 2.049593 0.014052 5.035648
C 1.978892 0.539437 5.513172
C 2.449314 0.041670 5.547778
C 2.543179 0.470638 5.021853
C 2.287040 0.243809 5.237359
C 2.273047 0.767881 5.697614
C 2.700026 0.283460 5.739514
C 2.698599 0.765203 5.232566
C 2.979005 0.061035 5.001342
C 2.992763 0.482417 5.541143
C 3.511852 0.006060 5.512663
C 3.546801 0.507114 4.992819
C 3.229244 0.225261 5.210868
C 3.226665 0.705190 5.703313
C 3.723111 0.238248 5.743507
C 3.698111 0.748888 5.268091
C 4.052073 0.029919 4.992247
C 4.062267 0.486471 5.467582
C 4.538100 0.026403 5.530425
C 4.446641 0.487140 4.980238
C 4.251927 0.221059 5.277350
C 4.246457 0.755070 5.674639
C 4.791687 0.205080 5.740493
C 4.788695 0.766946 5.243418
C 5.043438 0.012842 4.988405
C 5.023946 0.459800 5.506557
C 5.540029 0.014173 5.510798
C 5.473975 0.507273 5.046855
C 5.247055 0.277521 5.272962
C 5.259948 0.765409 5.734516
C 5.708410 0.253581 5.724608
C 5.715959 0.754200 5.271742
C 0.077673 0.974107 5.024049
C 0.004864 1.483121 5.454754
C 0.513292 1.014072 5.458762
C 0.450933 1.469369 4.957918
C 0.210173 1.222574 5.263811
C 0.276937 1.705421 5.700272
C 0.698443 1.285070 5.743943
C 0.767641 1.728277 5.214061
C 1.035197 1.063597 5.005821
C 0.968729 1.491484 5.538859
C 1.486802 1.020530 5.568671
C 1.551115 1.499813 4.993670
C 1.238495 1.324032 5.258563
C 1.270984 1.788566 5.733625
C 1.758276 1.211059 5.696996
C 1.709409 1.737293 5.267964
C 2.019719 1.027181 4.985099
C 1.995880 1.487104 5.558479
C 2.488991 1.021292 5.452246
C 2.449353 1.508137 5.047711
C 2.233361 1.248019 5.212673
C 2.282914 1.702329 5.733466
C 2.776377 1.222334 5.710273
C 2.763041 1.762060 5.255716
C 3.048065 0.999577 5.005689
C 3.007738 1.451825 5.477448
C 3.509529 1.043387 5.451118
C 3.456842 1.453053 5.027917
C 3.211331 1.236221 5.228994
C 3.231510 1.697777 5.718719
C 3.807867 1.227817 5.734401
C 3.725931 1.733886 5.231751
C 4.021196 1.016066 4.966488
C 3.995694 1.496320 5.474763
C 4.557691 0.973792 5.482157
C 4.530964 1.461909 4.985140
C 4.233814 1.200466 5.212568
C 4.203487 1.764779 5.723203
C 4.779376 1.252378 5.699742
C 4.773651 1.781718 5.271431
C 4.953476 0.985982 4.987261
C 4.991138 1.500207 5.524843
C 5.532958 0.999207 5.480120
C 5.472897 1.480520 4.942844
C 5.187575 1.257291 5.273308
C 5.238069 1.715736 5.692008
C 5.711205 1.147096 5.733593
C 5.699545 1.785695 5.311710
C 0.010048 1.953461 5.037435
C 0.031969 2.517782 5.430492
C 0.455780 2.026826 5.470410
C 0.470800 2.523793 5.074974
C 0.254039 2.272450 5.292094
C 0.250182 2.705836 5.720326
C 0.716805 2.329451 5.743859
C 0.722427 2.737244 5.184657
C 1.020271 2.001228 5.009485
C 0.990151 2.507223 5.535360
C 1.499234 2.031881 5.546374
C 1.542204 2.491199 5.003869
C 1.210829 2.253953 5.205420
C 1.253035 2.700832 5.736010
C 1.754451 2.257304 5.685136
C 1.734656 2.704081 5.239569
C 1.999376 2.064924 5.007780
C 2.003378 2.437777 5.545159
C 2.531583 2.004868 5.434914
C 2.542187 2.465050 4.948443
C 2.288999 2.281444 5.213979
C 2.270166 2.730649 5.715430
C 2.734509 2.300037 5.744612
C 2.797442 2.789857 5.257812
C 2.967982 2.035910 5.028036
C 3.024324 2.529765 5.533718
C 3.485079 1.966720 5.513668
C 3.482327 2.506888 5.012336
C 3.266347 2.214551 5.268590
C 3.199945 2.780154 5.740695
C 3.759773 2.295003 5.725931
C 3.764640 2.767836 5.318497
C 3.989043 1.969924 4.955760
C 3.989634 2.506560 5.507171
C 4.448237 1.960248 5.504731
C 4.533110 2.491385 4.969213
C 4.263906 2.243882 5.274543
C 4.238484 2.701462 5.699006
C 4.780169 2.230416 5.702451
C 4.711711 2.761691 5.237044
C 5.027898 1.989221 4.955188
C 4.939448 2.493700 5.518779
C 5.491283 2.044057 5.465116
C 5.518623 2.526058 5.005912
C 5.244609 2.301791 5.251436
C 5.237804 2.764850 5.712937
C 5.697833 2.201527 5.724910
C 5.703770 2.718410 5.288285
C 0.040232 3.025088 5.010598
C 0.047926 3.481546 5.502735
C 0.514065 2.959725 5.484115
C 0.442906 3.491593 4.994705
C 0.267046 3.252415 5.217427
C 0.212764 3.720777 5.741946
C 0.705531 3.234222 5.713217
C 0.735790 3.750699 5.317141
C 0.951292 2.957231 4.979357
C 1.024638 3.451130 5.490322
C 1.484620 2.989429 5.457489
C 1.501460 3.542614 4.977873
C 1.263636 3.283902 5.212784
C 1.287433 3.725018 5.706625
C 1.766632 3.205385 5.713072
C 1.737298 3.762864 5.226187
C 2.005178 2.951116 4.974688
C 2.046470 3.493604 5.533109
C 2.491629 2.976441 5.525168
C 2.506804 3.519817 4.954580
C 2.291922 3.236672 5.238266
C 2.292419 3.753929 5.726183
C 2.735082 3.254953 5.717593
C 2.701233 3.731576 5.280580
C 3.001526 2.965024 5.003008
C 3.008879 3.509126 5.446483
C 3.490091 3.011885 5.447143
C 3.535406 3.484750 5.022734
C 3.278112 3.266211 5.295232
C 3.285085 3.690078 5.716572
C 3.703425 3.256826 5.716240
C 3.768522 3.723136 5.183509
C 4.014946 2.974164 4.998541
C 3.958612 3.501484 5.453249
C 4.472137 2.965433 5.524079
C 4.455847 3.494019 4.960075
C 4.217908 3.240141 5.296737
C 4.251280 3.703006 5.743257
C 4.785785 3.203249 5.682805
C 4.795034 3.725703 5.217109
C 4.960371 2.997700 5.011034
C 4.974852 3.464822 5.482605
C 5.552154 2.970473 5.535221
C 5.470468 3.511919 5.033368
C 5.224068 3.237911 5.232655
C 5.210787 3.738863 5.740154
C 5.748084 3.225277 5.683987
C 5.728776 3.806794 5.242286
C 0.000619 3.967263 4.981705
C 0.002550 4.468365 5.495601
C 0.516426 4.050899 5.475735
C 0.438027 4.517430 5.010458
C 0.246471 4.208635 5.207213
C 0.266822 4.758385 5.717985
C 0.704994 4.251973 5.745106
C 0.767959 4.786217 5.218879
C 0.955538 3.982489 5.055743
C 0.991455 4.493269 5.561315
C 1.483646 3.989060 5.520882
C 1.523430 4.484598 5.025656
C 1.234819 4.283712 5.254200
C 1.271522 4.749162 5.738942
C 1.679666 4.243808 5.729659
C 1.745429 4.722823 5.214512
C 1.962304 3.965344 5.003079
C 2.004267 4.466514 5.477788
C 2.448089 3.978152 5.473326
C 2.493292 4.460316 4.961027
C 2.298156 4.222745 5.223107
C 2.220565 4.744333 5.697418
C 2.836474 4.257988 5.748407
C 2.742561 4.750583 5.242623
C 3.023986 3.967889 5.014228
C 2.985064 4.519710 5.565905
C 3.456513 4.010700 5.514968
C 3.552700 4.511014 4.943578
C 3.227739 4.241783 5.298962
C 3.311865 4.761302 5.743652
C 3.773640 4.295673 5.733212
C 3.741875 4.688635 5.263393
C 3.967937 3.982499 5.044400
C 4.001268 4.453010 5.464736
C 4.433055 3.956951 5.483528
C 4.511565 4.468238 4.929487
C 4.221943 4.275479 5.230995
C 4.280711 4.816009 5.744471
C 4.719428 4.221318 5.727432
C 4.695777 4.755583 5.273756
C 5.049414 4.015458 5.043946
C 4.963630 4.544625 5.502376
C 5.537440 4.040448 5.475015
C 5.521173 4.533657 4.972590
C 5.211496 4.252645 5.290396
C 5.262208 4.792451 5.719635
C 5.706691 4.266644 5.742953
C 5.717806 4.778985 5.223578
C 0.005616 5.021189 4.942328
C 0.001337 5.543104 5.537338
C 0.491957 5.015007 5.485427
C 0.468331 5.479244 5.037246
C 0.202301 5.225651 5.226303
C 0.247148 5.743192 5.668627
C 0.730961 5.276630 5.693854
C 0.737057 5.736462 5.244144
C 0.968161 5.035741 4.992257
C 1.031075 5.512436 5.568934
C 1.496833 5.005899 5.466558
C 1.547219 5.532709 4.949817
C 1.300499 5.250957 5.200734
C 1.217065 5.743421 5.665096
C 1.804688 5.288548 5.749492
C 1.704471 5.742599 5.258682
C 2.055947 4.988329 4.955152
C 1.957909 5.507186 5.496750
C 2.521427 4.989910 5.451446
C 2.446958 5.480538 4.966241
C 2.251101 5.291634 5.221347
C 2.225997 5.726351 5.723937
C 2.753927 5.191907 5.716255
C 2.686557 5.725191 5.221051
C 3.010380 5.019382 4.983779
C 3.009699 5.427391 5.502253
C 3.480181 4.990929 5.513787
C 3.464774 5.525939 4.983468
C 3.251820 5.297514 5.259249
C 3.307384 5.749319 5.736471
C 3.739432 5.186342 5.729150
C 3.751179 5.728987 5.240291
C 4.008404 5.005387 4.938958
C 4.042140 5.528043 5.503051
C 4.510000 4.964071 5.516507
C 4.546934 5.492232 5.048795
C 4.242863 5.257833 5.253166
C 4.286714 5.736347 5.726748
C 4.801968 5.237124 5.720320
C 4.697539 5.740880 5.268906
C 5.031189 5.009355 5.037786
C 5.032387 5.481574 5.545062
C 5.577083 4.996283 5.512958
C 5.504178 5.497747 5.061502
C 5.222977 5.304886 5.255802
C 5.334220 5.719431 5.720061
C 5.706843 5.250978 5.729712
C 5.740644 5.696212 5.270237
1728
Frame 5/10
C 0.020139 0.024016 0.063871
C 0.049514 0.443623 0.477749
C 0.454974 0.000291 0.510146
C 0.533994 0.494971 0.092940
C 0.306988 0.251368 0.284089
C 0.178775 0.716127 0.740893
C 0.685916 0.271365 0.781807
C 0.738907 0.729995 0.298306
C 1.055394 0.014110 0.042403
C 1.002468 0.515665 0.462285
C 1.534414 0.004036 0.405810
C 1.526048 0.447097 0.037722
C 1.276816 0.262486 0.227191
C 1.293525 0.673438 0.783510
C 1.709118 0.190915 0.708557
C 1.690651 0.722366 0.224838
C 1.917785 0.008120 0.029442
C 1.936085 0.471273 0.468865
C 2.453759 0.025098 0.511757
C 2.555555 0.474819 0.028611
C 2.269604 0.221842 0.213828
C 2.244325 0.803747 0.795837
C 2.723744 0.202650 0.840483
C 2.746295 0.784283 0.196152
C 3.037979 0.015862 0.049346
C 3.009133 0.459518 0.497049
C 3.473460 0.014097 0.499536
C 3.527628 0.532369 0.028596
C 3.329702 0.274266 0.252153
C 3.312311 0.796812 0.778472
C 3.784911 0.198457 0.768029
C 3.789915 0.768120 0.217533
C 4.074155 0.092409 0.016874
C 4.072507 0.505974 0.485813
C 4.457304 0.010072 0.564737
C 4.496302 0.485550 0.003482
C 4.282571 0.341635 0.241594
C 4.340757 0.734147 0.750553
C 4.760750 0.273027 0.808330
C 4.740247 0.812947 0.230023
C 4.989636 0.075816 0.029828
C 4.939361 0.503824 0.505420
C 5.502793 0.098305 0.479240
C 5.416200 0.490244 0.079893
C 5.234513 0.202656 0.243204
C 5.242271 0.762248 0.777984
C 5.692070 0.271289 0.826222
C 5.712757 0.705309 0.217786
C 0.031715 0.952923 0.026216
C 0.062638 1.551204 0.483557
C 0.479425 1.000816 0.539245
C 0.544322 1.483527 0.056932
C 0.218967 1.286437 0.303799
C 0.327063 1.766034 0.775990
C 0.680751 1.213018 0.749450
C 0.752328 1.725606 0.271377
C 1.083695 0.936508 0.015063
C 0.986683 1.488226 0.419919
C 1.499589 0.960165 0.519926
C 1.472357 1.512927 0.003374
C 1.260142 1.271997 0.214275
C 1.185267 1.767769 0.727782
C 1.776292 1.236906 0.717003
C 1.739221 1.830480 0.297911
C 2.015921 0.984851 0.063377
C 1.920739 1.540275 0.517822
C 2.510423 1.019184 0.482234
C 2.533183 1.554698 0.000364
C 2.275939 1.288955 0.188389
C 2.317061 1.772297 0.709421
C 2.735301 1.194537 0.728009
C 2.735810 1.743503 0.254544
C 3.051613 1.039614 0.046180
C 2.958312 1.456656 0.530707
C 3.517589 1.003640 0.509247
C 3.509562 1.493816 0.039788
C 3.309795 1.242431 0.212046
C 3.299501 1.765506 0.786086
C 3.688550 1.181280 0.753721
C 3.670039 1.733364 0.282452
C 4.060492 1.006321 0.004022
C 3.917576 1.554631 0.518774
C 4.477292 1.027765 0.485236
C 4.495419 1.465602 0.045634
C 4.300862 1.295079 0.306342
C 4.265843 1.699992 0.793027
C 4.765419 1.220010 0.759755
C 4.720865 1.739935 0.242101
C 5.055757 0.958306 0.048691
C 4.985229 1.424074 0.522024
C 5.437558 0.923380 0.521839
C 5.489121 1.473396 0.060752
C 5.253744 1.221134 0.239109
C 5.260211 1.750833 0.750020
C 5.664968 1.187797 0.742099
C 5.727886 1.718787 0.192779
C 0.011416 1.920582 0.040127
C 0.035315 2.537239 0.499135
C 0.444085 2.007569 0.464052
C 0.553127 2.532909 0.055661
C 0.296251 2.317818 0.239419
C 0.259612 2.670853 0.755094
C 0.703396 2.269793 0.715108
C 0.701154 2.731335 0.305439
C 1.044758 2.056851 0.067070
C 1.005459 2.502677 0.504732
C 1.477874 1.979501 0.445688
C 1.573112 2.458848 0.021563
C 1.277655 2.273174 0.273617
C 1.227628 2.791338 0.830818
C 1.752175 2.323197 0.722670
C 1.741541 2.688166 0.296044
C 2.039502 2.021602 0.009449
C 1.983936 2.431673 0.482001
C 2.519373 1.956350 0.478724
C 2.486481 2.607563 0.076510
C 2.264377 2.314033 0.205210
C 2.313409 2.729109 0.765464
C 2.715624 2.203271 0.693403
C 2.760441 2.717288 0.209619
C 2.920463 2.021863 0.026498
C 3.036471 2.542562 0.535873
C 3.463428 1.944681 0.503017
C 3.498006 2.410145 0.042125
C 3.219681 2.179257 0.292873
C 3.255562 2.683155 0.795721
C 3.687138 2.180303 0.786586
C 3.785181 2.745492 0.250323
C 3.936747 2.039709 0.082790
C 3.990739 2.519077 0.462367
C 4.515662 2.076863 0.447893
C 4.445718 2.554527 0.007609
C 4.203798 2.258783 0.273436
C 4.308235 2.754666 0.732687
C 4.763220 2.257555 0.757040
C 4.771037 2.821162 0.227824
C 5.060376 2.025895 0.005927
C 5.012819 2.476518 0.486345
C 5.569847 2.021985 0.561912
C 5.570351 2.520030 0.026294
C 5.253015 2.211181 0.315711
C 5.172324 2.732290 0.730426
C 5.651941 2.261463 0.756922
C 5.678081 2.802582 0.239239
C 0.022845 3.010749 0.032795
C 0.076188 3.511536 0.554337
C 0.436627 3.009074 0.483004
C 0.458631 3.502222 0.025974
C 0.259306 3.321337 0.305962
C 0.314491 3.782164 0.672978
C 0.803015 3.312076 0.762620
C 0.728757 3.798917 0.253687
C 0.984110 2.996710 0.070977
C 1.026028 3.531154 0.475891
C 1.523216 3.044200 0.467141
C 1.492062 3.506838 0.047808
C 1.263917 3.227749 0.245103
C 1.246648 3.825950 0.792289
C 1.775818 3.247388 0.734353
C 1.751355 3.691838 0.224788
C 1.932906 2.956689 0.056791
C 2.039697 3.473685 0.548422
C 2.566374 3.004776 0.478715
C 2.539507 3.562988 0.019505
C 2.250006 3.276300 0.221083
C 2.192463 3.736653 0.733601
C 2.668155 3.213376 0.770220
C 2.818172 3.746312 0.293028
C 3.016585 2.904090 0.071260
C 3.063410 3.527666 0.488720
C 3.442355 3.029912 0.472027
C 3.573310 3.505499 0.023219
C 3.273609 3.275683 0.161638
C 3.174520 3.741192 0.736496
C 3.692128 3.250592 0.734214
C 3.749505 3.681152 0.294713
C 3.974560 3.008106 0.052939
C 4.022415 3.499013 0.413705
C 4.517064 2.999800 0.579544
C 4.479750 3.534372 0.020996
C 4.200041 3.182800 0.271350
C 4.236873 3.763668 0.828018
C 4.753234 3.283954 0.740091
C 4.735904 3.709205 0.216944
C 4.962554 3.062112 0.018323
C 4.938462 3.446154 0.490844
C 5.516789 3.054860 0.494583
C 5.483642 3.463837 0.053943
C 5.195689 3.288625 0.262705
C 5.262448 3.756519 0.753429
C 5.748769 3.142459 0.788473
C 5.705605 3.817360 0.229672
C 0.064432 3.920095 0.040476
C 0.012031 4.487159 0.440390
C 0.555576 4.037244 0.548731
C 0.470043 4.565012 0.012680
C 0.260508 4.309879 0.261687
C 0.222109 4.712937 0.826387
C 0.747532 4.247523 0.796877
C 0.682038 4.801502 0.240411
C 1.029142 4.033400 0.009839
C 0.979605 4.479528 0.526779
C 1.492696 3.996326 0.575019
C 1.428093 4.457424 0.002482
C 1.313053 4.212469 0.252957
C 1.226493 4.750507 0.702035
C 1.715672 4.228661 0.693924
C 1.724904 4.783857 0.211581
C 2.059740 3.996106 0.006413
C 1.972606 4.536916 0.560553
C 2.467031 3.939094 0.517185
C 2.444641 4.503190 0.055741
C 2.295103 4.226498 0.201388
C 2.258704 4.737674 0.742173
C 2.758983 4.275321 0.764682
C 2.735642 4.832310 0.250619
C 2.996065 4.022948 0.102984
C 3.055012 4.476371 0.536543
C 3.491763 4.016923 0.505255
C 3.505099 4.570038 0.064919
C 3.222320 4.240960 0.287785
C 3.224794 4.731719 0.771910
C 3.718671 4.312709 0.784495
C 3.830709 4.722768 0.245083
C 4.023655 4.087529 0.024255
C 4.000076 4.459665 0.512293
C 4.502099 4.069921 0.459941
C 4.536272 4.463720 0.105043
C 4.224020 4.256419 0.299766
C 4.264298 4.768774 0.788861
C 4.735738 4.249160 0.662647
C 4.731018 4.725847 0.222623
C 4.978456 3.983807 0.003296
C 4.984647 4.493111 0.571497
C 5.561954 3.997848 0.540398
C 5.488371 4.450804 0.039561
C 5.177657 4.235736 0.284482
C 5.242982 4.792280 0.742347
C 5.747279 4.215162 0.761177
C 5.725822 4.743507 0.205508
C 0.003364 4.949190 0.014279
C 0.052551 5.537172 0.438632
C 0.531622 4.997429 0.583288
C 0.587194 5.557883 0.005179
C 0.273858 5.178406 0.195212
C 0.272091 5.738109 0.805535
C 0.788604 5.274637 0.725842
C 0.779789 5.717200 0.328687
C 0.929876 4.988038 0.017404
C 0.977969 5.483846 0.501390
C 1.503357 4.978444 0.535318
C 1.508941 5.514080 0.085316
C 1.251588 5.264935 0.162455
C 1.158838 5.729710 0.703488
C 1.754195 5.244351 0.819494
C 1.729627 5.723763 0.331471
C 2.011940 4.970162 0.010302
C 2.009980 5.568830 0.519054
C 2.471022 4.960027 0.478190
C 2.496502 5.399074 0.047722
C 2.256391 5.178922 0.234306
C 2.307421 5.734826 0.652721
C 2.759284 5.243565 0.710568
C 2.708858 5.721654 0.280757
C 3.032273 4.911354 0.017369
C 3.054334 5.467712 0.515313
C 3.572507 5.022568 0.445337
C 3.464610 5.420702 0.041031
C 3.217102 5.312837 0.232699
C 3.307021 5.674214 0.784531
C 3.787590 5.323122 0.766903
C 3.726769 5.687186 0.304137
C 3.944127 5.015191 0.093454
C 3.995428 5.517985 0.443198
C 4.489051 4.912601 0.542803
C 4.511367 5.405991 0.002256
C 4.275086 5.267959 0.250928
C 4.224733 5.735357 0.795328
C 4.759572 5.246816 0.808014
C 4.696204 5.700273 0.171531
C 5.112973 4.987648 0.042511
C 4.991472 5.574854 0.499159
C 5.545088 4.956017 0.538369
C 5.529083 5.429316 0.053184
C 5.289637 5.238374 0.218248
C 5.247835 5.744803 0.828799
C 5.701135 5.277400 0.771780
C 5.690557 5.692926 0.243220
C 0.039656 0.084615 1.021791
C 0.022119 0.568006 1.412514
C 0.493263 0.036335 1.424519
C 0.546944 0.525115 0.988481
C 0.252398 0.237031 1.294332
C 0.231516 0.692346 1.747190
C 0.777721 0.303705 1.732288
C 0.777080 0.734703 1.160514
C 0.983278 0.021877 1.097056
C 1.028948 0.527036 1.504684
C 1.570120 0.049390 1.546169
C 1.541072 0.421299 0.982495
C 1.325289 0.274575 1.237764
C 1.241281 0.740096 1.719652
C 1.851646 0.255929 1.713434
C 1.723509 0.829608 1.271952
C 1.994659 0.042137 0.931469
C 2.059909 0.472572 1.425456
C 2.500640 0.052836 1.555920
C 2.518294 0.432041 0.947867
C 2.312006 0.280635 1.284682
C 2.275413 0.857252 1.736143
C 2.767399 0.180867 1.794612
C 2.677942 0.714578 1.211791
C 2.994113 0.000637 0.974037
C 3.059146 0.415605 1.498756
C 3.435257 0.040132 1.504190
C 3.538970 0.567628 0.964989
C 3.189130 0.186045 1.272384
C 3.261223 0.706441 1.688105
C 3.773357 0.252842 1.775698
C 3.713183 0.736816 1.290193
C 4.078175 0.044201 0.949059
C 3.957985 0.532647 1.489848
C 4.491839 0.080829 1.471339
C 4.512479 0.479397 0.946704
C 4.244772 0.223228 1.201884
C 4.311210 0.734535 1.730448
C 4.807799 0.286614 1.724006
C 4.739417 0.743114 1.246883
C 4.966808 0.037168 0.922701
C 4.953487 0.511925 1.407359
C 5.461248 0.054486 1.505386
C 5.466780 0.536140 0.950357
C 5.253441 0.272702 1.203941
C 5.296194 0.764886 1.694722
C 5.692915 0.219154 1.740090
C 5.692992 0.726763 1.254823
C 0.063519 0.917401 1.024341
C 0.007523 1.489016 1.457758
C 0.508690 0.977698 1.500558
C 0.540087 1.488749 0.928721
C 0.165619 1.245678 1.235968
C 0.305218 1.728444 1.710823
C 0.679058 1.248381 1.754789
C 0.772276 1.792035 1.241290
C 0.972706 0.990897 1.056408
C 0.959648 1.454680 1.559239
C 1.543808 1.071752 1.546413
C 1.459960 1.434558 0.936025
C 1.301224 1.266342 1.293805
C 1.278751 1.814278 1.768163
C 1.728325 1.264267 1.821756
C 1.717547 1.789984 1.176560
C 1.995744 1.060521 0.993162
C 2.042553 1.447063 1.453962
C 2.398648 1.003120 1.477468
C 2.460101 1.414085 0.976466
C 2.238926 1.300215 1.195861
C 2.338827 1.735895 1.720002
C 2.801965 1.247197 1.702773
C 2.679273 1.782934 1.205028
C 2.989985 0.959507 1.018375
C 2.969565 1.535735 1.524799
C 3.532445 0.989359 1.497023
C 3.490056 1.455151 1.057222
C 3.244426 1.237259 1.194737
C 3.311599 1.787798 1.729493
C 3.746147 1.289232 1.803649
C 3.734202 1.719564 1.224304
C 3.932282 0.980296 0.938629
C 4.000157 1.495432 1.533656
C 4.546118 1.054055 1.471953
C 4.460285 1.524176 1.028307
C 4.271129 1.260320 1.232918
C 4.171562 1.752499 1.714508
C 4.802321 1.207551 1.750130
C 4.740135 1.732528 1.182202
C 5.028080 1.027229 1.001544
C 4.958254 1.506844 1.444175
C 5.501335 0.990837 1.441312
C 5.516030 1.525425 1.050620
C 5.239893 1.227903 1.237676
C 5.181440 1.684558 1.714470
C 5.722681 1.288725 1.664032
C 5.708061 1.666152 1.314704
C 0.013031 2.034071 0.963715
C 0.011289 2.503906 1.537079
C 0.528140 2.029775 1.494030
C 0.591917 2.482830 1.030962
C 0.250374 2.208089 1.255053
C 0.226950 2.741779 1.807495
C 0.821799 2.283681 1.727048
C 0.825958 2.758347 1.260332
C 1.056466 2.004986 0.977110
C 0.968033 2.534365 1.491304
C 1.492737 2.045695 1.484833
C 1.547711 2.514770 1.017783
C 1.225552 2.339444 1.225329
C 1.249044 2.709317 1.725831
C 1.828110 2.253991 1.736116
C 1.697432 2.738846 1.313673
C 2.001464 1.989063 1.050450
C 2.025412 2.517077 1.451716
C 2.479706 1.937727 1.482892
C 2.406179 2.506088 1.027510
C 2.274831 2.234688 1.231914
C 2.236420 2.760704 1.692051
C 2.781447 2.301209 1.682996
C 2.722104 2.810657 1.265078
C 2.930838 1.986120 1.044871
C 3.073739 2.464914 1.545067
C 3.568258 1.936800 1.482005
C 3.460666 2.425292 0.969642
C 3.229949 2.173761 1.179652
C 3.184892 2.735658 1.796791
C 3.768703 2.334430 1.812219
C 3.785073 2.727091 1.302226
C 4.053711 2.005974 0.924215
C 3.979298 2.481760 1.451229
C 4.482495 1.941185 1.520415
C 4.517662 2.462756 0.917022
C 4.236682 2.302849 1.269935
C 4.323734 2.779287 1.805606
C 4.706017 2.215806 1.727194
C 4.706799 2.841762 1.269131
C 5.006467 1.980554 0.981804
C 4.944589 2.505699 1.461425
C 5.433223 1.984369 1.494541
C 5.565014 2.496598 1.010596
C 5.257157 2.203352 1.193744
C 5.240918 2.703193 1.801239
C 5.741154 2.206240 1.739697
C 5.736050 2.796730 1.211490
C 0.012557 2.969552 0.955822
C 0.041656 3.509155 1.495739
C 0.548383 3.022808 1.453782
C 0.549978 3.567006 1.056921
C 0.310847 3.243437 1.177262
C 0.258400 3.690275 1.741705
C 0.703871 3.309160 1.685520
C 0.790297 3.823903 1.262021
C 0.961110 3.055960 0.975430
C 1.038266 3.453580 1.467871
C 1.458941 2.955167 1.508673
C 1.544617 3.515020 1.058198
C 1.223556 3.227930 1.248189
C 1.215106 3.800816 1.702929
C 1.800268 3.168357 1.764192
C 1.776564 3.713607 1.235299
C 1.995601 3.077442 0.952569
C 2.022027 3.421762 1.555569
C 2.571357 2.979714 1.518293
C 2.520448 3.469486 1.044645
C 2.204991 3.311257 1.241114
C 2.197663 3.702970 1.710899
C 2.694856 3.243172 1.703656
C 2.761493 3.711487 1.259450
C 3.071039 2.936106 1.018800
C 2.997122 3.493489 1.550150
C 3.529805 3.039999 1.534264
C 3.484638 3.557216 0.969084
C 3.246388 3.243314 1.203838
C 3.245828 3.759221 1.782487
C 3.793797 3.308363 1.780970
C 3.755409 3.677807 1.219552
C 3.962773 3.038033 0.971050
C 3.959110 3.572988 1.452243
C 4.524950 3.063995 1.513258
C 4.561703 3.534587 0.989201
C 4.201638 3.194698 1.183412
C 4.222701 3.722364 1.664103
C 4.804252 3.230779 1.714147
C 4.746255 3.774487 1.242689
C 4.943509 3.011205 1.048508
C 4.963434 3.485614 1.570048
C 5.504694 3.078505 1.492057
C 5.439476 3.527139 1.034171
C 5.235704 3.281813 1.205615
C 5.285800 3.767311 1.807324
C 5.715283 3.227585 1.722307
C 5.682917 3.753854 1.246678
C 0.079725 3.969476 1.022457
C 0.003271 4.460646 1.602709
C 0.533427 3.937025 1.420602
C 0.526232 4.572190 0.998032
C 0.333086 4.222542 1.259821
C 0.210299 4.729798 1.780520
C 0.810191 4.210542 1.740790
C 0.772980 4.712017 1.187803
C 1.012099 4.011228 1.001766
C 1.056322 4.445852 1.516272
C 1.506259 3.971563 1.588969
C 1.480332 4.527290 1.039444
C 1.323380 4.248140 1.211271
C 1.283357 4.722979 1.745548
C 1.754109 4.218028 1.778018
C 1.826063 4.698791 1.278662
C 2.042689 4.053123 0.982716
C 2.065855 4.530356 1.469293
C 2.505364 4.053030 1.548601
C 2.551223 4.464480 1.002502
C 2.285096 4.221292 1.273292
C 2.250279 4.709614 1.733195
C 2.720575 4.246758 1.786644
C 2.776556 4.840484 1.273818
C 2.975402 4.047869 1.014347
C 2.954862 4.530360 1.563469
C 3.476116 4.042091 1.470201
C 3.492523 4.539002 0.946905
C 3.227272 4.252360 1.319123
C 3.201107 4.735958 1.678979
C 3.805119 4.263079 1.779624
C 3.711695 4.786606 1.225276
C 3.932115 3.921338 1.014635
C 3.982898 4.472918 1.458552
C 4.431303 4.036479 1.495500
C 4.488720 4.477146 1.042454
C 4.215633 4.250304 1.215823
C 4.300022 4.760220 1.778584
C 4.727976 4.178379 1.708651
C 4.705864 4.733229 1.271119
C 5.008068 4.066191 0.994825
C 5.075166 4.518583 1.501054
C 5.483824 3.966803 1.456123
C 5.532361 4.459601 1.007392
C 5.296648 4.313679 1.235813
C 5.257527 4.794553 1.805869
C 5.717157 4.279180 1.784290
C 5.731742 4.693070 1.288506
C 0.010634 4.948830 0.975746
C 0.082953 5.518643 1.572687
C 0.542444 4.922000 1.488878
C 0.479262 5.460277 1.007573
C 0.244040 5.192979 1.262148
C 0.314784 5.712932 1.764153
C 0.819267 5.283265 1.715995
C 0.779681 5.732750 1.259066
C 1.026805 5.052807 0.990042
C 0.943568 5.437976 1.424147
C 1.473616 4.963176 1.474336
C 1.501889 5.510484 0.942258
C 1.220619 5.290301 1.266175
C 1.189745 5.734629 1.659985
C 1.672053 5.231632 1.749201
C 1.705154 5.749605 1.156511
C 2.011834 4.940475 1.023801
C 1.961505 5.465010 1.481027
C 2.477063 4.981821 1.460008
C 2.513864 5.459036 0.997662
C 2.301198 5.246563 1.272994
C 2.238051 5.681737 1.757641
C 2.726266 5.263657 1.761081
C 2.719819 5.730867 1.285356
C 2.977330 4.958361 0.941007
C 3.068140 5.470603 1.527386
C 3.470663 4.990599 1.541974
C 3.570068 5.535302 1.016236
C 3.194831 5.276499 1.277371
C 3.290523 5.736445 1.832900
C 3.749911 5.244236 1.835761
C 3.748319 5.697871 1.291672
C 4.034059 4.979194 0.936434
C 4.077146 5.499601 1.512249
C 4.528966 5.084258 1.463363
C 4.582255 5.494815 0.989747
C 4.133125 5.221219 1.240270
C 4.269439 5.700970 1.751354
C 4.741096 5.253371 1.706735
C 4.738063 5.710719 1.283448
C 4.972833 4.947890 1.035093
C 4.993430 5.536369 1.441702
C 5.515688 4.948841 1.512024
C 5.496222 5.525163 0.893152
C 5.230829 5.226132 1.206319
C 5.189142 5.714421 1.761374
C 5.714004 5.214983 1.805866
C 5.686324 5.739120 1.151738
C 0.157674 0.002015 1.961031
C 0.007338 0.486427 2.487262
C 0.444885 0.062188 2.494347
C 0.458473 0.494506 1.945991
C 0.260344 0.186055 2.241201
C 0.242203 0.784334 2.781755
C 0.764187 0.295274 2.744828
C 0.725607 0.773119 2.307480
C 0.937856 0.079789 2.004104
C 1.068306 0.491361 2.478928
C 1.434734 0.000147 2.564894
C 1.535761 0.477360 1.940107
C 1.283487 0.208259 2.306109
C 1.240223 0.684940 2.758552
C 1.705165 0.247080 2.768269
C 1.752807 0.793625 2.181666
C 1.936565 0.009030 1.940626
C 1.968777 0.489744 2.475711
C 2.493090 0.032714 2.420034
C 2.448402 0.552317 2.015391
C 2.217231 0.283159 2.287805
C 2.298045 0.729617 2.804713
C 2.757554 0.235949 2.782183
C 2.771878 0.767824 2.250637
C 3.006348 0.003499 2.071730
C 2.923579 0.506072 2.454859
C 3.568545 0.001773 2.425553
C 3.515021 0.487418 2.000975
C 3.293227 0.275481 2.203150
C 3.304494 0.754604 2.736701
C 3.789453 0.249842 2.817364
C 3.756222 0.801042 2.195812
C 3.970215 0.048105 1.994771
C 3.953372 0.473481 2.531790
C 4.554762 0.015103 2.619775
C 4.544251 0.513080 2.069255
C 4.262566 0.247603 2.269452
C 4.268411 0.773337 2.697155
C 4.797265 0.251415 2.765747
C 4.846240 0.781130 2.245151
C 5.055108 0.012535 1.925857
C 4.924349 0.510077 2.527068
C 5.495671 0.017523 2.551951
C 5.526511 0.451575 1.958145
C 5.195474 0.230174 2.278552
C 5.218628 0.857774 2.713059
C 5.748614 0.235283 2.702407
C 5.725473 0.707476 2.214001
C 0.020050 1.028338 2.019272
C 0.004607 1.488555 2.510112
C 0.454582 0.983798 2.474240
C 0.570862 1.535695 1.988673
C 0.262881 1.228363 2.208439
C 0.195124 1.795468 2.758776
C 0.708518 1.251955 2.762702
C 0.725872 1.666672 2.242827
C 0.986306 0.961048 1.955263
C 0.923766 1.525195 2.543430
C 1.495594 1.081097 2.551377
C 1.485692 1.495525 2.022231
C 1.252274 1.258050 2.352674
C 1.207261 1.802603 2.787120
C 1.782618 1.246901 2.755576
C 1.739473 1.777886 2.288862
C 1.998767 0.983763 2.053155
C 1.957370 1.522233 2.534077
C 2.516907 1.040616 2.499016
C 2.472868 1.402708 1.996192
C 2.290596 1.288321 2.273505
C 2.280268 1.695285 2.682266
C 2.736768 1.326420 2.759993
C 2.776219 1.738040 2.304896
C 3.073844 0.961845 1.994279
C 2.998613 1.489653 2.482666
C 3.460754 0.991110 2.424332
C 3.521219 1.535060 2.001603
C 3.287721 1.269018 2.325558
C 3.229169 1.808376 2.671903
C 3.792950 1.235991 2.810804
C 3.717237 1.770918 2.216581
C 3.945062 0.958103 1.929164
C 4.006531 1.587670 2.519702
C 4.502569 1.071027 2.567145
C 4.563477 1.458588 2.000759
C 4.199283 1.285812 2.286809
C 4.232025 1.689047 2.760377
C 4.774443 1.251484 2.761588
C 4.749645 1.734892 2.202865
C 5.034144 1.009375 2.045256
C 4.990456 1.567819 2.497242
C 5.448583 1.002597 2.495566
C 5.475676 1.500948 2.021043
C 5.203305 1.272843 2.229697
C 5.328157 1.802728 2.761979
C 5.698788 1.189338 2.713479
C 5.671983 1.741078 2.286325
C 0.009465 2.013517 2.072766
C 0.011370 2.565576 2.442373
C 0.531537 1.937293 2.431714
C 0.478161 2.549870 1.979047
C 0.262079 2.298091 2.182484
C 0.249677 2.725114 2.668540
C 0.741877 2.298675 2.806093
C 0.694291 2.796810 2.209112
C 1.066296 2.069208 2.006074
C 1.005240 2.472796 2.419964
C 1.495943 1.981241 2.443586
C 1.514673 2.487606 1.987462
C 1.213483 2.158336 2.271908
C 1.211549 2.791857 2.841214
C 1.757137 2.235079 2.762642
C 1.741019 2.756143 2.290666
C 1.945975 1.946676 1.994080
C 2.040254 2.544899 2.503587
C 2.503479 1.915588 2.523538
C 2.498086 2.555468 1.947265
C 2.299823 2.271200 2.261285
C 2.289785 2.717654 2.732739
C 2.782867 2.300215 2.698652
C 2.746555 2.717731 2.191240
C 3.065647 2.058434 1.985278
C 2.984439 2.489296 2.409471
C 3.496131 2.023911 2.488945
C 3.511674 2.443961 1.947432
C 3.265985 2.274519 2.208921
C 3.296067 2.732348 2.782461
C 3.724368 2.319189 2.736385
C 3.723873 2.784914 2.299797
C 4.019478 2.013212 1.996162
C 4.045631 2.453353 2.418781
C 4.531022 2.035260 2.461175
C 4.539750 2.488582 2.035342
C 4.268674 2.168893 2.234955
C 4.266437 2.806790 2.771339
C 4.783996 2.204927 2.762636
C 4.696452 2.745006 2.271569
C 4.987327 1.975437 2.066798
C 4.973250 2.512135 2.434579
C 5.460891 1.981996 2.478321
C 5.519196 2.415782 1.956845
C 5.326309 2.267293 2.224147
C 5.187984 2.731841 2.750224
C 5.668743 2.246837 2.727911
C 5.703898 2.763551 2.281106
C 0.033682 2.973444 2.122953
C 0.055882 3.512624 2.425502
C 0.460776 2.976890 2.534275
C 0.477569 3.435450 2.057152
C 0.263475 3.216561 2.303760
C 0.258538 3.695091 2.819381
C 0.710559 3.329572 2.762005
C 0.727422 3.707935 2.248327
C 0.983955 2.987832 1.928180
C 1.065178 3.508577 2.429286
C 1.521420 3.031218 2.576109
C 1.515860 3.537218 2.052424
C 1.226180 3.188771 2.284205
C 1.208433 3.761389 2.812551
C 1.808936 3.275300 2.696250
C 1.674305 3.816149 2.263659
C 2.000769 2.925817 1.994092
C 1.961477 3.539492 2.536807
C 2.486218 3.028810 2.476634
C 2.478913 3.496422 1.922268
C 2.208619 3.260169 2.163619
C 2.314963 3.743702 2.746150
C 2.729120 3.207130 2.680076
C 2.771483 3.689807 2.195194
C 2.996896 3.018363 1.926820
C 2.992647 3.499049 2.552941
C 3.530441 2.966198 2.534232
C 3.430974 3.471745 2.001663
C 3.293620 3.286236 2.281325
C 3.215951 3.784208 2.650036
C 3.804813 3.294698 2.739536
C 3.763750 3.704187 2.190730
C 4.024424 3.038829 1.964886
C 4.007881 3.474695 2.447703
C 4.509587 2.938119 2.517076
C 4.446169 3.427901 2.002498
C 4.197351 3.229814 2.220497
C 4.233415 3.741817 2.734233
C 4.727317 3.296373 2.729000
C 4.758408 3.764191 2.198802
C 4.963174 3.023102 1.971268
C 4.951361 3.527559 2.558321
C 5.509094 3.068798 2.444344
C 5.479121 3.509695 2.035348
C 5.219301 3.189857 2.251096
C 5.323844 3.744666 2.726778
C 5.730734 3.182646 2.784901
C 5.707853 3.724783 2.196539
C 0.000465 4.041793 2.017595
C 0.014252 4.418664 2.469482
C 0.563637 3.969024 2.477749
C 0.555179 4.519504 1.955392
C 0.227406 4.178479 2.271009
C 0.226152 4.777716 2.704627
C 0.772749 4.258256 2.822845
C 0.779521 4.710067 2.286465
C 1.002058 3.956448 1.939067
C 1.025488 4.490337 2.428864
C 1.440731 4.066877 2.467022
C 1.485240 4.456454 2.047808
C 1.257490 4.227369 2.199684
C 1.259967 4.689444 2.737688
C 1.799873 4.216237 2.697153
C 1.750967 4.706471 2.273143
C 2.022974 3.973690 1.968274
C 2.007381 4.510009 2.486850
C 2.449851 3.960416 2.497057
C 2.455036 4.462791 2.058032
C 2.329490 4.262222 2.313794
C 2.249665 4.700870 2.779132
C 2.734535 4.200169 2.716731
C 2.763632 4.824998 2.321078
C 3.036641 3.986060 1.950936
C 2.970601 4.574205 2.535545
C 3.428423 4.015859 2.532999
C 3.538243 4.528301 2.083142
C 3.165326 4.284201 2.255402
C 3.325219 4.706854 2.730180
C 3.768170 4.232819 2.796947
C 3.700886 4.730602 2.322083
C 4.029727 3.962138 2.050649
C 3.979904 4.451159 2.514616
C 4.441668 3.969362 2.500666
C 4.560245 4.473291 1.992266
C 4.288384 4.279482 2.222128
C 4.235551 4.722575 2.769738
C 4.709888 4.294776 2.709187
C 4.679869 4.699215 2.233278
C 4.931938 4.032082 1.983909
C 4.979903 4.451359 2.556108
C 5.448127 3.995154 2.514223
C 5.463491 4.529286 1.956459
C 5.309894 4.275290 2.277953
C 5.293976 4.726347 2.785102
C 5.690114 4.282651 2.761653
C 5.737801 4.623283 2.203421
C 0.081449 4.962503 1.996142
C 0.005383 5.448872 2.452863
C 0.542113 4.931347 2.488493
C 0.509946 5.435564 2.010973
C 0.268035 5.246713 2.293252
C 0.293246 5.687471 2.788052
C 0.798661 5.251417 2.698817
C 0.691289 5.709997 2.276016
C 1.058151 5.008660 1.921106
C 1.018565 5.559493 2.536280
C 1.507323 4.950774 2.440402
C 1.540684 5.530909 2.054076
C 1.220365 5.207589 2.167554
C 1.309904 5.671604 2.764603
C 1.721365 5.305609 2.800975
C 1.806097 5.652208 2.225440
C 1.945425 5.017331 1.958633
C 1.987369 5.445618 2.462494
C 2.511130 5.047625 2.510927
C 2.460836 5.408866 1.965652
C 2.259351 5.272868 2.315777
C 2.151541 5.735380 2.744188
C 2.739967 5.329458 2.683219
C 2.754239 5.701965 2.320333
C 3.000591 5.045968 2.010855
C 3.086030 5.473649 2.477544
C 3.504268 4.973233 2.576203
C 3.496427 5.462300 1.943756
C 3.270470 5.205100 2.223015
C 3.206376 5.744806 2.815868
C 3.655926 5.252474 2.768929
C 3.817688 5.726067 2.211327
C 4.069442 4.995920 1.990212
C 3.962846 5.534602 2.462917
C 4.523012 4.974391 2.476725
C 4.480448 5.459908 2.057315
C 4.325947 5.217743 2.272937
C 4.253934 5.676026 2.807484
C 4.771488 5.193564 2.714365
C 4.653528 5.729404 2.238272
C 5.026214 4.985805 2.025441
C 5.063174 5.492703 2.501797
C 5.532101 4.976966 2.494407
C 5.448777 5.531445 2.022221
C 5.230960 5.270101 2.189205
C 5.252102 5.716919 2.717155
C 5.694988 5.174975 2.762893
C 5.679073 5.727135 2.226043
C 0.090269 0.019608 2.973667
C 0.001851 0.580864 3.518165
C 0.424664 0.094703 3.501488
C 0.526976 0.500936 2.993397
C 0.267866 0.324614 3.214930
C 0.309254 0.795339 3.784733
C 0.732901 0.176231 3.787917
C 0.725667 0.772823 3.263790
C 1.055390 0.027984 2.985693
C 0.940818 0.461830 3.515503
C 1.548760 0.027850 3.563046
C 1.521933 0.508121 2.951686
C 1.252907 0.253440 3.220401
C 1.234620 0.764170 3.759824
C 1.744452 0.273307 3.697573
C 1.752882 0.779771 3.232917
C 1.965267 0.019041 2.973515
C 2.006641 0.427525 3.499111
C 2.549594 0.037781 3.482842
C 2.481718 0.436189 2.937191
C 2.308152 0.245006 3.244954
C 2.296603 0.784843 3.745895
C 2.777934 0.210610 3.695610
C 2.737440 0.744714 3.306481
C 3.028728 0.011219 3.027059
C 2.964717 0.461752 3.491512
C 3.490364 0.043030 3.490469
C 3.483146 0.545036 3.080480
C 3.179110 0.235969 3.286135
C 3.239900 0.729095 3.708097
C 3.759375 0.198719 3.686764
C 3.743085 0.741274 3.335379
C 4.047614 0.003432 3.019752
C 4.080609 0.501880 3.476932
C 4.508802 0.001995 3.499149
C 4.486632 0.540683 3.026887
C 4.235922 0.253031 3.262473
C 4.198031 0.674436 3.774335
C 4.741348 0.243356 3.731874
C 4.665222 0.798016 3.213995
C 5.047906 0.072701 3.028682
C 5.026894 0.579390 3.515427
C 5.547347 0.055268 3.541400
C 5.447583 0.557895 3.001163
C 5.173563 0.213116 3.322631
C 5.254747 0.752304 3.758555
C 5.673742 0.320287 3.678265
C 5.672339 0.768466 3.243245
C 0.022549 1.078631 2.963281
C 0.041868 1.564010 3.472940
C 0.437878 0.994126 3.455120
C 0.494449 1.518002 2.989349
C 0.213522 1.254652 3.202439
C 0.202289 1.707095 3.754837
C 0.753454 1.210567 3.785309
C 0.772772 1.672923 3.263890
C 0.946372 1.019875 3.023482
C 0.944864 1.455252 3.519271
C 1.447951 1.053900 3.520038
C 1.523607 1.530649 2.962295
C 1.232849 1.316654 3.198148
C 1.197252 1.780512 3.716755
C 1.803969 1.310677 3.760656
C 1.716341 1.687551 3.300644
C 1.937517 1.001492 2.960369
C 1.987728 1.439680 3.474203
C 2.478474 0.936146 3.492890
C 2.572914 1.506857 3.035318
C 2.240658 1.307443 3.285154
C 2.281493 1.781456 3.754317
C 2.724657 1.170782 3.709154
C 2.749403 1.768759 3.200157
C 2.975099 0.934646 2.987738
C 2.915741 1.497061 3.496313
C 3.537168 0.998931 3.460997
C 3.467392 1.460215 3.029424
C 3.318502 1.227176 3.244871
C 3.240853 1.700785 3.778847
C 3.792655 1.295646 3.771514
C 3.712362 1.788140 3.191798
C 4.020341 0.941202 3.046283
C 4.021209 1.466310 3.487438
C 4.430238 1.001756 3.516343
C 4.494887 1.463118 3.053433
C 4.233952 1.157635 3.254989
C 4.325053 1.706115 3.734172
C 4.708603 1.224165 3.717139
C 4.790716 1.740384 3.196891
C 5.080564 0.980775 2.981381
C 5.037035 1.519035 3.532668
C 5.549712 1.027268 3.500169
C 5.544373 1.564448 2.963944
C 5.172635 1.262825 3.279064
C 5.197122 1.770009 3.709761
C 5.722993 1.293519 3.719230
C 5.731941 1.790980 3.167058
C 0.033255 2.046482 3.087520
C 0.048583 2.523015 3.468014
C 0.538251 2.015862 3.504358
C 0.466842 2.500108 2.942822
C 0.275536 2.215759 3.308495
C 0.263356 2.832100 3.741049
C 0.750468 2.228937 3.813038
C 0.731712 2.828385 3.298588
C 0.969253 1.929859 3.005952
C 0.995754 2.468550 3.475776
C 1.490995 1.925450 3.511357
C 1.416457 2.552181 2.965934
C 1.271323 2.257468 3.296260
C 1.293521 2.673762 3.735826
C 1.791388 2.240885 3.779622
C 1.811704 2.772335 3.250157
C 2.043447 2.029971 3.048909
C 2.050628 2.482381 3.546889
C 2.557803 1.953641 3.442463
C 2.540156 2.523825 3.076282
C 2.240520 2.270743 3.242960
C 2.202695 2.774399 3.798745
C 2.695593 2.246917 3.701579
C 2.814168 2.773649 3.224150
C 2.988546 1.967830 2.962339
C 3.042654 2.530261 3.520709
C 3.422694 2.002664 3.503627
C 3.503978 2.527676 3.000493
C 3.289738 2.232696 3.292619
C 3.208784 2.755783 3.766480
C 3.808844 2.253889 3.799211
C 3.705567 2.794006 3.245147
C 3.966618 1.937078 2.988391
C 4.013495 2.432782 3.558237
C 4.596922 1.960290 3.547075
C 4.543763 2.504949 3.077354
C 4.212849 2.201553 3.284575
C 4.248397 2.700718 3.805652
C 4.794633 2.312924 3.689859
C 4.798027 2.783137 3.303841
C 4.968811 1.984501 2.992544
C 5.005705 2.543796 3.422088
C 5.470150 2.056121 3.460621
C 5.503390 2.521124 2.974693
C 5.201238 2.233481 3.181628
C 5.285677 2.676796 3.709857
C 5.712897 2.263815 3.813055
C 5.649541 2.762077 3.277873
C 0.039722 2.971846 2.921686
C 0.018974 3.418434 3.471093
C 0.452621 3.000187 3.471471
C 0.473799 3.465253 3.007174
C 0.288010 3.232119 3.240714
C 0.185047 3.794250 3.778949
C 0.672222 3.247330 3.698924
C 0.762302 3.788498 3.305499
C 0.994925 3.034427 3.036337
C 1.019211 3.528028 3.459430
C 1.504487 2.962443 3.509461
C 1.577142 3.476198 2.971082
C 1.299937 3.258415 3.215416
C 1.219673 3.794744 3.672277
C 1.759382 3.204562 3.739858
C 1.731088 3.704329 3.273640
C 1.994185 2.991688 3.024988
C 2.043669 3.466713 3.457510
C 2.552495 3.028374 3.539959
C 2.443346 3.506428 2.967529
C 2.165278 3.269231 3.173077
C 2.317579 3.779685 3.757329
C 2.789923 3.297280 3.740451
C 2.756142 3.773728 3.238536
C 3.016737 2.985497 2.937997
C 2.946232 3.495692 3.502811
C 3.452775 3.015368 3.562866
C 3.573593 3.428946 3.016410
C 3.188329 3.256424 3.239667
C 3.287769 3.714681 3.768833
C 3.742405 3.205893 3.796749
C 3.698706 3.778040 3.229521
C 3.965177 3.012027 3.047160
C 4.061935 3.474110 3.499677
C 4.426576 2.945778 3.540616
C 4.478648 3.525583 3.045046
C 4.265806 3.213337 3.296656
C 4.313428 3.737039 3.718063
C 4.787293 3.307630 3.707412
C 4.780721 3.752767 3.267977
C 4.999671 3.072363 3.019511
C 4.971163 3.527949 3.478279
C 5.534994 3.023344 3.499413
C 5.499606 3.499448 2.964643
C 5.227624 3.289240 3.202530
C 5.223560 3.732812 3.782345
C 5.691160 3.305360 3.754683
C 5.690411 3.724174 3.240166
C 0.001592 4.027587 2.930993
C 0.002244 4.547375 3.538992
C 0.486161 3.978674 3.572710
C 0.454168 4.569669 3.041012
C 0.164002 4.180360 3.249903
C 0.178873 4.781956 3.758115
C 0.820600 4.260283 3.790868
C 0.818245 4.739143 3.241275
C 0.984310 3.993236 2.918784
C 0.978110 4.458357 3.550136
C 1.467876 3.990918 3.543742
C 1.480057 4.575856 2.977642
C 1.216507 4.204477 3.306064
C 1.232956 4.732719 3.810789
C 1.712769 4.173030 3.717873
C 1.690069 4.681076 3.288994
C 2.002856 4.030826 2.993589
C 1.949657 4.505905 3.447628
C 2.510066 3.997783 3.516646
C 2.458705 4.522211 3.060862
C 2.268462 4.262139 3.256177
C 2.315213 4.743615 3.741166
C 2.767814 4.246922 3.810282
C 2.745477 4.790378 3.243939
C 2.980748 4.031339 2.982366
C 3.041325 4.501770 3.483969
C 3.420611 3.987005 3.521082
C 3.537736 4.475404 2.941798
C 3.183846 4.259305 3.217277
C 3.258712 4.699489 3.707915
C 3.815744 4.262735 3.788802
C 3.723113 4.726555 3.272757
C 4.014380 3.954834 2.969881
C 3.950759 4.494320 3.490994
C 4.503894 3.998574 3.539848
C 4.463257 4.561957 2.987127
C 4.310404 4.257940 3.299293
C 4.256779 4.784428 3.767030
C 4.809825 4.208548 3.743291
C 4.763497 4.722684 3.194229
C 4.934909 3.974475 3.018522
C 5.064108 4.550933 3.457542
C 5.544816 3.955192 3.510769
C 5.484644 4.477304 2.982746
C 5.273264 4.268591 3.318596
C 5.255061 4.730535 3.765635
C 5.690571 4.176233 3.736076
C 5.705005 4.839350 3.245399
C 0.026020 4.952543 2.995716
C 0.021878 5.491141 3.480534
C 0.456391 4.921490 3.527733
C 0.537100 5.421085 3.009848
C 0.209289 5.271978 3.224664
C 0.259712 5.734907 3.782724
C 0.775109 5.306485 3.711361
C 0.717955 5.660961 3.251682
C 1.040388 5.012694 3.033649
C 1.052449 5.509741 3.474637
C 1.445674 5.039442 3.497945
C 1.578023 5.503826 3.075870
C 1.202111 5.305367 3.234845
C 1.252310 5.702507 3.697722
C 1.655715 5.293624 3.766099
C 1.833361 5.731789 3.188454
C 2.053522 5.040495 2.954718
C 1.959715 5.458605 3.504197
C 2.455080 4.989388 3.554678
C 2.442732 5.476612 2.933049
C 2.276070 5.288459 3.227473
C 2.256195 5.710892 3.790621
C 2.766281 5.313815 3.742553
C 2.664102 5.748797 3.219732
C 2.996055 4.987969 2.945385
C 2.981517 5.537878 3.450177
C 3.461591 4.978597 3.474871
C 3.457983 5.452467 2.992487
C 3.226163 5.296798 3.205385
C 3.201813 5.741366 3.833330
C 3.698773 5.299534 3.731875
C 3.820949 5.684255 3.286291
C 3.918411 5.031690 3.009014
C 3.995135 5.508015 3.546613
C 4.509087 5.021125 3.432522
C 4.546341 5.564488 2.974997
C 4.253916 5.281388 3.201125
C 4.243422 5.723159 3.737817
C 4.748385 5.224519 3.775879
C 4.751885 5.688584 3.261520
C 4.985169 5.062891 2.957251
C 5.012547 5.596744 3.470571
C 5.474991 4.992978 3.569823
C 5.565780 5.439395 2.962725
C 5.315437 5.328900 3.275285
C 5.273031 5.733570 3.770717
C 5.699039 5.311093 3.743847
C 5.710695 5.672791 3.253299
C 0.068830 0.015201 3.952182
C 0.029811 0.567736 4.533156
C 0.471919 0.052211 4.527725
C 0.507062 0.499363 4.038353
C 0.327846 0.209455 4.260999
C 0.238781 0.827796 4.767248
C 0.708673 0.231904 4.792594
C 0.692835 0.785658 4.217801
C 1.042957 0.032676 4.021322
C 1.001937 0.524616 4.553190
C 1.494979 0.048667 4.575002
C 1.488982 0.516589 3.975150
C 1.292587 0.232770 4.221322
C 1.245749 0.740759 4.720732
C 1.731067 0.294280 4.759545
C 1.812821 0.725349 4.245794
C 2.038338 0.012339 3.992983
C 2.012409 0.506994 4.569431
C 2.489410 0.022686 4.538305
C 2.506670 0.506214 4.076262
C 2.272778 0.221337 4.250695
C 2.174976 0.730598 4.792706
C 2.791184 0.309336 4.788118
C 2.702381 0.779333 4.251736
C 3.016364 0.050284 4.004703
C 3.008328 0.508270 4.488554
C 3.479010 0.035970 4.551176
C 3.461131 0.518106 4.024892
C 3.284045 0.206218 4.275301
C 3.241329 0.764089 4.672604
C 3.763987 0.218696 4.768978
C 3.734387 0.766426 4.296756
C 3.950067 0.091354 4.006299
C 3.940924 0.522085 4.535931
C 4.536548 0.008181 4.516056
C 4.489989 0.496189 3.945485
C 4.166963 0.229504 4.232043
C 4.291195 0.808096 4.729085
C 4.717257 0.339530 4.741163
C 4.750012 0.671851 4.244353
C 4.916327 0.067728 4.040632
C 5.042542 0.516619 4.495748
C 5.540909 0.010541 4.567223
C 5.507087 0.516793 3.950992
C 5.221653 0.264738 4.283651
C 5.234229 0.699146 4.736103
C 5.744986 0.222438 4.788862
C 5.721692 0.815056 4.268593
C 0.073318 0.992905 3.949294
C 0.085767 1.489793 4.479643
C 0.525317 1.047843 4.529821
C 0.529806 1.458149 3.975697
C 0.294890 1.259061 4.256894
C 0.245891 1.686848 4.749391
C 0.754514 1.216318 4.773909
C 0.757455 1.790107 4.293391
C 0.931765 0.979198 4.037051
C 0.968417 1.407457 4.554934
C 1.538147 1.027352 4.440311
C 1.490076 1.496725 3.957727
C 1.237453 1.301036 4.311870
C 1.189112 1.753178 4.808501
C 1.800704 1.216782 4.698768
C 1.729208 1.830090 4.239875
C 2.059722 1.011571 4.016282
C 2.034995 1.442498 4.540315
C 2.532027 0.923246 4.532226
C 2.540617 1.530529 3.997494
C 2.293816 1.241059 4.272144
C 2.299085 1.691924 4.771123
C 2.753377 1.327106 4.779224
C 2.737480 1.747793 4.207241
C 2.958511 1.071007 3.983041
C 3.029489 1.476205 4.427414
C 3.485857 0.955517 4.493891
C 3.537548 1.483159 3.942816
C 3.195064 1.212585 4.301589
C 3.281244 1.810631 4.751913
C 3.733343 1.175350 4.793374
C 3.737125 1.686906 4.217976
C 3.951535 1.008235 4.000672
C 3.988564 1.445274 4.590106
C 4.535339 0.984552 4.553472
C 4.532241 1.534078 4.042738
C 4.265215 1.229795 4.303687
C 4.228079 1.723317 4.748054
C 4.730491 1.319198 4.696248
C 4.751174 1.722426 4.269467
C 4.976853 1.048865 4.010027
C 4.989890 1.507140 4.488481
C 5.461424 1.003206 4.487713
C 5.566751 1.524683 3.969872
C 5.242454 1.267604 4.256997
C 5.252056 1.796367 4.691790
C 5.725615 1.159475 4.748423
C 5.708606 1.730488 4.241995
C 0.022436 1.954875 3.914791
C 0.010097 2.486188 4.568273
C 0.466612 2.064247 4.433291
C 0.458403 2.489570 3.938483
C 0.198022 2.272314 4.312709
C 0.184643 2.767001 4.725040
C 0.723962 2.229181 4.668791
C 0.776292 2.768697 4.276802
C 0.957745 1.967912 4.016856
C 0.946700 2.534857 4.492655
C 1.510858 2.055645 4.538234
C 1.464815 2.533827 4.015365
C 1.218951 2.264134 4.316942
C 1.295185 2.812635 4.741512
C 1.834868 2.302943 4.777331
C 1.754954 2.700623 4.173949
C 1.991263 2.027689 3.989662
C 1.919514 2.472808 4.481314
C 2.500414 1.973819 4.567256
C 2.443053 2.499952 3.960040
C 2.266089 2.252399 4.196884
C 2.251714 2.660009 4.715870
C 2.737401 2.223744 4.725678
C 2.761852 2.689105 4.228749
C 2.988397 1.964025 3.960015
C 3.000049 2.483105 4.576496
C 3.469279 2.050091 4.500174
C 3.526450 2.427755 3.992982
C 3.253754 2.308740 4.262746
C 3.217064 2.860263 4.744879
C 3.808653 2.232661 4.711944
C 3.776843 2.814759 4.203403
C 3.973118 1.912951 4.014801
C 4.051280 2.525653 4.445366
C 4.466525 2.048020 4.435255
C 4.580811 2.497794 3.955118
C 4.240908 2.281507 4.303664
C 4.275375 2.680609 4.726687
C 4.689625 2.223875 4.784063
C 4.731513 2.765909 4.297452
C 4.985738 2.004634 3.922144
C 5.032073 2.457848 4.525354
C 5.500688 2.040699 4.569273
C 5.480299 2.462207 3.998013
C 5.283730 2.241192 4.277601
C 5.267951 2.713876 4.776881
C 5.745421 2.313752 4.829451
C 5.688382 2.655913 4.263223
C 0.032660 2.967202 4.041453
C 0.033249 3.491270 4.509438
C 0.464204 2.947317 4.544319
C 0.438844 3.590368 4.036731
C 0.241998 3.255922 4.186948
C 0.235860 3.730587 4.756315
C 0.768721 3.314795 4.771011
C 0.804807 3.724793 4.173954
C 1.020343 2.969250 3.992247
C 1.010260 3.504182 4.554785
C 1.464151 3.020698 4.509381
C 1.554106 3.515589 3.955092
C 1.245453 3.156753 4.236263
C 1.246733 3.688198 4.742655
C 1.694550 3.289953 4.711357
C 1.738830 3.792951 4.281379
C 2.060079 2.963763 4.064973
C 2.042223 3.492054 4.543896
C 2.490291 3.054376 4.544346
C 2.537449 3.572433 3.981769
C 2.214486 3.265113 4.165424
C 2.286068 3.781583 4.790174
C 2.749128 3.315082 4.807171
C 2.676668 3.719389 4.275244
C 3.025737 2.953785 4.025810
C 2.998175 3.418014 4.481151
C 3.489296 2.978489 4.535199
C 3.518014 3.562355 4.039869
C 3.258101 3.226912 4.246225
C 3.278521 3.786203 4.699922
C 3.813384 3.301806 4.753478
C 3.737842 3.815458 4.212184
C 4.034934 3.022417 3.992563
C 3.996168 3.549038 4.519178
C 4.538736 3.073457 4.432498
C 4.450755 3.484032 4.026687
C 4.211591 3.176372 4.246893
C 4.173558 3.764422 4.759987
C 4.842477 3.249621 4.736235
C 4.814545 3.770273 4.304837
C 5.037495 3.020584 4.051588
C 4.912780 3.419396 4.472537
C 5.553208 2.994072 4.437924
C 5.521975 3.450813 4.034735
C 5.262505 3.195396 4.296526
C 5.272225 3.743872 4.693673
C 5.749835 3.287603 4.779456
C 5.707857 3.683321 4.241573
C 0.007060 3.962602 4.049812
C 0.006938 4.515668 4.521229
C 0.488212 4.043531 4.488958
C 0.531333 4.491805 3.952503
C 0.176081 4.274854 4.315708
C 0.185394 4.727296 4.746544
C 0.783622 4.218702 4.796849
C 0.668892 4.769407 4.261701
C 0.991704 3.981927 4.052675
C 0.992222 4.563224 4.463427
C 1.524905 4.015807 4.465483
C 1.431328 4.475343 3.975152
C 1.274970 4.207831 4.192601
C 1.219500 4.712259 4.690892
C 1.793040 4.221211 4.698456
C 1.746227 4.757265 4.186153
C 1.991964 4.003774 4.037171
C 1.990908 4.533826 4.484565
C 2.480480 4.020305 4.492054
C 2.456623 4.498793 4.063295
C 2.236989 4.260898 4.245806
C 2.287749 4.774562 4.662445
C 2.796365 4.231607 4.813730
C 2.696803 4.758262 4.222643
C 3.014316 3.930728 4.020447
C 2.913537 4.484605 4.555736
C 3.494800 4.013647 4.529114
C 3.513119 4.500940 3.934719
C 3.276496 4.334873 4.238427
C 3.279917 4.800262 4.773791
C 3.751250 4.184771 4.803840
C 3.766380 4.782835 4.238226
C 4.050870 3.989981 3.967722
C 3.974983 4.499695 4.501776
C 4.478658 3.942013 4.443705
C 4.445328 4.528989 4.043167
C 4.225826 4.330099 4.273561
C 4.288421 4.676075 4.778899
C 4.766282 4.162013 4.778477
C 4.794419 4.721529 4.273500
C 5.029840 3.980537 3.947977
C 4.996538 4.406978 4.446348
C 5.506723 4.020304 4.543075
C 5.514465 4.578370 4.007739
C 5.262274 4.305781 4.294913
C 5.154614 4.729479 4.738011
C 5.736617 4.248190 4.686775
C 5.735925 4.714117 4.287107
C 0.032571 4.947189 4.056482
C 0.037508 5.551948 4.530571
C 0.410221 4.958274 4.566432
C 0.482213 5.562966 4.001001
C 0.255559 5.318664 4.254934
C 0.252734 5.733020 4.755853
C 0.751242 5.211995 4.730560
C 0.793830 5.717171 4.266507
C 1.011611 4.944946 4.030039
C 1.025055 5.495126 4.461432
C 1.521354 5.051485 4.482803
C 1.452972 5.536110 3.946491
C 1.248368 5.253476 4.275697
C 1.325942 5.720080 4.740816
C 1.774457 5.187796 4.746699
C 1.791657 5.736728 4.206458
C 1.929481 4.949636 3.948410
C 2.042942 5.579518 4.506797
C 2.435745 5.009375 4.457876
C 2.506401 5.430250 4.036822
C 2.242051 5.325805 4.311427
C 2.276458 5.698745 4.735228
C 2.766783 5.347869 4.753110
C 2.750970 5.747461 4.193239
C 2.987176 4.985412 4.067571
C 2.960104 5.478761 4.449904
C 3.512960 5.035486 4.562093
C 3.528796 5.541543 3.996596
C 3.212481 5.254752 4.272885
C 3.151596 5.730803 4.698021
C 3.775530 5.221842 4.730876
C 3.761961 5.727189 4.289338
C 3.953544 4.973495 4.002193
C 3.922332 5.470620 4.522194
C 4.411682 4.988990 4.517788
C 4.518245 5.516930 4.048008
C 4.279661 5.280970 4.206651
C 4.254537 5.736573 4.805745
C 4.748883 5.300679 4.825053
C 4.792227 5.692392 4.215389
C 4.957449 5.011032 3.993012
C 5.023801 5.512827 4.497619
C 5.478896 4.926236 4.520071
C 5.465325 5.498306 3.960946
C 5.255628 5.201430 4.275255
C 5.198380 5.694694 4.770851
C 5.721386 5.300522 4.797495
C 5.683129 5.696869 4.231287
C 0.011012 0.002565 4.888561
C 0.077168 0.500814 5.528165
C 0.592710 0.009841 5.454206
C 0.571478 0.495419 5.005994
C 0.254636 0.195368 5.306108
C 0.324255 0.745673 5.738655
C 0.686224 0.182791 5.742902
C 0.707803 0.765601 5.200809
C 1.022063 0.010638 5.026549
C 1.008388 0.504347 5.438090
C 1.541910 0.049079 5.580506
C 1.523723 0.539108 4.990950
C 1.244522 0.294425 5.332239
C 1.304373 0.746278 5.742877
C 1.722571 0.321043 5.737524
C 1.744093 0.707907 5.297081
C 2.066124 0.018736 5.047531
C 1.971857 0.552583 5.517563
C 2.432418 0.055561 5.563704
C 2.557572 0.460851 5.029137
C 2.299387 0.241745 5.233145
C 2.280729 0.773841 5.680152
C 2.683368 0.294614 5.736019
C 2.681465 0.770270 5.226754
C 2.972007 0.081379 5.001789
C 2.990351 0.476556 5.554858
C 3.515802 0.008080 5.516884
C 3.562401 0.509485 4.990425
C 3.222325 0.217014 5.197824
C 3.218886 0.690254 5.687751
C 3.714148 0.234330 5.741342
C 3.680815 0.748517 5.274121
C 4.069430 0.039891 4.989662
C 4.083023 0.481961 5.456777
C 4.550799 0.035204 5.540566
C 4.428854 0.482854 4.973651
C 4.252569 0.211412 5.286467
C 4.245275 0.756761 5.649519
C 4.805582 0.190107 5.737324
C 4.801594 0.772595 5.241224
C 5.057917 0.017122 4.984540
C 5.031928 0.446400 5.508743
C 5.553372 0.018897 5.514398
C 5.465300 0.509697 5.062474
C 5.246073 0.286694 5.280616
C 5.263264 0.770545 5.729355
C 5.694546 0.254775 5.716144
C 5.704612 0.755601 5.278989
C 0.103563 0.965476 5.032066
C 0.006485 1.477495 5.439672
C 0.517723 1.018763 5.445016
C 0.434578 1.459159 4.943891
C 0.196897 1.213433 5.268415
C 0.285916 1.690561 5.683695
C 0.681258 1.296759 5.741924
C 0.773521 1.721036 5.202081
C 1.046929 1.084796 5.007761
C 0.958305 1.488646 5.551812
C 1.482403 1.027373 5.591561
C 1.568153 1.499750 4.991560
C 1.234660 1.348709 5.261417
C 1.277978 1.801421 5.728166
C 1.761035 1.198079 5.679328
C 1.695878 1.733057 5.273952
C 2.026291 1.036241 4.980133
C 1.994507 1.482806 5.577972
C 2.485321 1.028390 5.436328
C 2.432470 1.510850 5.063615
C 2.227814 1.247359 5.200230
C 2.293885 1.686439 5.727954
C 2.785170 1.213112 5.697031
C 2.767389 1.766079 5.257621
C 3.064087 0.999436 5.007586
C 3.010317 1.435766 5.469931
C 3.512706 1.057849 5.434823
C 3.442456 1.437404 5.037223
C 3.198441 1.231628 5.221992
C 3.225346 1.680369 5.708292
C 3.827156 1.220422 5.729201
C 3.717908 1.728515 5.225668
C 4.028261 1.021422 4.955317
C 3.994259 1.495094 5.466350
C 4.576922 0.965056 5.476210
C 4.541285 1.449212 4.980186
C 4.228419 1.183955 5.200090
C 4.187983 1.769706 5.714270
C 4.789168 1.253171 5.682990
C 4.781535 1.792291 5.278575
C 4.937968 0.981309 4.983015
C 4.988183 1.500276 5.533124
C 5.543944 0.998943 5.473493
C 5.463863 1.474027 4.923792
C 5.166767 1.259721 5.281077
C 5.234092 1.704314 5.672677
C 5.698273 1.112795 5.728124
C 5.682726 1.797593 5.332280
C 0.013397 1.937948 5.049913
C 0.042625 2.523709 5.407322
C 0.441040 2.035768 5.460547
C 0.461067 2.531724 5.099965
C 0.255385 2.279933 5.306125
C 0.250242 2.691115 5.710435
C 0.705740 2.355934 5.741812
C 0.713237 2.732992 5.162876
C 1.027028 2.001637 5.012647
C 0.986867 2.509630 5.547147
C 1.498979 2.042508 5.561831
C 1.556272 2.488266 5.005159
C 1.197771 2.255271 5.190560
C 1.254047 2.684443 5.731347
C 1.755934 2.259738 5.663515
C 1.729541 2.688775 5.236092
C 1.999168 2.086565 5.010374
C 2.004504 2.417036 5.560212
C 2.542111 2.006491 5.413219
C 2.556249 2.453400 4.931257
C 2.301999 2.291926 5.201972
C 2.276888 2.724198 5.703907
C 2.729345 2.316716 5.742816
C 2.813256 2.803143 5.260416
C 2.957309 2.047880 5.037381
C 3.032432 2.539687 5.544957
C 3.480106 1.955626 5.518224
C 3.476436 2.509184 5.016448
C 3.271796 2.202734 5.274786
C 3.183261 2.790205 5.737593
C 3.763031 2.310004 5.717908
C 3.769521 2.773781 5.341329
C 3.985390 1.959899 4.941013
C 3.986179 2.508747 5.509561
C 4.430983 1.946997 5.506308
C 4.544146 2.488513 4.958950
C 4.268541 2.241842 5.282724
C 4.234645 2.685282 5.682008
C 4.790225 2.223887 5.686602
C 4.698948 2.765588 5.232725
C 5.037197 1.985629 4.940250
C 4.919264 2.491600 5.525038
C 5.488378 2.058742 5.453488
C 5.524830 2.534744 5.007882
C 5.242811 2.319054 5.251915
C 5.233739 2.769800 5.700583
C 5.680443 2.185369 5.716547
C 5.688360 2.707880 5.301046
C 0.053642 3.033451 5.014131
C 0.063901 3.475395 5.503647
C 0.518753 2.946300 5.478821
C 0.423874 3.488790 4.992939
C 0.272728 3.253220 5.206570
C 0.200352 3.711036 5.739261
C 0.690708 3.228963 5.700956
C 0.731053 3.750932 5.339521
C 0.935056 2.942974 4.972475
C 1.032851 3.434841 5.487096
C 1.479493 2.985905 5.443319
C 1.501947 3.556819 4.970497
C 1.268182 3.295203 5.200379
C 1.299911 3.716691 5.692167
C 1.772175 3.190514 5.700762
C 1.733064 3.767152 5.218250
C 2.006904 2.934821 4.966251
C 2.061961 3.491472 5.544146
C 2.488838 2.968588 5.533558
C 2.509072 3.526423 4.939440
C 2.305895 3.232229 5.234355
C 2.306558 3.755239 5.718244
C 2.730110 3.256604 5.706790
C 2.684978 3.725435 5.290773
C 3.002035 2.953366 5.004010
C 3.011838 3.512168 5.428645
C 3.486788 3.015847 5.429524
C 3.547208 3.479667 5.030312
C 3.287483 3.271615 5.310310
C 3.296781 3.670105 5.705429
C 3.687900 3.259102 5.704987
C 3.774696 3.714182 5.161346
C 4.019927 2.965552 4.998055
C 3.944816 3.501978 5.437666
C 4.462849 2.953910 5.532105
C 4.441129 3.492025 4.946766
C 4.207211 3.236855 5.312316
C 4.251707 3.687341 5.741010
C 4.797713 3.187665 5.660407
C 4.810046 3.717604 5.206145
C 4.947161 2.996934 5.014712
C 4.966470 3.453096 5.476807
C 5.569539 2.960631 5.546962
C 5.460624 3.515892 5.044491
C 5.215425 3.233881 5.226873
C 5.197716 3.735150 5.736872
C 5.747445 3.217036 5.661983
C 5.721702 3.825726 5.239715
C 0.000825 3.956350 4.975607
C 0.003400 4.457820 5.494135
C 0.521901 4.067866 5.467647
C 0.417369 4.523240 5.013944
C 0.245294 4.194847 5.192950
C 0.272429 4.761179 5.707313
C 0.689992 4.252630 5.743474
C 0.773945 4.798290 5.208505
C 0.940717 3.976652 5.074325
C 0.988606 4.491026 5.581754
C 1.478194 3.985414 5.527842
C 1.531240 4.479465 5.034208
C 1.229759 4.294950 5.255600
C 1.278696 4.748882 5.735256
C 1.656221 4.241744 5.722879
C 1.743906 4.713765 5.202682
C 1.949738 3.953792 5.004105
C 2.005689 4.455352 5.470384
C 2.430785 3.970869 5.464435
C 2.491056 4.447088 4.948036
C 2.314208 4.213659 5.214143
C 2.210753 4.742445 5.679891
C 2.865299 4.260650 5.747876
C 2.740082 4.750777 5.240164
C 3.031981 3.957186 5.018971
C 2.980085 4.526280 5.587873
C 3.442018 4.014266 5.519957
C 3.570267 4.514686 4.924770
C 3.220318 4.239044 5.315283
C 3.332486 4.765069 5.741536
C 3.781519 4.310897 5.727616
C 3.739167 4.668180 5.267858
C 3.957250 3.976665 5.059200
C 4.001691 4.437347 5.452981
C 4.410740 3.942601 5.478038
C 4.515421 4.457651 4.905982
C 4.212590 4.283972 5.224659
C 4.290948 4.838012 5.742629
C 4.709237 4.211757 5.719909
C 4.677702 4.757444 5.281675
C 5.065885 4.020611 5.058594
C 4.951507 4.559500 5.503167
C 5.549920 4.053931 5.466687
C 5.528231 4.544875 4.963453
C 5.198662 4.253526 5.303861
C 5.266278 4.806601 5.709513
C 5.692255 4.272192 5.740604
C 5.707075 4.788647 5.214771
C 0.007488 5.028252 4.923103
C 0.001782 5.557472 5.549784
C 0.489277 5.020009 5.480569
C 0.457775 5.472326 5.049661
C 0.186402 5.217535 5.218404
C 0.246198 5.740923 5.641503
C 0.724615 5.285507 5.675139
C 0.732743 5.731949 5.242192
C 0.957549 5.047654 4.989675
C 1.041433 5.516581 5.591912
C 1.495778 5.007865 5.455411
C 1.562959 5.543612 4.933089
C 1.317332 5.251276 5.184313
C 1.206087 5.741229 5.636795
C 1.822917 5.301397 5.749322
C 1.689295 5.740132 5.261576
C 2.074596 4.984438 4.940203
C 1.943879 5.509582 5.495667
C 2.528569 4.986547 5.435261
C 2.429277 5.474050 4.954988
C 2.251467 5.305513 5.211796
C 2.217995 5.718468 5.715250
C 2.755236 5.172543 5.705006
C 2.665409 5.716921 5.211401
C 3.013840 5.025842 4.978371
C 3.012932 5.403188 5.503005
C 3.473575 4.987905 5.518383
C 3.453033 5.534585 4.977957
C 3.252427 5.313352 5.262333
C 3.326513 5.749092 5.731962
C 3.735910 5.165122 5.722199
C 3.751572 5.721983 5.237055
C 4.011205 5.007182 4.918611
C 4.056187 5.537390 5.504068
C 4.513333 4.952094 5.522009
C 4.562579 5.489643 5.065060
C 4.240484 5.260444 5.254221
C 4.298952 5.731796 5.718997
C 4.819291 5.232832 5.710426
C 4.680052 5.737840 5.275208
C 5.041586 5.012474 5.050381
C 5.043183 5.475431 5.560083
C 5.602778 4.995045 5.517277
C 5.505571 5.496996 5.082003
C 5.213969 5.323181 5.257736
C 5.362294 5.709241 5.710082
C 5.692457 5.251304 5.722949
C 5.737525 5.678282 5.276982
1728
Frame 6/10
C 0.025174 0.030020 0.079839
C 0.061892 0.429529 0.472187
C 0.443718 0.000364 0.512682
C 0.542492 0.493713 0.116175
C 0.321235 0.251710 0.292612
C 0.160969 0.707658 0.738617
C 0.669895 0.276706 0.789759
C 0.736134 0.724994 0.310383
C 1.069242 0.017638 0.053004
C 1.003085 0.519581 0.452857
C 1.543018 0.005046 0.382262
C 1.532559 0.433872 0.047153
C 1.283521 0.265607 0.221488
C 1.304406 0.654297 0.791888
C 1.698897 0.176143 0.698196
C 1.675814 0.715458 0.218547
C 1.897231 0.010150 0.036803
C 1.920106 0.464091 0.461081
C 2.442199 0.031372 0.514696
C 2.569444 0.468524 0.035764
C 2.274505 0.214802 0.204786
C 2.242907 0.817184 0.807296
C 2.717180 0.190812 0.863104
C 2.745369 0.792854 0.182690
C 3.047474 0.019827 0.061683
C 3.011416 0.449398 0.496311
C 3.466825 0.017621 0.499421
C 3.534535 0.540462 0.035745
C 3.349627 0.280333 0.252691
C 3.327888 0.808515 0.785590
C 3.793639 0.185571 0.772537
C 3.799894 0.772650 0.209417
C 4.092693 0.115511 0.021092
C 4.090634 0.507467 0.482267
C 4.446630 0.012591 0.580921
C 4.495377 0.481937 0.004352
C 4.290714 0.364544 0.239492
C 4.363447 0.730184 0.750692
C 4.763437 0.278783 0.822912
C 4.737808 0.828684 0.225028
C 4.987046 0.094770 0.037285
C 4.924201 0.504780 0.506775
C 5.503492 0.122882 0.474050
C 5.395250 0.487805 0.099866
C 5.230641 0.190820 0.241505
C 5.240338 0.765310 0.784980
C 5.677588 0.276612 0.845278
C 5.703446 0.694136 0.209733
C 0.039643 0.941154 0.032770
C 0.078298 1.564005 0.479446
C 0.474281 1.001021 0.549057
C 0.555402 1.479409 0.071165
C 0.211209 1.295546 0.317249
C 0.346329 1.770043 0.782487
C 0.663439 1.203773 0.749312
C 0.752911 1.719508 0.276721
C 1.104619 0.920636 0.018828
C 0.983354 1.485283 0.399899
C 1.499487 0.950207 0.524908
C 1.465447 1.516158 0.004217
C 1.262677 1.277497 0.205343
C 1.169084 1.772211 0.722228
C 1.782866 1.233632 0.708753
C 1.736526 1.850600 0.309889
C 2.019901 0.981064 0.079221
C 1.900924 1.550344 0.522278
C 2.513028 1.023980 0.477792
C 2.541479 1.568373 0.000455
C 2.282424 1.298694 0.172986
C 2.333826 1.777872 0.699276
C 2.731627 1.180671 0.722511
C 2.732262 1.741878 0.255680
C 3.064516 1.049518 0.057725
C 2.947890 1.445820 0.538384
C 3.521986 1.004550 0.511559
C 3.511952 1.492271 0.049735
C 3.324744 1.240539 0.202557
C 3.311877 1.769383 0.795107
C 3.673187 1.164100 0.754651
C 3.650048 1.729205 0.290565
C 4.075615 1.007901 0.005028
C 3.896969 1.568289 0.523467
C 4.471614 1.034707 0.481545
C 4.494274 1.457003 0.057043
C 4.313577 1.306349 0.320428
C 4.269804 1.687490 0.803784
C 4.769274 1.212513 0.762193
C 4.713581 1.737419 0.240126
C 5.069697 0.947883 0.060863
C 4.981536 1.405093 0.527530
C 5.421947 0.904225 0.527298
C 5.486401 1.466745 0.075940
C 5.254681 1.213918 0.236387
C 5.262764 1.751041 0.750025
C 5.643710 1.172247 0.740123
C 5.722358 1.710984 0.178473
C 0.014270 1.900728 0.050159
C 0.044143 2.546549 0.498919
C 0.430106 2.009461 0.455065
C 0.566409 2.541136 0.069577
C 0.307814 2.334772 0.236773
C 0.262015 2.651067 0.756367
C 0.691746 2.274741 0.706385
C 0.688942 2.726669 0.319299
C 1.055948 2.071063 0.083838
C 1.006824 2.503347 0.505915
C 1.472343 1.974377 0.432110
C 1.591390 2.448561 0.026953
C 1.284569 2.278967 0.279522
C 1.222035 2.801673 0.851023
C 1.752719 2.341497 0.715837
C 1.739427 2.672708 0.307555
C 2.049377 2.027002 0.011811
C 1.979920 2.414591 0.477501
C 2.524216 1.945438 0.473405
C 2.483101 2.634453 0.095637
C 2.267971 2.330042 0.194012
C 2.329261 2.723886 0.769330
C 2.707030 2.191589 0.679253
C 2.763051 2.709110 0.199524
C 2.900579 2.027329 0.033123
C 3.045589 2.553202 0.544841
C 3.454285 1.930851 0.503771
C 3.497507 2.387681 0.052657
C 3.212102 2.161571 0.303591
C 3.256953 2.666444 0.807151
C 3.671423 2.162878 0.795732
C 3.793976 2.744365 0.250403
C 3.920933 2.049636 0.103488
C 3.988424 2.523846 0.452959
C 4.519577 2.096078 0.434866
C 4.432147 2.568159 0.009511
C 4.192247 2.260978 0.279295
C 4.322794 2.755833 0.728359
C 4.766524 2.259444 0.758800
C 4.776296 2.838953 0.222280
C 5.075471 2.032368 0.007409
C 5.016024 2.470647 0.482931
C 5.587309 2.027482 0.577389
C 5.587938 2.525038 0.032867
C 5.253769 2.201477 0.332139
C 5.152905 2.727862 0.725533
C 5.627426 2.264329 0.758652
C 5.660101 2.815727 0.236548
C 0.028557 3.013437 0.040994
C 0.095235 3.514420 0.567921
C 0.420784 3.011343 0.478755
C 0.448289 3.502778 0.032468
C 0.261632 3.339172 0.319952
C 0.330614 3.790206 0.653722
C 0.816268 3.327595 0.765775
C 0.723446 3.811146 0.254609
C 0.980137 2.995887 0.088721
C 1.032535 3.538942 0.469863
C 1.529021 3.055249 0.458926
C 1.490077 3.508547 0.059760
C 1.267396 3.222186 0.243879
C 1.245810 3.844938 0.802862
C 1.782272 3.246735 0.730441
C 1.751694 3.677297 0.218485
C 1.916133 2.945861 0.070988
C 2.049621 3.467107 0.560528
C 2.582967 3.005971 0.473394
C 2.549384 3.578735 0.024381
C 2.250007 3.282875 0.213854
C 2.178078 3.733316 0.729501
C 2.647693 3.204219 0.775276
C 2.835216 3.745390 0.303785
C 3.020732 2.880112 0.089075
C 3.079262 3.534582 0.485900
C 3.427944 3.037390 0.465034
C 3.591638 3.506874 0.029023
C 3.279511 3.282103 0.139548
C 3.155650 3.738990 0.733120
C 3.677660 3.250740 0.730268
C 3.749381 3.663940 0.305891
C 3.968200 3.010132 0.066173
C 4.028019 3.498766 0.392131
C 4.521330 2.999750 0.599430
C 4.474687 3.542965 0.026246
C 4.187551 3.166000 0.276688
C 4.233591 3.767085 0.847522
C 4.754042 3.292443 0.737614
C 4.732380 3.699007 0.208681
C 4.953192 3.077640 0.022904
C 4.923077 3.432693 0.488556
C 5.520986 3.068575 0.493228
C 5.479553 3.454796 0.067429
C 5.182111 3.298281 0.265881
C 5.265560 3.758149 0.754287
C 5.748461 3.115574 0.798091
C 5.694506 3.834201 0.224590
C 0.080540 3.900118 0.050595
C 0.015039 4.483949 0.425487
C 0.569470 4.046555 0.560914
C 0.462553 4.581265 0.015850
C 0.263135 4.324848 0.264609
C 0.215136 4.703671 0.845483
C 0.746915 4.246904 0.808597
C 0.665047 4.814377 0.238013
C 1.036428 4.041751 0.012299
C 0.974506 4.474409 0.533474
C 1.490869 3.995407 0.593774
C 1.410116 4.446780 0.003103
C 1.328816 4.203086 0.253696
C 1.220616 4.750634 0.690044
C 1.707090 4.223327 0.679905
C 1.718631 4.792321 0.201976
C 2.074675 3.995133 0.008017
C 1.965758 4.546145 0.575692
C 2.458788 3.923867 0.521482
C 2.430801 4.503987 0.069676
C 2.306379 4.220622 0.189235
C 2.260880 4.734592 0.740217
C 2.761228 4.281652 0.768352
C 2.732053 4.852887 0.250774
C 2.995081 4.028685 0.128730
C 3.068765 4.470464 0.545679
C 3.489704 4.021154 0.506568
C 3.506374 4.587547 0.081149
C 3.215400 4.238700 0.297231
C 3.218492 4.727148 0.777388
C 3.710839 4.328386 0.793119
C 3.850887 4.715961 0.243854
C 4.029568 4.109411 0.030319
C 4.000094 4.449581 0.515366
C 4.502623 4.087401 0.449926
C 4.545341 4.454649 0.131304
C 4.217525 4.258023 0.312208
C 4.267873 4.773468 0.798576
C 4.732173 4.248950 0.640809
C 4.726272 4.719809 0.215779
C 4.973069 3.979759 0.004120
C 4.980809 4.491389 0.589372
C 5.577443 3.997310 0.550497
C 5.485464 4.438505 0.049451
C 5.159572 4.232170 0.293103
C 5.241227 4.802850 0.740434
C 5.746599 4.206453 0.763972
C 5.719778 4.741883 0.194385
C 0.004205 4.936487 0.017849
C 0.065688 5.546465 0.423289
C 0.539528 4.996786 0.604110
C 0.608993 5.572354 0.006473
C 0.279823 5.160508 0.181515
C 0.277614 5.735136 0.819418
C 0.798255 5.280796 0.719803
C 0.787237 5.709000 0.348359
C 0.912346 4.985048 0.021755
C 0.972462 5.479808 0.501737
C 1.504196 4.973055 0.544148
C 1.511176 5.517600 0.106645
C 1.251985 5.268668 0.140568
C 1.136047 5.724638 0.691860
C 1.755244 5.242938 0.836867
C 1.724533 5.717204 0.351838
C 2.014925 4.962703 0.012877
C 2.012475 5.586037 0.523817
C 2.463777 4.950034 0.472738
C 2.495627 5.373843 0.059653
C 2.257988 5.161152 0.230383
C 2.321776 5.731032 0.628402
C 2.761605 5.241956 0.700711
C 2.698573 5.714568 0.288446
C 3.040341 4.889193 0.021712
C 3.067918 5.459640 0.519142
C 3.590634 5.028210 0.431671
C 3.455762 5.400878 0.051289
C 3.208878 5.328547 0.228374
C 3.321276 5.655268 0.793163
C 3.796988 5.341403 0.771129
C 3.720961 5.671483 0.317672
C 3.930159 5.018989 0.116817
C 3.994285 5.522481 0.428998
C 4.486313 4.890751 0.553504
C 4.514209 5.382489 0.002820
C 4.281358 5.272448 0.251160
C 4.218416 5.731696 0.806660
C 4.761965 5.246020 0.822517
C 4.682755 5.687841 0.151914
C 5.141216 4.984559 0.053139
C 4.989340 5.593568 0.498949
C 5.556360 4.945022 0.547961
C 5.536353 5.411645 0.066480
C 5.299546 5.235467 0.210311
C 5.247293 5.743503 0.848499
C 5.688919 5.284250 0.777225
C 5.675696 5.678657 0.241525
C 0.049570 0.105769 1.027239
C 0.027648 0.585007 1.390642
C 0.491579 0.045418 1.405648
C 0.558680 0.531393 0.985601
C 0.252998 0.233789 1.305415
C 0.226895 0.677932 1.746487
C 0.784652 0.317131 1.727860
C 0.783850 0.730878 1.138143
C 0.979097 0.027346 1.121320
C 1.036185 0.533795 1.505855
C 1.587650 0.061737 1.557711
C 1.551339 0.401623 0.978118
C 1.344111 0.280719 1.234705
C 1.239101 0.737620 1.712065
C 1.877057 0.257411 1.704293
C 1.716887 0.849510 1.277440
C 1.993324 0.052671 0.914336
C 2.074886 0.465715 1.406820
C 2.500799 0.066045 1.569900
C 2.522867 0.415051 0.934834
C 2.327508 0.288293 1.293352
C 2.281766 0.884065 1.732678
C 2.771749 0.163583 1.805764
C 2.659927 0.705723 1.202238
C 2.992641 0.000796 0.967546
C 3.073933 0.394506 1.498445
C 3.419072 0.050165 1.505237
C 3.548712 0.584535 0.956236
C 3.173912 0.170056 1.277979
C 3.264029 0.695551 1.672631
C 3.779196 0.253553 1.782123
C 3.703979 0.733519 1.300241
C 4.097719 0.055252 0.936324
C 3.947481 0.540809 1.487310
C 4.489798 0.101037 1.464174
C 4.515599 0.474246 0.933380
C 4.243464 0.216534 1.189856
C 4.326512 0.730669 1.725560
C 4.822249 0.295767 1.717508
C 4.736771 0.741393 1.246104
C 4.958510 0.046460 0.903376
C 4.941858 0.514906 1.384198
C 5.451559 0.068107 1.506733
C 5.458475 0.545175 0.937946
C 5.254302 0.278377 1.192426
C 5.307743 0.768607 1.680903
C 5.678643 0.211442 1.737612
C 5.678740 0.720954 1.256028
C 0.079399 0.896751 1.030427
C 0.009404 1.486270 1.447198
C 0.510863 0.972123 1.500698
C 0.550109 1.485936 0.910901
C 0.144524 1.244597 1.232460
C 0.319023 1.723056 1.701029
C 0.661322 1.247976 1.755987
C 0.777844 1.802544 1.239112
C 0.965883 0.988621 1.070509
C 0.949560 1.443350 1.574048
C 1.554760 1.089690 1.558016
C 1.449950 1.418197 0.920031
C 1.314030 1.270427 1.304756
C 1.285938 1.830347 1.772704
C 1.722906 1.267833 1.839695
C 1.709434 1.799981 1.158201
C 1.994681 1.075652 0.991453
C 2.053191 1.433829 1.442453
C 2.373310 1.003901 1.471835
C 2.450126 1.392606 0.970582
C 2.236157 1.312769 1.182326
C 2.361034 1.732369 1.712503
C 2.814957 1.246497 1.690966
C 2.661591 1.791168 1.193784
C 2.987481 0.949384 1.022969
C 2.961956 1.544669 1.530999
C 3.540556 0.986699 1.496278
C 3.487570 1.443938 1.071527
C 3.243032 1.234074 1.180921
C 3.326999 1.797248 1.724367
C 3.745183 1.299039 1.817061
C 3.730253 1.711955 1.217880
C 3.915353 0.975370 0.923286
C 4.000197 1.494290 1.542070
C 4.557647 1.067569 1.464941
C 4.450357 1.530221 1.035384
C 4.276411 1.262900 1.228648
C 4.151952 1.753124 1.705634
C 4.815402 1.196939 1.750163
C 4.737669 1.728160 1.165252
C 5.035099 1.034037 1.001930
C 4.947817 1.508555 1.430219
C 5.501668 0.988547 1.426640
C 5.520037 1.531781 1.063275
C 5.237366 1.222379 1.234594
C 5.164300 1.668197 1.705587
C 5.715852 1.298406 1.642540
C 5.697577 1.645190 1.330880
C 0.016289 2.042589 0.954643
C 0.014111 2.504883 1.546349
C 0.535175 2.037219 1.492538
C 0.614896 2.478537 1.038702
C 0.250467 2.197611 1.256316
C 0.221188 2.739724 1.821869
C 0.839749 2.292101 1.721310
C 0.844947 2.760434 1.262915
C 1.070582 2.006233 0.971388
C 0.960042 2.542957 1.489131
C 1.490921 2.057118 1.481042
C 1.559639 2.518463 1.022229
C 1.219440 2.361804 1.219161
C 1.248805 2.699146 1.719789
C 1.847638 2.254989 1.732645
C 1.684290 2.736057 1.329591
C 2.001829 1.986329 1.063062
C 2.031766 2.521346 1.439646
C 2.474633 1.922158 1.478615
C 2.382724 2.507611 1.034387
C 2.281039 2.230860 1.227393
C 2.233025 2.763380 1.677563
C 2.789309 2.314012 1.666245
C 2.715130 2.825822 1.268847
C 2.913548 1.982650 1.056088
C 3.092174 2.456142 1.556334
C 3.585323 1.921000 1.477506
C 3.450832 2.406614 0.962052
C 3.224937 2.154701 1.162065
C 3.168615 2.732072 1.808489
C 3.773378 2.355537 1.827773
C 3.793841 2.721363 1.315282
C 4.067139 2.007468 0.905269
C 3.974123 2.477200 1.439037
C 4.478119 1.926481 1.525519
C 4.522077 2.453445 0.896278
C 4.233353 2.316062 1.274918
C 4.342167 2.786609 1.819507
C 4.695021 2.207258 1.721493
C 4.695999 2.864702 1.273914
C 5.008083 1.975693 0.977255
C 4.930736 2.507124 1.451782
C 5.416529 1.980461 1.493176
C 5.581267 2.495748 1.013245
C 5.258947 2.191690 1.179680
C 5.238647 2.691491 1.814049
C 5.738943 2.195300 1.737122
C 5.732562 2.808413 1.201863
C 0.015696 2.961940 0.944777
C 0.052070 3.511444 1.494673
C 0.560478 3.028510 1.442228
C 0.562473 3.583757 1.071151
C 0.326059 3.241797 1.159077
C 0.260501 3.675344 1.739632
C 0.692339 3.323950 1.669400
C 0.800372 3.842378 1.265026
C 0.951388 3.069950 0.969287
C 1.047833 3.441975 1.459839
C 1.448676 2.943959 1.510842
C 1.555771 3.518775 1.072747
C 1.216945 3.222412 1.247736
C 1.206383 3.813519 1.691161
C 1.812834 3.147946 1.767740
C 1.783205 3.704508 1.231624
C 1.994502 3.096802 0.940711
C 2.027533 3.402203 1.569461
C 2.589196 2.974642 1.522867
C 2.525561 3.461858 1.055806
C 2.193739 3.326571 1.238893
C 2.184579 3.691212 1.701124
C 2.681070 3.241465 1.692069
C 2.764367 3.701859 1.261812
C 3.088798 2.920133 1.023500
C 2.996402 3.491861 1.562687
C 3.537256 3.049999 1.542830
C 3.480798 3.571520 0.961355
C 3.245485 3.241643 1.192297
C 3.244785 3.761526 1.790609
C 3.804747 3.322954 1.788713
C 3.756761 3.659758 1.211941
C 3.953467 3.047541 0.963813
C 3.948887 3.591235 1.440303
C 4.531188 3.079994 1.516572
C 4.577128 3.543234 0.986502
C 4.189547 3.180873 1.166765
C 4.215876 3.715454 1.642628
C 4.817815 3.225973 1.705184
C 4.745318 3.780609 1.240861
C 4.929387 3.014006 1.060635
C 4.954292 3.482018 1.587560
C 5.505867 3.098131 1.490071
C 5.424345 3.533924 1.042714
C 5.232130 3.289766 1.194518
C 5.294749 3.771639 1.821655
C 5.706604 3.221982 1.715384
C 5.666146 3.754818 1.245847
C 0.099656 3.961845 1.028071
C 0.004088 4.450808 1.628387
C 0.541783 3.921281 1.400753
C 0.532790 4.590238 0.997540
C 0.353858 4.215678 1.262276
C 0.200373 4.724747 1.788150
C 0.825239 4.200677 1.738488
C 0.778725 4.702521 1.172254
C 1.015124 4.014035 1.002207
C 1.070403 4.432315 1.520339
C 1.507824 3.964454 1.611212
C 1.475415 4.534112 1.049305
C 1.341725 4.247675 1.201589
C 1.291696 4.716224 1.744434
C 1.755136 4.210035 1.785023
C 1.845078 4.685989 1.285828
C 2.053362 4.066404 0.978395
C 2.082319 4.537945 1.461617
C 2.506705 4.066287 1.560751
C 2.564028 4.455601 1.003127
C 2.293870 4.214115 1.279115
C 2.250349 4.699517 1.728993
C 2.713219 4.245948 1.795805
C 2.783194 4.863105 1.279772
C 2.969253 4.059837 1.017934
C 2.943577 4.537950 1.579336
C 3.470145 4.052613 1.462751
C 3.490654 4.548752 0.933631
C 3.221590 4.252950 1.336404
C 3.188884 4.732447 1.661223
C 3.818899 4.266349 1.787030
C 3.702119 4.795758 1.219094
C 3.915143 3.901672 1.018294
C 3.978622 4.466148 1.448190
C 4.414129 4.045599 1.494375
C 4.485899 4.471432 1.053067
C 4.207041 4.250380 1.207278
C 4.312528 4.762776 1.785729
C 4.722470 4.160474 1.698314
C 4.694830 4.729036 1.276398
C 5.010084 4.082738 0.993531
C 5.093958 4.523228 1.501317
C 5.479780 3.958504 1.445153
C 5.540451 4.449501 1.009240
C 5.308311 4.329599 1.232267
C 5.259408 4.805692 1.819837
C 5.708946 4.286475 1.792862
C 5.727178 4.678837 1.298132
C 0.013292 4.936037 0.969682
C 0.103691 5.523304 1.590859
C 0.553055 4.902501 1.486098
C 0.474077 5.450346 1.009466
C 0.242551 5.178723 1.265185
C 0.330980 5.703664 1.767691
C 0.836583 5.291581 1.707493
C 0.787102 5.728437 1.261333
C 1.033506 5.066008 0.987553
C 0.929460 5.422470 1.405184
C 1.467021 4.953971 1.467920
C 1.502361 5.513104 0.927822
C 1.213274 5.300376 1.270219
C 1.174681 5.730786 1.637481
C 1.652566 5.227040 1.749001
C 1.693943 5.749507 1.133138
C 2.014793 4.925594 1.029751
C 1.951881 5.456263 1.476284
C 2.471329 4.977277 1.450010
C 2.517330 5.448795 0.997078
C 2.313997 5.245704 1.278742
C 2.235063 5.664671 1.759551
C 2.720333 5.267072 1.763852
C 2.712274 5.726083 1.294195
C 2.971663 4.947952 0.926259
C 3.085175 5.463254 1.534232
C 3.463328 4.988248 1.552467
C 3.587585 5.544128 1.020295
C 3.181039 5.283124 1.284214
C 3.300654 5.733057 1.853625
C 3.749889 5.242795 1.857201
C 3.747898 5.684839 1.302091
C 4.042574 4.973992 0.920542
C 4.096432 5.499501 1.515311
C 4.536208 5.105323 1.454204
C 4.602819 5.493519 0.987184
C 4.103906 5.214024 1.237837
C 4.274298 5.688713 1.751692
C 4.738870 5.254214 1.695919
C 4.735079 5.700899 1.291810
C 4.966041 4.934862 1.043866
C 4.991787 5.545461 1.427128
C 5.519609 4.936051 1.515030
C 5.495278 5.531454 0.866440
C 5.226036 5.220165 1.195399
C 5.173928 5.705526 1.764218
C 5.705005 5.206229 1.819833
C 5.670406 5.736400 1.127173
C 0.197092 0.002518 1.951289
C 0.009173 0.483034 2.484077
C 0.431106 0.077735 2.492934
C 0.448091 0.493133 1.932489
C 0.262930 0.170069 2.239001
C 0.240253 0.792917 2.789694
C 0.767734 0.306593 2.743536
C 0.719509 0.778899 2.321851
C 0.922321 0.099737 2.005129
C 1.085383 0.489201 2.473660
C 1.418417 0.000184 2.581117
C 1.544701 0.471700 1.925134
C 1.291859 0.197823 2.320136
C 1.237779 0.668675 2.760690
C 1.693957 0.246350 2.772837
C 1.753509 0.804532 2.164583
C 1.920706 0.011287 1.925783
C 1.960971 0.487180 2.469639
C 2.491363 0.040893 2.400042
C 2.435502 0.565397 2.019238
C 2.209039 0.291448 2.297256
C 2.310056 0.724521 2.818391
C 2.759442 0.232436 2.790229
C 2.777348 0.772281 2.250796
C 3.007935 0.004374 2.089662
C 2.904474 0.507590 2.443573
C 3.585681 0.002216 2.406941
C 3.518776 0.484273 2.001219
C 3.304034 0.281851 2.191438
C 3.318117 0.755754 2.733376
C 3.799316 0.249802 2.834205
C 3.757778 0.813803 2.182264
C 3.962769 0.060131 1.993464
C 3.941716 0.466851 2.539738
C 4.568452 0.018879 2.649719
C 4.555314 0.516350 2.086568
C 4.265707 0.247004 2.274315
C 4.273014 0.779172 2.683943
C 4.809082 0.251768 2.769683
C 4.870299 0.788913 2.243938
C 5.068885 0.015669 1.907322
C 4.905436 0.512596 2.533835
C 5.494589 0.021904 2.564939
C 5.533139 0.439469 1.947681
C 5.181842 0.225218 2.285690
C 5.210785 0.884718 2.703824
C 5.748268 0.231604 2.690508
C 5.719341 0.696845 2.205001
C 0.025063 1.035423 2.024090
C 0.005758 1.485693 2.512640
C 0.443227 0.979748 2.467800
C 0.588577 1.544619 1.985842
C 0.266102 1.222954 2.198049
C 0.181405 1.806835 2.760970
C 0.698148 1.252443 2.765877
C 0.719840 1.645840 2.241034
C 0.982882 0.951310 1.944078
C 0.904708 1.531494 2.554287
C 1.494492 1.101372 2.564222
C 1.482115 1.494407 2.027788
C 1.252843 1.260062 2.378342
C 1.196576 1.815754 2.796400
C 1.790773 1.246126 2.756970
C 1.736841 1.784857 2.298577
C 1.998458 0.979703 2.066444
C 1.946713 1.527792 2.542596
C 2.521134 1.050770 2.498770
C 2.466085 1.378384 1.995240
C 2.300745 1.297901 2.279381
C 2.287835 1.681606 2.665332
C 2.733461 1.345525 2.762491
C 2.782773 1.735050 2.318620
C 3.092305 0.952306 1.992849
C 2.998267 1.487067 2.478333
C 3.450943 0.988888 2.405415
C 3.526524 1.543825 2.002004
C 3.297151 1.273772 2.344448
C 3.223962 1.822971 2.652379
C 3.803687 1.232489 2.826005
C 3.709046 1.776148 2.208226
C 3.931327 0.947629 1.911456
C 4.008164 1.609587 2.524628
C 4.503211 1.088784 2.583931
C 4.579347 1.448235 2.000949
C 4.186604 1.294765 2.296011
C 4.227532 1.673808 2.762971
C 4.780554 1.251855 2.764485
C 4.749556 1.731114 2.191081
C 5.042680 1.011718 2.056570
C 4.988070 1.584774 2.496552
C 5.435729 1.003246 2.494457
C 5.469595 1.501185 2.026303
C 5.191631 1.278554 2.224621
C 5.347697 1.815910 2.764973
C 5.685985 1.174172 2.704349
C 5.652478 1.738848 2.295407
C 0.011831 2.016897 2.090958
C 0.014212 2.581970 2.427967
C 0.539421 1.921616 2.414642
C 0.472701 2.562337 1.973808
C 0.265099 2.310113 2.165604
C 0.249596 2.718893 2.648175
C 0.739846 2.310843 2.820116
C 0.680363 2.808513 2.198890
C 1.082870 2.086510 2.007592
C 1.006550 2.465995 2.399955
C 1.494929 1.976551 2.429483
C 1.518341 2.484507 1.984327
C 1.204354 2.135420 2.277385
C 1.201936 2.802322 2.864017
C 1.758921 2.231348 2.765802
C 1.738774 2.757678 2.300832
C 1.932469 1.933345 1.992600
C 2.050317 2.556123 2.504483
C 2.504349 1.894485 2.529423
C 2.497607 2.569336 1.934081
C 2.312279 2.276500 2.264107
C 2.299732 2.709567 2.728424
C 2.791084 2.312769 2.685815
C 2.745694 2.709664 2.176550
C 3.082058 2.073042 1.981597
C 2.980548 2.486619 2.386838
C 3.495164 2.029889 2.486182
C 3.514592 2.429952 1.934290
C 3.269982 2.280649 2.198652
C 3.307584 2.727935 2.790576
C 3.717960 2.336487 2.732982
C 3.717342 2.793642 2.312247
C 4.024347 2.016515 1.995202
C 4.057039 2.441691 2.398476
C 4.538778 2.044075 2.451468
C 4.549687 2.485728 2.044177
C 4.273342 2.148616 2.231194
C 4.270546 2.820988 2.776674
C 4.792495 2.193659 2.765795
C 4.683065 2.743758 2.276961
C 4.984159 1.969297 2.083498
C 4.966562 2.515169 2.418224
C 5.451113 1.977495 2.472901
C 5.523995 2.394728 1.946056
C 5.345386 2.271616 2.217684
C 5.172480 2.727301 2.750281
C 5.648429 2.246046 2.722389
C 5.692373 2.766938 2.288882
C 0.042103 2.966805 2.153691
C 0.069852 3.515780 2.406878
C 0.450970 2.971113 2.542844
C 0.471961 3.419313 2.071441
C 0.266844 3.208201 2.317200
C 0.260672 3.681364 2.836726
C 0.700698 3.349465 2.765006
C 0.721777 3.697419 2.247909
C 0.979944 2.984790 1.910225
C 1.081473 3.510721 2.411607
C 1.526775 3.039022 2.595136
C 1.519825 3.546523 2.065530
C 1.220224 3.173463 2.292756
C 1.198042 3.764236 2.828189
C 1.823669 3.281625 2.682812
C 1.655381 3.832686 2.267074
C 2.000961 2.907272 1.992615
C 1.951846 3.549365 2.546009
C 2.482773 3.036013 2.470792
C 2.473642 3.495527 1.902836
C 2.198274 3.262711 2.142024
C 2.331204 3.742128 2.745188
C 2.723900 3.196413 2.662595
C 2.776854 3.674759 2.181492
C 2.996120 3.022954 1.908525
C 2.990809 3.498811 2.566176
C 3.538051 2.957747 2.542789
C 3.413717 3.464682 2.002079
C 3.304526 3.295295 2.289156
C 3.207439 3.792760 2.625045
C 3.818517 3.305873 2.736920
C 3.767187 3.692733 2.175913
C 4.030530 3.048536 1.956107
C 4.009852 3.468369 2.434628
C 4.511983 2.922649 2.521345
C 4.432712 3.409877 2.003123
C 4.184189 3.224767 2.213122
C 4.229269 3.739771 2.730292
C 4.721646 3.307966 2.723749
C 4.760510 3.767739 2.186002
C 4.953968 3.028877 1.964085
C 4.939201 3.534449 2.572902
C 5.511368 3.085997 2.430430
C 5.473901 3.512118 2.044185
C 5.211627 3.174821 2.251370
C 5.342305 3.743333 2.720973
C 5.725917 3.165807 2.793626
C 5.697317 3.718478 2.183174
C 0.000582 4.052241 2.021994
C 0.017816 4.398330 2.461852
C 0.579547 3.961280 2.472187
C 0.568974 4.524380 1.944240
C 0.221758 4.160598 2.276262
C 0.220190 4.784644 2.693284
C 0.778436 4.260321 2.841056
C 0.786901 4.700084 2.295581
C 1.002573 3.945560 1.923834
C 1.031860 4.487922 2.411080
C 1.425914 4.083596 2.458777
C 1.481550 4.445567 2.059760
C 1.259363 4.221711 2.187105
C 1.262458 4.674305 2.734610
C 1.812341 4.207796 2.683941
C 1.751209 4.695588 2.278929
C 2.028718 3.967112 1.960343
C 2.009226 4.512512 2.483563
C 2.437313 3.950520 2.496321
C 2.443795 4.453489 2.072540
C 2.349363 4.265277 2.329743
C 2.249581 4.688588 2.786415
C 2.730668 4.187711 2.708414
C 2.767040 4.843748 2.338848
C 3.045802 3.982576 1.938669
C 2.963251 4.592757 2.544431
C 3.410528 4.019824 2.541249
C 3.547804 4.535376 2.103928
C 3.144157 4.292751 2.256752
C 3.344023 4.696067 2.725225
C 3.772712 4.228523 2.808684
C 3.688608 4.725753 2.340104
C 4.037159 3.952672 2.063312
C 3.974879 4.438949 2.518270
C 4.427085 3.961703 2.500833
C 4.575307 4.466614 1.990333
C 4.297980 4.286852 2.215160
C 4.231939 4.715719 2.774672
C 4.699860 4.305970 2.698984
C 4.662336 4.686519 2.229097
C 4.914922 4.040103 1.979886
C 4.974879 4.439198 2.570135
C 5.435159 3.993943 2.517779
C 5.454364 4.536607 1.945574
C 5.324867 4.281613 2.284941
C 5.304970 4.720434 2.793877
C 5.675142 4.290814 2.764567
C 5.734751 4.591604 2.191776
C 0.101811 4.953128 1.995177
C 0.006728 5.436090 2.441079
C 0.552642 4.914183 2.485616
C 0.512432 5.419455 2.013716
C 0.272544 5.245891 2.304065
C 0.304057 5.671839 2.797566
C 0.810826 5.251772 2.686021
C 0.676612 5.699996 2.282520
C 1.072689 5.010825 1.901383
C 1.023207 5.574367 2.545351
C 1.509154 4.938468 2.425502
C 1.550856 5.538636 2.067595
C 1.212956 5.196987 2.146942
C 1.324880 5.652005 2.768254
C 1.714206 5.319512 2.813719
C 1.820122 5.627760 2.219300
C 1.931781 5.021664 1.948291
C 1.984211 5.432022 2.453118
C 2.513912 5.059531 2.513659
C 2.451046 5.386083 1.957065
C 2.261689 5.278585 2.332222
C 2.126926 5.731725 2.742735
C 2.737459 5.349322 2.666524
C 2.755298 5.689957 2.337916
C 3.000739 5.057460 2.013569
C 3.107538 5.467061 2.471930
C 3.505335 4.966542 2.595254
C 3.495534 5.452875 1.929694
C 3.275587 5.193875 2.216269
C 3.195470 5.743507 2.832335
C 3.632407 5.253093 2.773662
C 3.834610 5.720083 2.201659
C 4.086802 4.994900 1.987765
C 3.953558 5.543252 2.453647
C 4.528764 4.967989 2.470907
C 4.475560 5.449886 2.071644
C 4.344934 5.209679 2.278671
C 4.254918 5.657532 2.821854
C 4.776860 5.179455 2.705457
C 4.629410 5.724255 2.235340
C 5.032767 4.982256 2.031801
C 5.078968 5.490879 2.502247
C 5.540126 4.971207 2.493009
C 5.435971 5.539307 2.027776
C 5.226200 5.275126 2.174006
C 5.252627 5.708649 2.708944
C 5.681235 5.156218 2.766116
C 5.661342 5.721419 2.220054
C 0.112837 0.024511 2.967083
C 0.002314 0.601080 3.522706
C 0.405830 0.118379 3.501861
C 0.533721 0.501170 2.991746
C 0.272332 0.343268 3.206162
C 0.324067 0.806673 3.793416
C 0.728626 0.157789 3.797397
C 0.719584 0.778529 3.267238
C 1.069237 0.034980 2.982116
C 0.926023 0.452287 3.519379
C 1.560949 0.034812 3.578807
C 1.527416 0.510151 2.939607
C 1.253634 0.254300 3.213002
C 1.230775 0.767712 3.762280
C 1.743065 0.279134 3.684467
C 1.753603 0.787214 3.228647
C 1.956584 0.023801 2.966893
C 2.008301 0.409406 3.498889
C 2.561992 0.047227 3.478553
C 2.477147 0.420236 2.921489
C 2.322689 0.243758 3.243693
C 2.308254 0.793554 3.744868
C 2.784917 0.200762 3.682013
C 2.734300 0.743392 3.320602
C 3.035910 0.014023 3.033823
C 2.955896 0.452190 3.489390
C 3.487954 0.053788 3.488086
C 3.478932 0.556295 3.100600
C 3.161387 0.232462 3.295169
C 3.237375 0.723869 3.697622
C 3.761718 0.185899 3.670955
C 3.741357 0.739092 3.356724
C 4.059517 0.004290 3.024690
C 4.100761 0.502350 3.471164
C 4.511003 0.002494 3.498937
C 4.483289 0.550854 3.033609
C 4.232403 0.253788 3.265592
C 4.185039 0.655545 3.780418
C 4.739184 0.241695 3.727343
C 4.644027 0.810019 3.204993
C 5.059882 0.090877 3.035852
C 5.033617 0.599237 3.519284
C 5.559184 0.069085 3.551750
C 5.434478 0.572369 3.001453
C 5.154454 0.203895 3.340788
C 5.255934 0.752880 3.760694
C 5.654678 0.337858 3.660332
C 5.652924 0.773083 3.241557
C 0.028186 1.098289 2.954101
C 0.052335 1.580013 3.466175
C 0.422347 0.992657 3.443900
C 0.493062 1.522502 2.986687
C 0.204402 1.255815 3.190549
C 0.190361 1.696369 3.756046
C 0.754318 1.200709 3.794136
C 0.778466 1.653654 3.267363
C 0.932965 1.024844 3.029352
C 0.931080 1.444065 3.524089
C 1.434939 1.067375 3.525047
C 1.529509 1.538311 2.952869
C 1.228561 1.333317 3.185185
C 1.184065 1.788141 3.708444
C 1.817462 1.325847 3.763320
C 1.707927 1.671939 3.313305
C 1.921896 1.001865 2.950461
C 1.984660 1.424600 3.467754
C 2.473092 0.920183 3.491112
C 2.591143 1.508572 3.044148
C 2.238323 1.321804 3.293943
C 2.289366 1.789319 3.755397
C 2.718321 1.150977 3.698942
C 2.749253 1.773448 3.187696
C 2.968874 0.918307 2.984672
C 2.894676 1.496326 3.495391
C 3.546460 0.998663 3.451246
C 3.459240 1.450269 3.036780
C 3.335627 1.221470 3.243588
C 3.238566 1.688481 3.786058
C 3.803319 1.307058 3.776893
C 3.702953 1.797675 3.177248
C 4.025427 0.926503 3.057854
C 4.026512 1.457887 3.484298
C 4.412798 1.002195 3.520429
C 4.493609 1.453898 3.066791
C 4.229941 1.134544 3.256237
C 4.343817 1.695144 3.730216
C 4.698253 1.217706 3.708923
C 4.800895 1.737980 3.183613
C 5.100705 0.975969 2.976726
C 5.046294 1.523794 3.540835
C 5.562140 1.034085 3.500211
C 5.555466 1.580560 2.954930
C 5.153294 1.266031 3.286330
C 5.183902 1.775011 3.699701
C 5.716241 1.304399 3.711538
C 5.727426 1.801225 3.146322
C 0.041569 2.058103 3.109400
C 0.060729 2.528768 3.460017
C 0.547814 2.019827 3.505448
C 0.458552 2.500135 2.928528
C 0.281919 2.207198 3.323118
C 0.266695 2.852625 3.738811
C 0.750586 2.223672 3.828797
C 0.727140 2.847981 3.310735
C 0.961567 1.912324 3.007441
C 0.994693 2.460688 3.469720
C 1.488743 1.906812 3.514196
C 1.395571 2.565227 2.957417
C 1.276653 2.259334 3.307825
C 1.304402 2.654702 3.732282
C 1.801736 2.238606 3.787028
C 1.827130 2.777918 3.250196
C 2.054309 2.037464 3.061136
C 2.063285 2.477977 3.558611
C 2.572254 1.942051 3.428079
C 2.550195 2.529781 3.095353
C 2.238150 2.275929 3.241199
C 2.190868 2.780498 3.810931
C 2.681991 2.246146 3.689473
C 2.830210 2.779561 3.217688
C 2.985683 1.959788 2.952924
C 3.053318 2.537826 3.525886
C 3.403367 2.003330 3.504534
C 3.504973 2.534595 3.000617
C 3.299673 2.228370 3.303273
C 3.198480 2.757228 3.770600
C 3.823555 2.254861 3.811514
C 3.694459 2.805008 3.243934
C 3.958272 1.921348 2.985489
C 4.016869 2.415977 3.572796
C 4.621153 1.950363 3.558844
C 4.554703 2.506186 3.096693
C 4.203561 2.189441 3.293219
C 4.247996 2.688398 3.819565
C 4.805791 2.328655 3.674823
C 4.810033 2.791422 3.317302
C 4.961014 1.980626 2.990680
C 5.007131 2.554745 3.402611
C 5.462688 2.070151 3.450777
C 5.504238 2.526405 2.968367
C 5.189048 2.229351 3.164535
C 5.294596 2.658496 3.699822
C 5.703621 2.267269 3.828818
C 5.624426 2.765096 3.284841
C 0.049653 2.964807 2.902107
C 0.023718 3.398042 3.463867
C 0.440777 3.000234 3.464339
C 0.467249 3.456567 3.008967
C 0.297512 3.227649 3.238392
C 0.168808 3.805313 3.786187
C 0.652778 3.246662 3.686155
C 0.765377 3.798122 3.319374
C 0.993656 3.043033 3.045421
C 1.024014 3.535035 3.449287
C 1.505609 2.953053 3.511826
C 1.596427 3.470247 2.963853
C 1.312421 3.260519 3.206770
C 1.212091 3.805930 3.652846
C 1.761727 3.193202 3.737323
C 1.726360 3.692911 3.279550
C 1.992731 2.989610 3.031235
C 2.054587 3.458391 3.446888
C 2.565619 3.035468 3.549949
C 2.429182 3.508035 2.959411
C 2.144098 3.274039 3.153846
C 2.334473 3.787106 3.759161
C 2.799904 3.309100 3.738063
C 2.757677 3.779660 3.235670
C 3.020921 2.981871 2.922496
C 2.932790 3.494615 3.503513
C 3.440969 3.019210 3.578583
C 3.591991 3.411183 3.020513
C 3.172911 3.258030 3.237084
C 3.297211 3.705851 3.773541
C 3.740506 3.194867 3.808437
C 3.685883 3.785050 3.224401
C 3.956472 3.015033 3.058950
C 4.077419 3.467637 3.499596
C 4.408220 2.932222 3.550770
C 4.473310 3.531979 3.056307
C 4.269757 3.204171 3.308321
C 4.329285 3.733799 3.710079
C 4.796616 3.322038 3.696765
C 4.788401 3.753459 3.272471
C 4.999589 3.090454 3.024389
C 4.963953 3.534937 3.472848
C 5.543743 3.029179 3.499266
C 5.499507 3.499310 2.955803
C 5.222030 3.299050 3.190662
C 5.216949 3.728514 3.790431
C 5.676450 3.319200 3.755854
C 5.675514 3.717718 3.237707
C 0.001990 4.034484 2.913741
C 0.002805 4.559218 3.548740
C 0.482701 3.973342 3.590888
C 0.442710 4.587087 3.051265
C 0.142502 4.162951 3.249879
C 0.161092 4.789945 3.760144
C 0.838250 4.262854 3.801085
C 0.835307 4.736429 3.239093
C 0.980387 3.991545 2.898480
C 0.972637 4.447946 3.562670
C 1.459844 3.988647 3.554678
C 1.475071 4.594819 2.972053
C 1.208133 4.193096 3.320081
C 1.228695 4.728399 3.825986
C 1.703461 4.153787 3.709841
C 1.675087 4.663845 3.298743
C 2.003570 4.038533 2.991986
C 1.937071 4.507381 3.434535
C 2.512582 3.997228 3.520807
C 2.448381 4.527763 3.076078
C 2.273077 4.265173 3.257721
C 2.331517 4.742019 3.738958
C 2.772267 4.246153 3.825352
C 2.744347 4.800472 3.242423
C 2.975936 4.039174 2.977958
C 3.051656 4.502212 3.479961
C 3.400764 3.983756 3.526352
C 3.547170 4.469255 2.927247
C 3.167308 4.261631 3.209096
C 3.260891 4.686861 3.697393
C 3.832180 4.265918 3.798503
C 3.716392 4.720694 3.278446
C 4.017975 3.943542 2.962351
C 3.938448 4.492901 3.488742
C 4.504868 3.998218 3.549809
C 4.454071 4.577447 2.983909
C 4.325505 4.259925 3.311616
C 4.258474 4.793035 3.771288
C 4.824781 4.198185 3.741614
C 4.766871 4.715854 3.180286
C 4.918636 3.968094 3.023153
C 5.080135 4.563667 3.446927
C 5.556019 3.943990 3.513461
C 5.480805 4.471630 2.978432
C 5.279080 4.273238 3.335744
C 5.256326 4.725669 3.769544
C 5.675713 4.157791 3.732595
C 5.693757 4.861687 3.244249
C 0.032525 4.940679 2.994645
C 0.027347 5.488927 3.475667
C 0.445489 4.901862 3.534667
C 0.546376 5.401356 3.012310
C 0.199112 5.277473 3.218330
C 0.262140 5.731134 3.790905
C 0.781387 5.320606 3.701701
C 0.709944 5.638701 3.252103
C 1.050486 5.015867 3.042061
C 1.065561 5.512177 3.468297
C 1.432093 5.049302 3.497431
C 1.597529 5.504783 3.094837
C 1.190139 5.319209 3.231056
C 1.252887 5.690634 3.684653
C 1.632143 5.304530 3.770124
C 1.854201 5.727237 3.173068
C 2.066903 5.050619 2.943398
C 1.949644 5.448256 3.505246
C 2.443850 4.986735 3.568347
C 2.428416 5.470765 2.916311
C 2.282587 5.298074 3.221841
C 2.257743 5.701115 3.800777
C 2.770351 5.329769 3.740692
C 2.642628 5.748496 3.212165
C 2.995069 4.984962 2.931731
C 2.976896 5.547347 3.437721
C 3.451989 4.973246 3.468589
C 3.447479 5.440584 2.990608
C 3.220204 5.308498 3.194231
C 3.189767 5.739207 3.854163
C 3.685966 5.311917 3.727343
C 3.838686 5.667819 3.295363
C 3.898013 5.039613 3.011267
C 3.993919 5.510018 3.558266
C 4.511358 5.026406 3.415653
C 4.557926 5.580609 2.968747
C 4.254894 5.289235 3.188906
C 4.241778 5.716448 3.734771
C 4.747982 5.218149 3.782348
C 4.752356 5.673230 3.264400
C 4.981461 5.078614 2.946564
C 5.015684 5.620929 3.463214
C 5.468738 4.991222 3.587279
C 5.582225 5.424244 2.953407
C 5.331796 5.348625 3.281606
C 5.278789 5.729462 3.775896
C 5.686299 5.326366 3.742308
C 5.700868 5.653489 3.254123
C 0.086037 0.019001 3.940228
C 0.037263 0.584671 4.541446
C 0.464899 0.065264 4.534656
C 0.508828 0.499203 4.047941
C 0.347308 0.199319 4.263749
C 0.235977 0.847245 4.771560
C 0.698341 0.227380 4.803243
C 0.678543 0.794573 4.209751
C 1.053696 0.040845 4.026652
C 1.002422 0.530770 4.566488
C 1.493724 0.060833 4.593752
C 1.486227 0.520736 3.968938
C 1.303234 0.228463 4.214152
C 1.244687 0.738449 4.713415
C 1.726334 0.305350 4.761932
C 1.828527 0.719187 4.244743
C 2.047922 0.015423 3.991229
C 2.015512 0.508742 4.586789
C 2.486762 0.028357 4.547882
C 2.508338 0.507767 4.095327
C 2.278473 0.214172 4.250869
C 2.156221 0.725748 4.803383
C 2.801480 0.324170 4.797647
C 2.690476 0.786666 4.252170
C 3.020455 0.062855 4.005879
C 3.010410 0.510338 4.485692
C 3.473763 0.044963 4.563970
C 3.451414 0.522632 4.031115
C 3.292557 0.195272 4.281626
C 3.239161 0.767611 4.653255
C 3.767484 0.210870 4.773722
C 3.730484 0.770533 4.308445
C 3.937584 0.114192 4.007873
C 3.926155 0.527606 4.544913
C 4.545685 0.010227 4.520070
C 4.487486 0.495237 3.931856
C 4.146204 0.224380 4.227554
C 4.301494 0.822621 4.723856
C 4.709071 0.361912 4.738954
C 4.750015 0.652313 4.242941
C 4.895409 0.084661 4.050790
C 5.053177 0.520773 4.494685
C 5.551136 0.013176 4.584029
C 5.508858 0.520991 3.938740
C 5.214566 0.268422 4.292064
C 5.230287 0.686433 4.732628
C 5.743732 0.215548 4.798577
C 5.714615 0.831320 4.273241
C 0.091647 0.991131 3.936618
C 0.107209 1.487242 4.474553
C 0.531647 1.059803 4.537277
C 0.537257 1.447686 3.969622
C 0.306112 1.261326 4.258618
C 0.244863 1.671060 4.749238
C 0.755643 1.207898 4.779887
C 0.759319 1.800134 4.304238
C 0.914706 0.973998 4.046314
C 0.960521 1.384321 4.568667
C 1.547684 1.034189 4.425389
C 1.487594 1.495906 3.947159
C 1.234316 1.313796 4.327338
C 1.173890 1.753972 4.823126
C 1.813380 1.208477 4.685960
C 1.724010 1.850112 4.237344
C 2.074653 1.014463 4.020353
C 2.043744 1.428123 4.550393
C 2.540033 0.904057 4.540283
C 2.550771 1.538161 3.996868
C 2.304770 1.238824 4.277680
C 2.311357 1.677405 4.776404
C 2.754221 1.346383 4.786531
C 2.734350 1.747241 4.196551
C 2.948139 1.088759 3.978801
C 3.036862 1.470257 4.409268
C 3.482322 0.944396 4.492364
C 3.546935 1.478949 3.928520
C 3.181330 1.203231 4.314486
C 3.289055 1.825788 4.752391
C 3.729179 1.156687 4.804217
C 3.733907 1.671132 4.209970
C 3.939419 1.010293 4.000840
C 3.985705 1.431592 4.612632
C 4.544174 0.980690 4.566840
C 4.540301 1.542597 4.053422
C 4.269019 1.224744 4.317109
C 4.222599 1.716646 4.747568
C 4.725613 1.336497 4.682810
C 4.751468 1.715532 4.274333
C 4.971067 1.061081 4.012533
C 4.987363 1.508924 4.485602
C 5.451780 1.004008 4.484641
C 5.583438 1.530853 3.962340
C 5.240567 1.272005 4.258746
C 5.252569 1.807959 4.677237
C 5.719519 1.136844 4.748029
C 5.698257 1.725611 4.239994
C 0.028045 1.943593 3.893489
C 0.012621 2.482735 4.585342
C 0.458265 2.080309 4.416614
C 0.448003 2.486962 3.923104
C 0.185028 2.277892 4.328387
C 0.168304 2.771251 4.718800
C 0.717452 2.223977 4.648488
C 0.782865 2.773371 4.283503
C 0.947182 1.959890 4.021070
C 0.933375 2.543571 4.490818
C 1.513573 2.069556 4.547793
C 1.456018 2.542284 4.019207
C 1.211188 2.267668 4.333677
C 1.306481 2.828294 4.739390
C 1.856086 2.316179 4.784163
C 1.756193 2.688279 4.154936
C 1.989079 2.034612 3.987077
C 1.899392 2.466011 4.476642
C 2.500518 1.967273 4.584069
C 2.428817 2.499940 3.950049
C 2.270111 2.252999 4.183605
C 2.252143 2.637511 4.707337
C 2.734251 2.217180 4.719598
C 2.764815 2.673881 4.223436
C 2.985496 1.955032 3.950018
C 3.000062 2.478882 4.595619
C 3.461599 2.062614 4.500217
C 3.533062 2.409694 3.991227
C 3.254692 2.323425 4.265933
C 3.208830 2.887828 4.743599
C 3.823316 2.228326 4.702430
C 3.783554 2.830949 4.191753
C 3.966397 1.891188 4.018502
C 4.064100 2.532067 4.431707
C 4.458156 2.060025 4.419069
C 4.601014 2.497242 3.943897
C 4.238635 2.289383 4.317080
C 4.281718 2.663261 4.720859
C 4.674531 2.217344 4.792579
C 4.726891 2.769886 4.309315
C 4.982172 2.005792 3.902680
C 5.040091 2.447310 4.531692
C 5.500860 2.050873 4.586591
C 5.475374 2.452758 3.997516
C 5.292162 2.238990 4.284501
C 5.272439 2.704845 4.783601
C 5.744277 2.329690 4.849314
C 5.672978 2.632391 4.266528
C 0.040824 2.959003 4.051817
C 0.041561 3.489088 4.511797
C 0.455254 2.934146 4.555398
C 0.423555 3.612960 4.045914
C 0.239997 3.257403 4.171184
C 0.232325 3.725733 4.757893
C 0.773401 3.330993 4.776263
C 0.818508 3.718492 4.154943
C 1.025428 2.961563 3.990309
C 1.012825 3.505227 4.568481
C 1.455189 3.025872 4.511726
C 1.567632 3.519486 3.943865
C 1.244316 3.133441 4.232829
C 1.245917 3.672748 4.740818
C 1.680687 3.299941 4.701696
C 1.736038 3.803689 4.289224
C 2.075099 2.954704 4.081216
C 2.052778 3.490068 4.554870
C 2.487864 3.067969 4.555432
C 2.546811 3.590541 3.977211
C 2.205608 3.268891 4.144280
C 2.295085 3.789479 4.800218
C 2.748910 3.331352 4.821464
C 2.658335 3.711737 4.281555
C 3.032172 2.942231 4.032262
C 2.997718 3.397518 4.476439
C 3.486620 2.973111 4.543998
C 3.522518 3.577944 4.049836
C 3.260126 3.221140 4.245281
C 3.285651 3.795254 4.687402
C 3.829230 3.314758 4.754348
C 3.734803 3.831822 4.202730
C 4.043668 3.028021 3.990704
C 3.995210 3.561297 4.523972
C 4.548420 3.091821 4.415622
C 4.438444 3.480040 4.033359
C 4.201989 3.157965 4.246117
C 4.154447 3.768027 4.762483
C 4.865596 3.249527 4.732794
C 4.830681 3.775342 4.318546
C 5.046869 3.025729 4.064485
C 4.890975 3.399245 4.465672
C 5.566511 2.992590 4.422405
C 5.527468 3.438517 4.043419
C 5.265631 3.181745 4.308157
C 5.277781 3.742340 4.679592
C 5.749794 3.297003 4.786820
C 5.697322 3.666651 4.239466
C 0.008825 3.953252 4.062265
C 0.008673 4.519585 4.526536
C 0.485265 4.054414 4.486197
C 0.539166 4.489756 3.940629
C 0.157601 4.281067 4.332135
C 0.169242 4.721621 4.745680
C 0.792028 4.210878 4.808561
C 0.648615 4.774258 4.264626
C 0.989630 3.977409 4.065844
C 0.990277 4.579030 4.454284
C 1.531131 4.019759 4.456854
C 1.414160 4.469179 3.968940
C 1.281213 4.197288 4.178251
C 1.211875 4.702823 4.676115
C 1.803800 4.214014 4.685571
C 1.745284 4.759081 4.170191
C 1.989956 4.004717 4.046464
C 1.988635 4.542283 4.480707
C 2.475600 4.025381 4.490067
C 2.445779 4.498492 4.079118
C 2.233737 4.263623 4.244758
C 2.297186 4.780703 4.640556
C 2.807957 4.227009 4.829663
C 2.683504 4.760328 4.215803
C 3.017895 3.913410 4.025559
C 2.891922 4.480757 4.569670
C 3.493500 4.017059 4.536393
C 3.516398 4.501175 3.918398
C 3.283120 4.356091 4.235534
C 3.287397 4.812828 4.779739
C 3.751562 4.168464 4.817301
C 3.770474 4.791044 4.235283
C 4.063588 3.987476 3.959653
C 3.968729 4.499619 4.502220
C 4.473322 3.927516 4.429631
C 4.431660 4.536237 4.053959
C 4.219783 4.350124 4.279451
C 4.298027 4.657593 4.786124
C 4.770353 4.140016 4.785597
C 4.805524 4.714411 4.279375
C 5.037301 3.975671 3.934971
C 4.995672 4.383722 4.432935
C 5.508403 4.025380 4.553844
C 5.518081 4.597962 4.009674
C 5.265343 4.319727 4.306141
C 5.130767 4.724349 4.735014
C 5.733271 4.247738 4.670969
C 5.732406 4.705146 4.296383
C 0.040713 4.933986 4.070602
C 0.046885 5.564935 4.538214
C 0.387776 4.947842 4.583041
C 0.477766 5.578707 4.001251
C 0.256949 5.335830 4.256167
C 0.253418 5.728775 4.757316
C 0.751552 5.202494 4.725700
C 0.804788 5.708964 4.270634
C 1.014513 4.931182 4.037549
C 1.031319 5.493907 4.451790
C 1.526693 5.064356 4.478503
C 1.441215 5.545137 3.933114
C 1.247961 5.254345 4.282121
C 1.344927 5.712600 4.738520
C 1.780571 5.172245 4.745873
C 1.802071 5.733411 4.195573
C 1.911851 4.937045 3.935512
C 2.053678 5.599398 4.508497
C 2.419681 5.011719 4.447345
C 2.508002 5.412813 4.046028
C 2.240064 5.344756 4.326784
C 2.283073 5.685931 4.731536
C 2.770979 5.372337 4.753888
C 2.751212 5.746826 4.179049
C 2.983969 4.981765 4.084464
C 2.950129 5.473452 4.437380
C 3.516200 5.044358 4.577616
C 3.535995 5.551929 3.995745
C 3.203102 5.255940 4.278606
C 3.126995 5.726004 4.685026
C 3.781912 5.214802 4.726096
C 3.764952 5.721486 4.299173
C 3.941930 4.966869 4.002741
C 3.902914 5.463275 4.527742
C 4.389602 4.986238 4.522235
C 4.522806 5.521163 4.060010
C 4.287076 5.288712 4.195813
C 4.255672 5.733216 4.819682
C 4.748604 5.313349 4.843816
C 4.802783 5.677990 4.206737
C 4.946811 5.013790 3.991265
C 5.029751 5.516034 4.497024
C 5.473620 4.907795 4.525088
C 5.456656 5.497883 3.951182
C 5.257035 5.189287 4.281569
C 5.185475 5.680868 4.776063
C 5.714233 5.313152 4.809369
C 5.666412 5.683587 4.226609
C 0.013764 0.003206 4.860701
C 0.096460 0.501017 5.535207
C 0.615887 0.012301 5.442758
C 0.589348 0.494274 5.007492
C 0.255795 0.181710 5.320134
C 0.342819 0.744591 5.735819
C 0.670280 0.165988 5.741127
C 0.697254 0.769501 5.188511
C 1.027579 0.013298 5.033187
C 1.010484 0.505434 5.422613
C 1.552388 0.061349 5.600633
C 1.529654 0.548885 4.988687
C 1.243152 0.305531 5.352799
C 1.317966 0.745348 5.741096
C 1.715713 0.338804 5.734404
C 1.742616 0.697383 5.308852
C 2.082654 0.023420 5.059414
C 1.964821 0.565729 5.521954
C 2.415523 0.069451 5.579631
C 2.571965 0.451064 5.036421
C 2.311734 0.239681 5.228931
C 2.288411 0.779801 5.662690
C 2.666710 0.305767 5.732524
C 2.664332 0.775338 5.220943
C 2.965009 0.101724 5.002236
C 2.987939 0.470695 5.568572
C 3.519753 0.010100 5.521106
C 3.578001 0.511856 4.988031
C 3.215406 0.208768 5.184780
C 3.211108 0.675317 5.672189
C 3.705185 0.230413 5.739178
C 3.663518 0.748147 5.280151
C 4.086788 0.049864 4.987078
C 4.103779 0.477451 5.445971
C 4.563499 0.044005 5.550708
C 4.411068 0.478567 4.967064
C 4.253211 0.201765 5.295583
C 4.244094 0.758451 5.624398
C 4.819478 0.175133 5.734155
C 4.814492 0.778244 5.239031
C 5.072396 0.021403 4.980675
C 5.039910 0.433000 5.510929
C 5.566716 0.023621 5.517997
C 5.456624 0.512122 5.078092
C 5.245092 0.295868 5.288270
C 5.266580 0.775682 5.724193
C 5.680683 0.255968 5.707680
C 5.693265 0.757001 5.286236
C 0.129454 0.956845 5.040082
C 0.008106 1.471869 5.424590
C 0.522154 1.023454 5.431270
C 0.418222 1.448949 4.929864
C 0.183622 1.204291 5.273019
C 0.294895 1.675701 5.667119
C 0.664072 1.308449 5.739905
C 0.779401 1.713795 5.190102
C 1.058662 1.105994 5.009701
C 0.947881 1.485807 5.564765
C 1.478004 1.034217 5.614452
C 1.585192 1.499688 4.989450
C 1.230825 1.373387 5.264271
C 1.284973 1.814276 5.722708
C 1.763794 1.185099 5.661660
C 1.682348 1.728822 5.279940
C 2.032864 1.045302 4.975166
C 1.993134 1.478507 5.597465
C 2.481652 1.035487 5.420410
C 2.415588 1.513562 5.079519
C 2.222268 1.246698 5.187788
C 2.304856 1.670549 5.722443
C 2.793962 1.203890 5.683788
C 2.771736 1.770099 5.259526
C 3.080108 0.999295 5.009482
C 3.012897 1.419708 5.462413
C 3.515882 1.072311 5.418529
C 3.428070 1.421755 5.046529
C 3.185552 1.227035 5.214990
C 3.219183 1.662962 5.697866
C 3.846445 1.213028 5.724001
C 3.709885 1.723144 5.219585
C 4.035326 1.026777 4.944146
C 3.992824 1.493867 5.457938
C 4.596152 0.956319 5.470262
C 4.551606 1.436515 4.975233
C 4.223023 1.167443 5.187613
C 4.172478 1.774632 5.705338
C 4.798959 1.253963 5.666237
C 4.789419 1.802864 5.285719
C 4.922460 0.976636 4.978769
C 4.985229 1.500345 5.541405
C 5.554930 0.998678 5.466866
C 5.454829 1.467534 4.904740
C 5.145959 1.262152 5.288847
C 5.230115 1.692893 5.653346
C 5.685341 1.078494 5.722655
C 5.665908 1.809491 5.352850
C 0.016746 1.922435 5.062391
C 0.053281 2.529637 5.384153
C 0.426300 2.044711 5.450684
C 0.451334 2.539655 5.124957
C 0.256731 2.287416 5.320157
C 0.250303 2.676393 5.700544
C 0.694676 2.382418 5.739765
C 0.704046 2.728741 5.141095
C 1.033785 2.002047 5.015809
C 0.983584 2.512038 5.558934
C 1.498724 2.053135 5.577289
C 1.570340 2.485332 5.006449
C 1.184714 2.256589 5.175700
C 1.255059 2.668054 5.726683
C 1.757418 2.262173 5.641894
C 1.724426 2.673468 5.232615
C 1.998960 2.108206 5.012967
C 2.005630 2.396295 5.575265
C 2.552638 2.008114 5.391524
C 2.570311 2.441751 4.914071
C 2.314999 2.302407 5.189965
C 2.283610 2.717748 5.692384
C 2.724181 2.333395 5.741020
C 2.829070 2.816429 5.263021
C 2.946637 2.059850 5.046727
C 3.040541 2.549609 5.556196
C 3.475132 1.944533 5.522780
C 3.470545 2.511480 5.020560
C 3.277245 2.190918 5.280983
C 3.166576 2.800256 5.734492
C 3.766289 2.325006 5.709885
C 3.774401 2.779727 5.364162
C 3.981738 1.949873 4.926267
C 3.982724 2.510934 5.511951
C 4.413728 1.933746 5.507885
C 4.555183 2.485641 4.948688
C 4.273176 2.239803 5.290905
C 4.230806 2.669103 5.665010
C 4.800281 2.217359 5.670752
C 4.686185 2.769485 5.228407
C 5.046497 1.982036 4.925313
C 4.899080 2.489500 5.531298
C 5.485472 2.073428 5.441860
C 5.531038 2.543430 5.009853
C 5.241014 2.336318 5.252394
C 5.229674 2.774749 5.688229
C 5.663054 2.169211 5.708183
C 5.672950 2.697351 5.313808
C 0.067053 3.041814 5.017663
C 0.079876 3.469244 5.504559
C 0.523441 2.932875 5.473526
C 0.404843 3.485988 4.991174
C 0.278410 3.254025 5.195712
C 0.187940 3.701296 5.736576
C 0.675885 3.223703 5.688695
C 0.726317 3.751165 5.361901
C 0.918820 2.928718 4.965594
C 1.041064 3.418551 5.483870
C 1.474366 2.982381 5.429148
C 1.502433 3.571024 4.963122
C 1.272727 3.306504 5.187974
C 1.312388 3.708363 5.677709
C 1.777719 3.175642 5.688453
C 1.728830 3.771440 5.210312
C 2.008630 2.918526 4.957814
C 2.077451 3.489340 5.555182
C 2.486048 2.960734 5.541947
C 2.511340 3.533028 4.924300
C 2.319869 3.227786 5.230443
C 2.320698 3.756549 5.710305
C 2.725137 3.258255 5.695988
C 2.668722 3.719293 5.300966
C 3.002544 2.941707 5.005013
C 3.014798 3.515210 5.410806
C 3.483485 3.019809 5.411905
C 3.559010 3.474583 5.037890
C 3.296853 3.277018 5.325387
C 3.308476 3.650131 5.694286
C 3.672375 3.261377 5.693734
C 3.780870 3.705227 5.139182
C 4.024909 2.956940 4.997569
C 3.931020 3.502473 5.422082
C 4.453561 2.942388 5.540132
C 4.426411 3.490031 4.933458
C 4.196514 3.233568 5.327895
C 4.252134 3.671676 5.738762
C 4.809642 3.172081 5.638008
C 4.825057 3.709505 5.195181
C 4.933951 2.996167 5.018390
C 4.958087 3.441370 5.471009
C 5.586923 2.950789 5.558702
C 5.450780 3.519865 5.055613
C 5.206781 3.229851 5.221091
C 5.184645 3.731438 5.733590
C 5.746806 3.208795 5.639979
C 5.714627 3.844657 5.237143
C 0.001031 3.945438 4.969509
C 0.004250 4.447276 5.492669
C 0.527376 4.084832 5.459559
C 0.396712 4.529049 5.017431
C 0.244118 4.181059 5.178688
C 0.278036 4.763974 5.696641
C 0.674991 4.253288 5.741843
C 0.779932 4.810362 5.198132
C 0.925897 3.970815 5.092906
C 0.985758 4.488782 5.602192
C 1.472743 3.981767 5.534803
C 1.539050 4.474331 5.042760
C 1.224699 4.306187 5.257000
C 1.285870 4.748603 5.731570
C 1.632777 4.239680 5.716099
C 1.742382 4.704706 5.190853
C 1.937173 3.942240 5.005131
C 2.007111 4.444190 5.462980
C 2.413482 3.963586 5.455543
C 2.488820 4.433860 4.935045
C 2.330259 4.204574 5.205178
C 2.200941 4.740556 5.662363
C 2.894124 4.263313 5.747345
C 2.737602 4.750971 5.237705
C 3.039976 3.946482 5.023714
C 2.975106 4.532850 5.609842
C 3.427522 4.017833 5.524947
C 3.587834 4.518357 4.905963
C 3.212898 4.236305 5.331604
C 3.353108 4.768836 5.739420
C 3.789399 4.326121 5.722020
C 3.736459 4.647724 5.272322
C 3.946562 3.970831 5.073999
C 4.002113 4.421684 5.441227
C 4.388425 3.928251 5.472547
C 4.519276 4.447063 4.882478
C 4.203238 4.292464 5.218324
C 4.301185 4.860015 5.740786
C 4.699047 4.202196 5.712386
C 4.659628 4.759305 5.289594
C 5.082357 4.025764 5.073243
C 4.939383 4.574375 5.503959
C 5.562400 4.067413 5.458359
C 5.535289 4.556094 4.954317
C 5.185827 4.254408 5.317326
C 5.270347 4.820752 5.699392
C 5.677819 4.277740 5.738256
C 5.696343 4.798309 5.205964
C 0.009360 5.035315 4.903879
C 0.002228 5.571839 5.562230
C 0.486596 5.025011 5.475711
C 0.447219 5.465407 5.062077
C 0.170502 5.209418 5.210505
C 0.245247 5.738654 5.614379
C 0.718269 5.294383 5.656424
C 0.728429 5.727436 5.240240
C 0.946936 5.059568 4.987094
C 1.051791 5.520726 5.614889
C 1.494722 5.009832 5.444264
C 1.578698 5.554515 4.916361
C 1.334165 5.251595 5.167891
C 1.195109 5.739036 5.608493
C 1.841146 5.314246 5.749153
C 1.674118 5.737665 5.264470
C 2.093245 4.980548 4.925254
C 1.929849 5.511977 5.494584
C 2.535711 4.983184 5.419076
C 2.411596 5.467563 4.943735
C 2.251834 5.319391 5.202245
C 2.209994 5.710585 5.706562
C 2.756545 5.153179 5.693758
C 2.644262 5.708651 5.201752
C 3.017300 5.032303 4.972964
C 3.016164 5.378985 5.503756
C 3.466969 4.984882 5.522979
C 3.441291 5.543231 4.972446
C 3.253034 5.329190 5.265416
C 3.345641 5.748865 5.727452
C 3.732387 5.143903 5.715249
C 3.751965 5.714978 5.233819
C 4.014006 5.008978 4.898263
C 4.070234 5.546738 5.505085
C 4.516666 4.940118 5.527511
C 4.578224 5.487053 5.081325
C 4.238105 5.263056 5.255276
C 4.311191 5.727245 5.711247
C 4.836614 5.228539 5.700533
C 4.662566 5.734800 5.281511
C 5.051982 5.015592 5.062977
C 5.053978 5.469289 5.575103
C 5.628472 4.993806 5.521597
C 5.506963 5.496244 5.102504
C 5.204961 5.341476 5.259670
C 5.390367 5.699051 5.700102
C 5.678072 5.251630 5.716187
C 5.734406 5.660353 5.283728
1728
Frame 7/10
C 0.030209 0.036024 0.095807
C 0.074271 0.415435 0.466624
C 0.432462 0.000437 0.515218
C 0.550991 0.492456 0.139410
C 0.335483 0.252052 0.301134
C 0.143162 0.699190 0.736340
C 0.653874 0.282047 0.797711
C 0.733361 0.719993 0.322459
C 1.083090 0.021165 0.063605
C 1.003702 0.523497 0.443428
C 1.551621 0.006055 0.358715
C 1.539071 0.420646 0.056584
C 1.290225 0.268729 0.215786
C 1.315287 0.635157 0.800266
C 1.688676 0.161372 0.687836
C 1.660976 0.708549 0.212256
C 1.876678 0.012180 0.044163
C 1.904127 0.456910 0.453297
C 2.430639 0.037647 0.517635
C 2.583333 0.462229 0.042917
C 2.279406 0.207763 0.195743
C 2.241488 0.830621 0.818755
C 2.710616 0.178975 0.885725
C 2.744442 0.801425 0.169227
C 3.056969 0.023793 0.074019
C 3.013699 0.439278 0.495573
C 3.460190 0.021145 0.499305
C 3.541442 0.548554 0.042895
C 3.369553 0.286400 0.253230
C 3.343466 0.820218 0.792708
C 3.802367 0.172686 0.777044
C 3.809872 0.777180 0.201300
C 4.111232 0.138614 0.025311
C 4.108761 0.508961 0.478720
C 4.435957 0.015109 0.597105
C 4.494453 0.478325 0.005223
C 4.298857 0.387453 0.237391
C 4.386136 0.726221 0.750830
C 4.766124 0.284540 0.837494
C 4.735370 0.844421 0.220034
C 4.984455 0.113724 0.044742
C 4.909041 0.505736 0.508130
C 5.504190 0.147458 0.468860
C 5.374300 0.485366 0.119839
C 5.226769 0.178984 0.239806
C 5.238406 0.768372 0.791976
C 5.663106 0.281934 0.864333
C 5.694135 0.682963 0.201679
C 0.047572 0.929385 0.039325
C 0.093958 1.576807 0.475335
C 0.469137 1.001225 0.558868
C 0.566483 1.475290 0.085398
C 0.203451 1.304655 0.330699
C 0.365595 1.774051 0.788985
C 0.646126 1.194527 0.749175
C 0.753493 1.713409 0.282065
C 1.125543 0.904763 0.022594
C 0.980024 1.482339 0.379879
C 1.499384 0.940248 0.529889
C 1.458536 1.519390 0.005061
C 1.265213 1.282996 0.196412
C 1.152901 1.776654 0.716674
C 1.789439 1.230358 0.700504
C 1.733831 1.870719 0.321866
C 2.023881 0.977277 0.095065
C 1.881108 1.560412 0.526733
C 2.515634 1.028776 0.473351
C 2.549775 1.582048 0.000546
C 2.288908 1.308433 0.157583
C 2.350591 1.783446 0.689132
C 2.727952 1.166805 0.717013
C 2.728715 1.740254 0.256816
C 3.077419 1.059422 0.069270
C 2.937468 1.434984 0.546061
C 3.526383 1.005460 0.513870
C 3.514343 1.490725 0.059682
C 3.339693 1.238647 0.193069
C 3.324252 1.773259 0.804129
C 3.657825 1.146920 0.755581
C 3.630058 1.725047 0.298678
C 4.090739 1.009481 0.006033
C 3.876363 1.581947 0.528161
C 4.465937 1.041648 0.477855
C 4.493129 1.448403 0.068452
C 4.326293 1.317619 0.334513
C 4.273765 1.674988 0.814541
C 4.773129 1.205015 0.764632
C 4.706297 1.734903 0.238151
C 5.083636 0.937459 0.073036
C 4.977844 1.386111 0.533036
C 5.406337 0.885070 0.532758
C 5.483681 1.460094 0.091128
C 5.255617 1.206701 0.233664
C 5.265317 1.751249 0.750030
C 5.622452 1.156696 0.738148
C 5.716829 1.703181 0.164168
C 0.017124 1.880874 0.060190
C 0.052972 2.555858 0.498703
C 0.416127 2.011354 0.446078
C 0.579691 2.549363 0.083492
C 0.319377 2.351726 0.234128
C 0.264418 2.631280 0.757641
C 0.680095 2.279689 0.697662
C 0.676730 2.722002 0.333159
C 1.067138 2.085276 0.100605
C 1.008188 2.504016 0.507098
C 1.466811 1.969252 0.418532
C 1.609668 2.438273 0.032344
C 1.291483 2.284760 0.285426
C 1.216443 2.812007 0.871227
C 1.753263 2.359796 0.709004
C 1.737312 2.657250 0.319066
C 2.059252 2.032403 0.014173
C 1.975904 2.397510 0.473001
C 2.529060 1.934526 0.468086
C 2.479721 2.661344 0.114765
C 2.271565 2.346050 0.182815
C 2.345113 2.718664 0.773195
C 2.698436 2.179907 0.665104
C 2.765661 2.700933 0.189428
C 2.880695 2.032794 0.039747
C 3.054707 2.563843 0.553809
C 3.445142 1.917021 0.504525
C 3.497008 2.365217 0.063188
C 3.204522 2.143885 0.314309
C 3.258343 2.649733 0.818581
C 3.655708 2.145454 0.804878
C 3.802771 2.743238 0.250484
C 3.905120 2.059563 0.124186
C 3.986108 2.528615 0.443551
C 4.523493 2.115294 0.421840
C 4.418576 2.581791 0.011413
C 4.180697 2.263174 0.285154
C 4.337352 2.757000 0.724031
C 4.769829 2.261333 0.760560
C 4.781555 2.856743 0.216736
C 5.090565 2.038842 0.008890
C 5.019229 2.464776 0.479518
C 5.604771 2.032978 0.592867
C 5.605526 2.530045 0.039441
C 5.254522 2.191772 0.348567
C 5.133486 2.723434 0.720640
C 5.602912 2.267195 0.760382
C 5.642121 2.828872 0.233858
C 0.034268 3.016124 0.049192
C 0.114282 3.517304 0.581505
C 0.404941 3.013611 0.474506
C 0.437947 3.503333 0.038962
C 0.263959 3.357006 0.333943
C 0.346737 3.798247 0.634467
C 0.829522 3.343113 0.768930
C 0.718135 3.823375 0.255531
C 0.976165 2.995065 0.106465
C 1.039042 3.546731 0.463836
C 1.534825 3.066299 0.450711
C 1.488092 3.510257 0.071712
C 1.270875 3.216623 0.242655
C 1.244972 3.863925 0.813434
C 1.788727 3.246082 0.726529
C 1.752033 3.662756 0.212182
C 1.899359 2.935033 0.085186
C 2.059545 3.460528 0.572634
C 2.599561 3.007165 0.468073
C 2.559261 3.594482 0.029258
C 2.250008 3.289450 0.206624
C 2.163694 3.729979 0.725402
C 2.627232 3.195063 0.780331
C 2.852259 3.744468 0.314542
C 3.024878 2.856135 0.106890
C 3.095115 3.541499 0.483080
C 3.413532 3.044868 0.458041
C 3.609965 3.508248 0.034828
C 3.285413 3.288524 0.117458
C 3.136780 3.736788 0.729744
C 3.663192 3.250888 0.726321
C 3.749257 3.646728 0.317069
C 3.961840 3.012159 0.079408
C 4.033623 3.498519 0.370557
C 4.525596 2.999700 0.619316
C 4.469625 3.551558 0.031495
C 4.175061 3.149200 0.282026
C 4.230310 3.770502 0.867027
C 4.754851 3.300931 0.735137
C 4.728856 3.688808 0.200417
C 4.943831 3.093168 0.027485
C 4.907693 3.419231 0.486267
C 5.525184 3.082290 0.491874
C 5.475463 3.445756 0.080915
C 5.168533 3.307937 0.269058
C 5.268672 3.759779 0.755144
C 5.748153 3.088689 0.807710
C 5.683407 3.851041 0.219508
C 0.096648 3.880142 0.060714
C 0.018047 4.480738 0.410584
C 0.583364 4.055866 0.573097
C 0.455064 4.597519 0.019020
C 0.265762 4.339818 0.267531
C 0.208163 4.694405 0.864580
C 0.746299 4.246284 0.820316
C 0.648056 4.827252 0.235616
C 1.043714 4.050101 0.014759
C 0.969407 4.469291 0.540168
C 1.489043 3.994489 0.612529
C 1.392140 4.436136 0.003723
C 1.344579 4.193704 0.254436
C 1.214740 4.750760 0.678053
C 1.698508 4.217992 0.665886
C 1.712357 4.800785 0.192371
C 2.089610 3.994159 0.009620
C 1.958909 4.555374 0.590830
C 2.450546 3.908641 0.525778
C 2.416961 4.504785 0.083611
C 2.317655 4.214747 0.177082
C 2.263056 4.731511 0.738260
C 2.763474 4.287982 0.772023
C 2.728463 4.873465 0.250929
C 2.994097 4.034421 0.154476
C 3.082518 4.464556 0.554814
C 3.487645 4.025385 0.507882
C 3.507648 4.605057 0.097378
C 3.208480 4.236440 0.306678
C 3.212190 4.722578 0.782866
C 3.703007 4.344064 0.801743
C 3.871064 4.709153 0.242624
C 4.035482 4.131293 0.036383
C 4.000113 4.439497 0.518439
C 4.503148 4.104882 0.439912
C 4.554409 4.445579 0.157565
C 4.211030 4.259628 0.324650
C 4.271447 4.778162 0.808292
C 4.728608 4.248740 0.618971
C 4.721526 4.713771 0.208935
C 4.967683 3.975711 0.004944
C 4.976971 4.489667 0.607246
C 5.592931 3.996772 0.560596
C 5.482557 4.426206 0.059341
C 5.141486 4.228604 0.301723
C 5.239473 4.813420 0.738521
C 5.745919 4.197743 0.766766
C 5.713734 4.740260 0.183262
C 0.005046 4.923784 0.021419
C 0.078826 5.555758 0.407947
C 0.547433 4.996143 0.624932
C 0.630792 5.586825 0.007768
C 0.285788 5.142610 0.167818
C 0.283137 5.732164 0.833302
C 0.807906 5.286955 0.713763
C 0.794684 5.700800 0.368031
C 0.894815 4.982058 0.026106
C 0.966954 5.475770 0.502085
C 1.505035 4.967666 0.552978
C 1.513411 5.521120 0.127975
C 1.252383 5.272402 0.118682
C 1.113256 5.719566 0.680232
C 1.756293 5.241526 0.854240
C 1.719440 5.710645 0.372206
C 2.017910 4.955243 0.015452
C 2.014970 5.603244 0.528580
C 2.456533 4.940040 0.467285
C 2.494753 5.348611 0.071583
C 2.259586 5.143383 0.226459
C 2.336132 5.727239 0.604082
C 2.763926 5.240347 0.690853
C 2.688288 5.707481 0.296136
C 3.048410 4.867031 0.026054
C 3.081501 5.451568 0.522970
C 3.608761 5.033852 0.418005
C 3.446915 5.381053 0.061547
C 3.200653 5.344256 0.224049
C 3.335531 5.636321 0.801796
C 3.806385 5.359683 0.775354
C 3.715153 5.655779 0.331206
C 3.916191 5.022787 0.140181
C 3.993142 5.526977 0.414797
C 4.483576 4.868902 0.564204
C 4.517050 5.358987 0.003384
C 4.287629 5.276938 0.251392
C 4.212100 5.728035 0.817992
C 4.764358 5.245224 0.837020
C 4.669306 5.675409 0.132297
C 5.169459 4.981471 0.063767
C 4.987209 5.612281 0.498738
C 5.567632 4.934026 0.557553
C 5.543624 5.393974 0.079777
C 5.309456 5.232560 0.202373
C 5.246752 5.742204 0.868199
C 5.676702 5.291100 0.782670
C 5.660836 5.664388 0.239830
C 0.059484 0.126923 1.032686
C 0.033178 0.602008 1.368770
C 0.489894 0.054502 1.386778
C 0.570416 0.537672 0.982722
C 0.253598 0.230546 1.316498
C 0.222274 0.663518 1.745784
C 0.791582 0.330557 1.723432
C 0.790620 0.727054 1.115772
C 0.974917 0.032815 1.145584
C 1.043422 0.540554 1.507026
C 1.605180 0.074085 1.569253
C 1.561607 0.381948 0.973742
C 1.362933 0.286862 1.231645
C 1.236921 0.735144 1.704478
C 1.902468 0.258894 1.695151
C 1.710264 0.869412 1.282929
C 1.991989 0.063205 0.897203
C 2.089864 0.458859 1.388184
C 2.500959 0.079254 1.583880
C 2.527441 0.398061 0.921800
C 2.343010 0.295952 1.302022
C 2.288120 0.910878 1.729214
C 2.776099 0.146300 1.816917
C 2.641912 0.696868 1.192686
C 2.991169 0.000956 0.961055
C 3.088719 0.373408 1.498133
C 3.402886 0.060199 1.506285
C 3.558455 0.601442 0.947483
C 3.158694 0.154068 1.283575
C 3.266835 0.684661 1.657157
C 3.785035 0.254263 1.788547
C 3.694774 0.730223 1.310289
C 4.117263 0.066302 0.923589
C 3.936978 0.548971 1.484772
C 4.487758 0.121244 1.457009
C 4.518718 0.469095 0.920056
C 4.242157 0.209841 1.177827
C 4.341815 0.726803 1.720672
C 4.836698 0.304920 1.711010
C 4.734126 0.739671 1.245325
C 4.950212 0.055752 0.884051
C 4.930230 0.517888 1.361038
C 5.441871 0.081729 1.508079
C 5.450170 0.554210 0.925535
C 5.255162 0.284052 1.180911
C 5.319291 0.772329 1.667083
C 5.664372 0.203730 1.735134
C 5.664488 0.715145 1.257234
C 0.095279 0.876101 1.036512
C 0.011284 1.483524 1.436637
C 0.513036 0.966547 1.500837
C 0.560131 1.483123 0.893081
C 0.123429 1.243516 1.228952
C 0.332827 1.717667 1.691235
C 0.643586 1.247571 1.757184
C 0.783413 1.813053 1.236934
C 0.959059 0.986345 1.084611
C 0.939472 1.432020 1.588858
C 1.565712 1.107628 1.569619
C 1.439939 1.401837 0.904038
C 1.326836 1.274513 1.315707
C 1.293126 1.846416 1.777244
C 1.717488 1.271400 1.857634
C 1.701321 1.809977 1.139841
C 1.993617 1.090782 0.989744
C 2.063830 1.420595 1.430944
C 2.347972 1.004681 1.466202
C 2.440151 1.371127 0.964698
C 2.233389 1.325323 1.168791
C 2.383241 1.728843 1.705004
C 2.827948 1.245796 1.679160
C 2.643910 1.799401 1.182541
C 2.984977 0.939261 1.027562
C 2.954347 1.553603 1.537199
C 3.548667 0.984039 1.495534
C 3.485084 1.432726 1.085833
C 3.241638 1.230889 1.167106
C 3.342399 1.806697 1.719240
C 3.744220 1.308847 1.830473
C 3.726303 1.704346 1.211456
C 3.898424 0.970444 0.907944
C 4.000236 1.493148 1.550484
C 4.569176 1.081082 1.457929
C 4.440428 1.536265 1.042460
C 4.281693 1.265480 1.224377
C 4.132343 1.753749 1.696761
C 4.828482 1.186326 1.750195
C 4.735202 1.723792 1.148302
C 5.042119 1.040844 1.002316
C 4.937380 1.510266 1.416263
C 5.502002 0.986256 1.411968
C 5.524044 1.538137 1.075929
C 5.234839 1.216855 1.231513
C 5.147160 1.651837 1.696704
C 5.709022 1.308087 1.621048
C 5.687092 1.624229 1.347056
C 0.019547 2.051107 0.945572
C 0.016933 2.505859 1.555618
C 0.542210 2.044663 1.491046
C 0.637875 2.474245 1.046442
C 0.250560 2.187133 1.257579
C 0.215425 2.737668 1.836243
C 0.857699 2.300521 1.715572
C 0.863936 2.762521 1.265498
C 1.084698 2.007479 0.965666
C 0.952050 2.551548 1.486957
C 1.489106 2.068542 1.477250
C 1.571567 2.522156 1.026675
C 1.213327 2.384165 1.212993
C 1.248566 2.688975 1.713747
C 1.867166 2.255987 1.729175
C 1.671148 2.733268 1.345509
C 2.002195 1.983595 1.075675
C 2.038119 2.525615 1.427575
C 2.469559 1.906590 1.474338
C 2.359268 2.509133 1.041265
C 2.287247 2.227032 1.222871
C 2.229630 2.766056 1.663076
C 2.797170 2.326814 1.649494
C 2.708156 2.840986 1.272616
C 2.896258 1.979180 1.067306
C 3.110609 2.447371 1.567600
C 3.602387 1.905200 1.473008
C 3.440998 2.387937 0.954463
C 3.219924 2.135641 1.144478
C 3.152338 2.728487 1.820187
C 3.778054 2.376645 1.843328
C 3.802610 2.715636 1.328338
C 4.080567 2.008961 0.886323
C 3.968948 2.472640 1.426844
C 4.473743 1.911778 1.530623
C 4.526493 2.444134 0.875533
C 4.230024 2.329274 1.279902
C 4.360600 2.793931 1.833409
C 4.684025 2.198709 1.715792
C 4.685198 2.887642 1.278696
C 5.009700 1.970831 0.972706
C 4.916883 2.508549 1.442138
C 5.399835 1.976554 1.491812
C 5.597521 2.494897 1.015894
C 5.260736 2.180028 1.165616
C 5.236376 2.679790 1.826859
C 5.736732 2.184360 1.734546
C 5.729075 2.820096 1.192236
C 0.018835 2.954328 0.933733
C 0.062484 3.513732 1.493608
C 0.572574 3.034212 1.430673
C 0.574967 3.600509 1.085381
C 0.341271 3.240156 1.140893
C 0.262601 3.660413 1.737558
C 0.680806 3.338740 1.653280
C 0.810446 3.860854 1.268032
C 0.941665 3.083940 0.963145
C 1.057400 3.430369 1.451807
C 1.438411 2.932751 1.513010
C 1.566925 3.522530 1.087297
C 1.210335 3.216895 1.247283
C 1.197659 3.826223 1.679393
C 1.825401 3.127535 1.771288
C 1.789846 3.695410 1.227949
C 1.993402 3.116163 0.928853
C 2.033040 3.382643 1.583354
C 2.607035 2.969571 1.527440
C 2.530673 3.454230 1.066967
C 2.182487 3.341886 1.236671
C 2.171495 3.679454 1.691349
C 2.667284 3.239759 1.680483
C 2.767240 3.692231 1.264175
C 3.106558 2.904160 1.028200
C 2.995683 3.490233 1.575224
C 3.544707 3.059999 1.551396
C 3.476958 3.585824 0.953626
C 3.244582 3.239971 1.180757
C 3.243742 3.763831 1.798730
C 3.815696 3.337545 1.796455
C 3.758113 3.641710 1.204329
C 3.944160 3.057050 0.956576
C 3.938665 3.609482 1.428364
C 4.537425 3.095992 1.519887
C 4.592554 3.551881 0.983802
C 4.177457 3.167047 1.150118
C 4.209051 3.708545 1.621154
C 4.831378 3.221168 1.696221
C 4.744382 3.786730 1.239034
C 4.915264 3.016807 1.072762
C 4.945151 3.478421 1.605072
C 5.507041 3.117758 1.488086
C 5.409214 3.540709 1.051257
C 5.228556 3.297720 1.183422
C 5.303699 3.775966 1.835986
C 5.697924 3.216378 1.708460
C 5.649375 3.755781 1.245017
C 0.119587 3.954214 1.033685
C 0.004906 4.440970 1.654064
C 0.550140 3.905537 1.380904
C 0.539349 4.608285 0.997048
C 0.374629 4.208813 1.264732
C 0.190448 4.719697 1.795780
C 0.840287 4.190812 1.736185
C 0.784470 4.693025 1.156704
C 1.018148 4.016842 1.002649
C 1.084484 4.418778 1.524407
C 1.509389 3.957344 1.633454
C 1.470498 4.540935 1.059166
C 1.360070 4.247210 1.191907
C 1.300035 4.709469 1.743321
C 1.756163 4.202041 1.792027
C 1.864094 4.673186 1.292993
C 2.064034 4.079685 0.974074
C 2.098783 4.545534 1.453940
C 2.508046 4.079545 1.572902
C 2.576834 4.446721 1.003753
C 2.302644 4.206938 1.284938
C 2.250419 4.689420 1.724792
C 2.705863 4.245137 1.804966
C 2.789833 4.885725 1.285727
C 2.963103 4.071804 1.021521
C 2.932293 4.545539 1.595203
C 3.464174 4.063136 1.455302
C 3.488785 4.558503 0.920357
C 3.215907 4.253540 1.353684
C 3.176660 4.728936 1.643468
C 3.832679 4.269619 1.794435
C 3.692543 4.804909 1.212913
C 3.898172 3.882007 1.021953
C 3.974347 4.459378 1.437828
C 4.396955 4.054719 1.493250
C 4.483079 4.465718 1.063681
C 4.198449 4.250456 1.198734
C 4.325033 4.765331 1.792875
C 4.716963 4.142569 1.687977
C 4.683796 4.724843 1.281678
C 5.012101 4.099286 0.992237
C 5.112750 4.527874 1.501580
C 5.475736 3.950205 1.434184
C 5.548541 4.439401 1.011088
C 5.319973 4.345519 1.228720
C 5.261290 4.816830 1.833804
C 5.700735 4.293770 1.801434
C 5.722614 4.664605 1.307758
C 0.015950 4.923244 0.963619
C 0.124429 5.527965 1.609031
C 0.563666 4.883001 1.483317
C 0.468893 5.440415 1.011360
C 0.241061 5.164468 1.268222
C 0.347176 5.694397 1.771230
C 0.853900 5.299897 1.698992
C 0.794522 5.724125 1.263600
C 1.040207 5.079210 0.985063
C 0.915351 5.406964 1.386221
C 1.460425 4.944765 1.461504
C 1.502833 5.515725 0.913386
C 1.205929 5.310451 1.274263
C 1.159617 5.726943 1.614977
C 1.633079 5.222448 1.748802
C 1.682732 5.749408 1.109766
C 2.017751 4.910712 1.035701
C 1.942257 5.447515 1.471541
C 2.465595 4.972732 1.440012
C 2.520796 5.438554 0.996493
C 2.326796 5.244845 1.284491
C 2.232076 5.647605 1.761461
C 2.714399 5.270486 1.766622
C 2.704728 5.721300 1.303033
C 2.965995 4.937542 0.911511
C 3.102210 5.455905 1.541079
C 3.455994 4.985898 1.562961
C 3.605102 5.552953 1.024354
C 3.167247 5.289749 1.291056
C 3.310785 5.729668 1.874350
C 3.749866 5.241354 1.878641
C 3.747478 5.671806 1.312509
C 4.051089 4.968791 0.904651
C 4.115719 5.499402 1.518373
C 4.543449 5.126388 1.445045
C 4.623382 5.492223 0.984621
C 4.074688 5.206829 1.235405
C 4.279158 5.676455 1.752031
C 4.736644 5.255057 1.685102
C 4.732094 5.691079 1.300172
C 4.959249 4.921835 1.052639
C 4.990145 5.554553 1.412553
C 5.523531 4.923262 1.518036
C 5.494333 5.537744 0.839728
C 5.221243 5.214198 1.184479
C 5.158713 5.696631 1.767061
C 5.696007 5.197475 1.833799
C 5.654487 5.733680 1.102608
C 0.236511 0.003022 1.941547
C 0.011008 0.479641 2.480892
C 0.417327 0.093282 2.491520
C 0.437709 0.491759 1.918986
C 0.265516 0.154083 2.236801
C 0.238304 0.801500 2.797633
C 0.771281 0.317911 2.742243
C 0.713411 0.784679 2.336221
C 0.906785 0.119684 2.006155
C 1.102459 0.487042 2.468392
C 1.402101 0.000220 2.597341
C 1.553641 0.466040 1.910161
C 1.300231 0.187388 2.334164
C 1.235335 0.652410 2.762828
C 1.682748 0.245620 2.777404
C 1.754211 0.815438 2.147499
C 1.904847 0.013545 1.910939
C 1.953166 0.484616 2.463567
C 2.489636 0.049072 2.380050
C 2.422603 0.578476 2.023086
C 2.200847 0.299738 2.306707
C 2.322067 0.719425 2.832070
C 2.761330 0.228923 2.798274
C 2.782817 0.776737 2.250956
C 3.009522 0.005248 2.107595
C 2.885368 0.509108 2.432288
C 3.602817 0.002659 2.388329
C 3.522531 0.481128 2.001463
C 3.314840 0.288221 2.179726
C 3.331741 0.756905 2.730051
C 3.809179 0.249762 2.851046
C 3.759333 0.826563 2.168717
C 3.955322 0.072157 1.992156
C 3.930059 0.460221 2.547685
C 4.582143 0.022655 2.679663
C 4.566377 0.519620 2.103882
C 4.268849 0.246405 2.279178
C 4.277617 0.785006 2.670732
C 4.820898 0.252122 2.773620
C 4.894359 0.796695 2.242726
C 5.082662 0.018803 1.888786
C 4.886523 0.515116 2.540602
C 5.493506 0.026285 2.577926
C 5.539767 0.427363 1.937218
C 5.168211 0.220261 2.292829
C 5.202942 0.911661 2.694589
C 5.747921 0.227925 2.678610
C 5.713209 0.686214 2.196002
C 0.030075 1.042507 2.028908
C 0.006910 1.482832 2.515168
C 0.431873 0.975697 2.461360
C 0.606292 1.553542 1.983010
C 0.269322 1.217545 2.187658
C 0.167686 1.818203 2.763164
C 0.687777 1.252932 2.769052
C 0.713808 1.625008 2.239241
C 0.979459 0.941572 1.932894
C 0.885650 1.537793 2.565145
C 1.493391 1.121646 2.577066
C 1.478539 1.493288 2.033346
C 1.253412 1.262074 2.404010
C 1.185891 1.828905 2.805680
C 1.798927 1.245352 2.758364
C 1.734209 1.791829 2.308293
C 1.998150 0.975644 2.079733
C 1.936055 1.533350 2.551116
C 2.525361 1.060924 2.498524
C 2.459302 1.354061 1.994287
C 2.310894 1.307482 2.285257
C 2.295402 1.667927 2.648398
C 2.730153 1.364630 2.764990
C 2.789328 1.732060 2.332344
C 3.110766 0.942767 1.991418
C 2.997920 1.484480 2.474000
C 3.441131 0.986665 2.386498
C 3.531828 1.552590 2.002405
C 3.306581 1.278526 2.363338
C 3.218754 1.837565 2.632855
C 3.814424 1.228987 2.841206
C 3.700855 1.781377 2.199871
C 3.917593 0.937155 1.893747
C 4.009797 1.631505 2.529553
C 4.503853 1.106540 2.600718
C 4.595216 1.437881 2.001139
C 4.173925 1.303718 2.305213
C 4.223038 1.658570 2.765565
C 4.786665 1.252226 2.767382
C 4.749468 1.727337 2.179297
C 5.051216 1.014062 2.067884
C 4.985684 1.601729 2.495862
C 5.422874 1.003895 2.493348
C 5.463514 1.501422 2.031564
C 5.179958 1.284264 2.219546
C 5.367236 1.829093 2.767968
C 5.673182 1.159007 2.695219
C 5.632974 1.736617 2.304488
C 0.014197 2.020276 2.109150
C 0.017055 2.598364 2.413560
C 0.547306 1.905940 2.397571
C 0.467241 2.574805 1.968570
C 0.268118 2.322136 2.148725
C 0.249515 2.712671 2.627810
C 0.737815 2.323012 2.834140
C 0.666436 2.820215 2.188667
C 1.099445 2.103812 2.009111
C 1.007860 2.459194 2.379946
C 1.493915 1.971861 2.415380
C 1.522009 2.481409 1.981193
C 1.195225 2.112504 2.282861
C 1.192323 2.812786 2.886821
C 1.760705 2.227618 2.768963
C 1.736529 2.759214 2.310998
C 1.918963 1.920014 1.991120
C 2.060381 2.567348 2.505380
C 2.505219 1.873381 2.535308
C 2.497129 2.583203 1.920897
C 2.324735 2.281800 2.266928
C 2.309678 2.701481 2.724108
C 2.799301 2.325323 2.672978
C 2.744833 2.701597 2.161860
C 3.098470 2.087651 1.977917
C 2.976658 2.483943 2.364206
C 3.494197 2.035867 2.483418
C 3.517510 2.415942 1.921148
C 3.273978 2.286778 2.188382
C 3.319101 2.723522 2.798692
C 3.711552 2.353784 2.729578
C 3.710810 2.802371 2.324696
C 4.029217 2.019818 1.994243
C 4.068447 2.430029 2.378171
C 4.546533 2.052890 2.441762
C 4.559624 2.482873 2.053013
C 4.278011 2.128339 2.227432
C 4.274655 2.835186 2.782009
C 4.800994 2.182391 2.768954
C 4.669678 2.742510 2.282353
C 4.980991 1.963156 2.100198
C 4.959874 2.518203 2.401868
C 5.441336 1.972994 2.467481
C 5.528793 2.373673 1.935267
C 5.364463 2.275939 2.211220
C 5.156976 2.722761 2.750337
C 5.628114 2.245255 2.716867
C 5.680847 2.770326 2.296658
C 0.050524 2.960166 2.184430
C 0.083822 3.518936 2.388254
C 0.441164 2.965335 2.551413
C 0.466353 3.403176 2.085729
C 0.270213 3.199841 2.330640
C 0.262807 3.667637 2.854072
C 0.690838 3.369358 2.768007
C 0.716133 3.686903 2.247491
C 0.975932 2.981748 1.892270
C 1.097768 3.512866 2.393928
C 1.532130 3.046827 2.614164
C 1.523790 3.555827 2.078636
C 1.214269 3.158156 2.301308
C 1.187650 3.767084 2.843827
C 1.838403 3.287950 2.669375
C 1.636457 3.849224 2.270489
C 2.001154 2.888726 1.991139
C 1.942215 3.559238 2.555211
C 2.479328 3.043215 2.464951
C 2.468370 3.494632 1.883403
C 2.187929 3.265253 2.120429
C 2.347444 3.740553 2.744225
C 2.718680 3.185695 2.645114
C 2.782225 3.659711 2.167791
C 2.995344 3.027545 1.890230
C 2.988971 3.498573 2.579411
C 3.545661 2.949297 2.551347
C 3.396460 3.457618 2.002495
C 3.315431 3.304354 2.296987
C 3.198926 3.801312 2.600054
C 3.832220 3.317047 2.734304
C 3.770625 3.681280 2.161095
C 4.036636 3.058243 1.947329
C 4.011822 3.462043 2.421554
C 4.514380 2.907179 2.525614
C 4.419254 3.391852 2.003748
C 4.171027 3.219721 2.205746
C 4.225123 3.737725 2.726350
C 4.715976 3.319559 2.718499
C 4.762612 3.771287 2.173203
C 4.944762 3.034652 1.956902
C 4.927042 3.541339 2.587482
C 5.513641 3.103197 2.416516
C 5.468682 3.514542 2.053022
C 5.203952 3.159785 2.251644
C 5.360766 3.742000 2.715168
C 5.721100 3.148968 2.802352
C 5.686780 3.712174 2.169809
C 0.000698 4.062689 2.026393
C 0.021379 4.377996 2.454222
C 0.595456 3.953536 2.466624
C 0.582769 4.529256 1.933088
C 0.216109 4.142718 2.281514
C 0.214229 4.791573 2.681941
C 0.784124 4.262385 2.859268
C 0.794282 4.690101 2.304698
C 1.003088 3.934672 1.908601
C 1.038233 4.485506 2.393296
C 1.411097 4.100315 2.450532
C 1.477860 4.434681 2.071712
C 1.261236 4.216053 2.174526
C 1.264950 4.659166 2.731532
C 1.824809 4.199355 2.670730
C 1.751451 4.684706 2.284715
C 2.034461 3.960535 1.952411
C 2.011071 4.515014 2.480275
C 2.424776 3.940624 2.495586
C 2.432554 4.444187 2.087048
C 2.369236 4.268333 2.345691
C 2.249497 4.676305 2.793698
C 2.726802 4.175253 2.700097
C 2.770448 4.862497 2.356618
C 3.054962 3.979091 1.926403
C 2.955901 4.611308 2.553318
C 3.392634 4.023788 2.549499
C 3.557365 4.542451 2.124713
C 3.122989 4.301302 2.258103
C 3.362828 4.685281 2.720270
C 3.777255 4.224228 2.820421
C 3.676329 4.720903 2.358125
C 4.044591 3.943207 2.075974
C 3.969855 4.426739 2.521924
C 4.412502 3.954043 2.500999
C 4.590368 4.459937 1.988400
C 4.307576 4.294223 2.208192
C 4.228326 4.708862 2.779607
C 4.689832 4.317165 2.688781
C 4.644803 4.673823 2.224916
C 4.897907 4.048124 1.975864
C 4.969855 4.427038 2.584162
C 5.422191 3.992731 2.521334
C 5.445236 4.543928 1.934688
C 5.339840 4.287935 2.291929
C 5.315964 4.714520 2.802653
C 5.660170 4.298977 2.767480
C 5.731701 4.559924 2.180131
C 0.122174 4.943754 1.994213
C 0.008074 5.423309 2.429294
C 0.563170 4.897020 2.482739
C 0.514919 5.403346 2.016460
C 0.277053 5.245070 2.314877
C 0.314869 5.656206 2.807079
C 0.822991 5.252126 2.673225
C 0.661934 5.689995 2.289024
C 1.087227 5.012989 1.881659
C 1.027848 5.589240 2.554421
C 1.510984 4.926161 2.410603
C 1.561027 5.546363 2.081114
C 1.205548 5.186384 2.126331
C 1.339856 5.632406 2.771905
C 1.707048 5.333414 2.826463
C 1.834146 5.603312 2.213159
C 1.918138 5.025997 1.937950
C 1.981053 5.418426 2.443741
C 2.516694 5.071438 2.516391
C 2.441255 5.363299 1.948478
C 2.264027 5.284302 2.348666
C 2.102311 5.728070 2.741282
C 2.734950 5.369187 2.649829
C 2.756358 5.677948 2.355499
C 3.000886 5.068952 2.016283
C 3.129046 5.460473 2.466316
C 3.506402 4.959850 2.614305
C 3.494641 5.443451 1.915633
C 3.280705 5.182650 2.209523
C 3.184564 5.742209 2.848802
C 3.608888 5.253711 2.778394
C 3.851532 5.714100 2.191991
C 4.104163 4.993880 1.985318
C 3.944269 5.551902 2.444376
C 4.534517 4.961587 2.465088
C 4.470672 5.439863 2.085973
C 4.363921 5.201614 2.284406
C 4.255901 5.639039 2.836225
C 4.782232 5.165346 2.696548
C 4.605292 5.719106 2.232408
C 5.039321 4.978707 2.038161
C 5.094761 5.489055 2.502696
C 5.548152 4.965449 2.491611
C 5.423166 5.547168 2.033331
C 5.221440 5.280152 2.158807
C 5.253153 5.700379 2.700733
C 5.667481 5.137462 2.769340
C 5.643610 5.715703 2.214064
C 0.135404 0.029413 2.960500
C 0.002776 0.621296 3.527248
C 0.386996 0.142055 3.502233
C 0.540465 0.501405 2.990096
C 0.276798 0.361921 3.197395
C 0.338881 0.818008 3.802099
C 0.724351 0.139347 3.806876
C 0.713501 0.784235 3.270685
C 1.083085 0.041976 2.978539
C 0.911228 0.442745 3.523254
C 1.573139 0.041775 3.594569
C 1.532900 0.512182 2.927529
C 1.254361 0.255160 3.205602
C 1.226929 0.771255 3.764736
C 1.741678 0.284961 3.671360
C 1.754323 0.794657 3.224376
C 1.947901 0.028561 2.960272
C 2.009961 0.391287 3.498667
C 2.574391 0.056672 3.474263
C 2.472577 0.404283 2.905786
C 2.337227 0.242510 3.242431
C 2.319905 0.802264 3.743842
C 2.791901 0.190915 3.668415
C 2.731159 0.742071 3.334722
C 3.043092 0.016828 3.040588
C 2.947075 0.442628 3.487268
C 3.485545 0.064545 3.485703
C 3.474718 0.567554 3.120720
C 3.143665 0.228954 3.304202
C 3.234850 0.718642 3.687146
C 3.764062 0.173079 3.655146
C 3.739628 0.736911 3.378069
C 4.071420 0.005148 3.029628
C 4.120914 0.502820 3.465397
C 4.513203 0.002992 3.498724
C 4.479947 0.561025 3.040331
C 4.228883 0.254546 3.268710
C 4.172047 0.636654 3.786502
C 4.737021 0.240034 3.722811
C 4.622833 0.822023 3.195992
C 5.071859 0.109052 3.043023
C 5.040341 0.619084 3.523141
C 5.571021 0.082902 3.562100
C 5.421374 0.586843 3.001744
C 5.135345 0.194674 3.358946
C 5.257120 0.753456 3.762833
C 5.635613 0.355430 3.642398
C 5.633509 0.777699 3.239868
C 0.033823 1.117947 2.944922
C 0.062802 1.596016 3.459410
C 0.406816 0.991189 3.432680
C 0.491674 1.527002 2.984024
C 0.195282 1.256978 3.178659
C 0.178433 1.685642 3.757255
C 0.755181 1.190850 3.802963
C 0.784159 1.634385 3.270835
C 0.919558 1.029813 3.035223
C 0.917296 1.432878 3.528907
C 1.421927 1.080850 3.530057
C 1.535411 1.545973 2.943443
C 1.224273 1.349981 3.172222
C 1.170879 1.795769 3.700133
C 1.830954 1.341016 3.765984
C 1.699512 1.656327 3.325966
C 1.906275 1.002238 2.940554
C 1.981592 1.409520 3.461305
C 2.467710 0.904220 3.489335
C 2.609372 1.510286 3.052978
C 2.235988 1.336164 3.302731
C 2.297239 1.797183 3.756476
C 2.711985 1.131172 3.688731
C 2.749104 1.778138 3.175235
C 2.962649 0.901969 2.981607
C 2.873611 1.495592 3.494469
C 3.555752 0.998396 3.441496
C 3.451088 1.440323 3.044136
C 3.352753 1.215764 3.242306
C 3.236279 1.676177 3.793270
C 3.813983 1.318470 3.782272
C 3.693544 1.807211 3.162697
C 4.030512 0.911804 3.069425
C 4.031814 1.449464 3.481157
C 4.395357 1.002634 3.524515
C 4.492331 1.444678 3.080149
C 4.225929 1.111453 3.257484
C 4.362580 1.684173 3.726259
C 4.687904 1.211247 3.700708
C 4.811074 1.735576 3.170336
C 5.120846 0.971163 2.972072
C 5.055553 1.528552 3.549002
C 5.574568 1.040902 3.500253
C 5.566560 1.596672 2.945917
C 5.133953 1.269238 3.293596
C 5.170683 1.780013 3.689642
C 5.709489 1.315279 3.703845
C 5.722911 1.811470 3.125586
C 0.049883 2.069723 3.131279
C 0.072875 2.534522 3.452021
C 0.557377 2.023793 3.506537
C 0.450263 2.500163 2.914233
C 0.288303 2.198638 3.337742
C 0.270034 2.873150 3.736573
C 0.750703 2.218406 3.844556
C 0.722568 2.867577 3.322882
C 0.953880 1.894789 3.008929
C 0.993631 2.452825 3.463664
C 1.486492 1.888175 3.517035
C 1.374686 2.578272 2.948901
C 1.281984 2.261201 3.319390
C 1.315282 2.635642 3.728738
C 1.812083 2.236328 3.794434
C 1.842557 2.783502 3.250235
C 2.065171 2.044957 3.073363
C 2.075942 2.473572 3.570333
C 2.586704 1.930461 3.413695
C 2.560234 2.535737 3.114424
C 2.235780 2.281115 3.239439
C 2.179042 2.786598 3.823117
C 2.668389 2.245376 3.677368
C 2.846252 2.785473 3.211225
C 2.982819 1.951745 2.943509
C 3.063981 2.545391 3.531063
C 3.384041 2.003996 3.505441
C 3.505968 2.541514 3.000740
C 3.309607 2.224044 3.313928
C 3.188176 2.758674 3.774720
C 3.838266 2.255833 3.823817
C 3.683351 2.816009 3.242721
C 3.949927 1.905618 2.982587
C 4.020243 2.399173 3.587355
C 4.645383 1.940436 3.570612
C 4.565644 2.507423 3.116032
C 4.194273 2.177329 3.301863
C 4.247596 2.676077 3.833478
C 4.816949 2.344386 3.659788
C 4.822040 2.799706 3.330762
C 4.953217 1.976751 2.988816
C 5.008558 2.565694 3.383133
C 5.455226 2.084181 3.440932
C 5.505085 2.531686 2.962040
C 5.176857 2.225221 3.147442
C 5.303516 2.640195 3.689786
C 5.694345 2.270723 3.844582
C 5.599311 2.768115 3.291809
C 0.059584 2.957768 2.882529
C 0.028461 3.377651 3.456640
C 0.428932 3.000281 3.457207
C 0.460698 3.447880 3.010761
C 0.307015 3.223179 3.236071
C 0.152570 3.816375 3.793424
C 0.633333 3.245995 3.673386
C 0.768453 3.807747 3.333249
C 0.992388 3.051640 3.054505
C 1.028817 3.542042 3.439145
C 1.506731 2.943664 3.514192
C 1.615713 3.464297 2.956623
C 1.324905 3.262623 3.198124
C 1.204509 3.817117 3.633416
C 1.764073 3.181843 3.734787
C 1.721632 3.681494 3.285460
C 1.991277 2.987532 3.037482
C 2.065504 3.450070 3.436265
C 2.578742 3.042561 3.559939
C 2.415019 3.509642 2.951294
C 2.122917 3.278846 3.134615
C 2.351368 3.794527 3.760994
C 2.809884 3.320920 3.735676
C 2.759213 3.785592 3.232804
C 3.025105 2.978245 2.906995
C 2.919348 3.493538 3.504216
C 3.429163 3.023053 3.594300
C 3.610389 3.393419 3.024615
C 3.157493 3.259636 3.234501
C 3.306653 3.697021 3.778250
C 3.738607 3.183840 3.820124
C 3.673059 3.792060 3.219281
C 3.947766 3.018040 3.070740
C 4.092903 3.461165 3.499516
C 4.389864 2.918667 3.560924
C 4.467972 3.538375 3.067569
C 4.273709 3.195006 3.319985
C 4.345142 3.730558 3.702095
C 4.805939 3.336445 3.686118
C 4.796081 3.754150 3.276965
C 4.999507 3.108544 3.029267
C 4.956744 3.541924 3.467418
C 5.552491 3.035015 3.499119
C 5.499409 3.499172 2.946964
C 5.216436 3.308860 3.178794
C 5.210339 3.724217 3.798517
C 5.661740 3.333041 3.757024
C 5.660617 3.711261 3.235249
C 0.002388 4.041381 2.896489
C 0.003365 4.571062 3.558488
C 0.479242 3.968011 3.609065
C 0.431252 4.604504 3.061518
C 0.121003 4.145541 3.249854
C 0.143310 4.797934 3.762173
C 0.855901 4.265425 3.811302
C 0.852368 4.733715 3.236912
C 0.976464 3.989854 2.878176
C 0.967165 4.437536 3.575205
C 1.451813 3.986377 3.565614
C 1.470085 4.613783 2.966464
C 1.199760 4.181716 3.334097
C 1.224434 4.724079 3.841184
C 1.694153 4.134544 3.701809
C 1.660104 4.646614 3.308491
C 2.004284 4.046240 2.990383
C 1.924485 4.508857 3.421442
C 2.515099 3.996674 3.524969
C 2.438057 4.533316 3.091293
C 2.277693 4.268208 3.259265
C 2.347820 4.740422 3.736749
C 2.776721 4.245383 3.840423
C 2.743216 4.810566 3.240908
C 2.971123 4.047009 2.973549
C 3.061987 4.502655 3.475954
C 3.380917 3.980508 3.531623
C 3.556604 4.463106 2.912697
C 3.150770 4.263958 3.200915
C 3.263069 4.674233 3.686872
C 3.848616 4.269102 3.808203
C 3.709670 4.714833 3.284135
C 4.021570 3.932251 2.954821
C 3.926138 4.491481 3.486491
C 4.505841 3.997861 3.559771
C 4.444885 4.592936 2.980691
C 4.340606 4.261910 3.323939
C 4.260168 4.801642 3.775545
C 4.839737 4.187822 3.739936
C 4.770245 4.709025 3.166343
C 4.902363 3.961712 3.027783
C 5.096162 4.576400 3.436312
C 5.567223 3.932788 3.516153
C 5.476966 4.465957 2.974119
C 5.284896 4.277886 3.352893
C 5.257592 4.720803 3.773452
C 5.660856 4.139350 3.729115
C 5.682508 4.884025 3.243099
C 0.039030 4.928815 2.993573
C 0.032817 5.486712 3.470800
C 0.434587 4.882234 3.541600
C 0.555651 5.381627 3.014773
C 0.188934 5.282967 3.211996
C 0.264567 5.727361 3.799086
C 0.787664 5.334727 3.692041
C 0.701933 5.616441 3.252524
C 1.060583 5.019041 3.050473
C 1.078674 5.514612 3.461956
C 1.418511 5.059162 3.496917
C 1.617034 5.505739 3.113805
C 1.178167 5.333050 3.227267
C 1.253465 5.678761 3.671584
C 1.608572 5.315436 3.774149
C 1.875041 5.722684 3.157681
C 2.080284 5.060743 2.932077
C 1.939572 5.437907 3.506295
C 2.432620 4.984082 3.582017
C 2.414099 5.464918 2.899573
C 2.289105 5.307689 3.216210
C 2.259292 5.691337 3.810932
C 2.774421 5.345722 3.738830
C 2.621153 5.748195 3.204598
C 2.994083 4.981954 2.918077
C 2.972275 5.556816 3.425265
C 3.442387 4.967895 3.462306
C 3.436974 5.428701 2.988730
C 3.214245 5.320197 3.183077
C 3.177720 5.737048 3.874996
C 3.673159 5.324300 3.722812
C 3.856423 5.651382 3.304436
C 3.877616 5.047536 3.013521
C 3.992702 5.512022 3.569919
C 4.513630 5.031687 3.398784
C 4.569512 5.596731 2.962496
C 4.255873 5.297082 3.176687
C 4.240134 5.709738 3.731726
C 4.747578 5.211779 3.788818
C 4.752827 5.657877 3.267280
C 4.977753 5.094337 2.935876
C 5.018821 5.645115 3.455856
C 5.462486 4.989467 3.604735
C 5.598670 5.409092 2.944088
C 5.348155 5.368350 3.287927
C 5.284547 5.725355 3.781075
C 5.673559 5.341640 3.740770
C 5.691042 5.634186 3.254948
C 0.103245 0.022801 3.928274
C 0.044716 0.601605 4.549735
C 0.457879 0.078317 4.541587
C 0.510593 0.499044 4.057529
C 0.366769 0.189182 4.266499
C 0.233172 0.866694 4.775872
C 0.688009 0.222856 4.813891
C 0.664252 0.803487 4.201701
C 1.064435 0.049013 4.031983
C 1.002906 0.536924 4.579785
C 1.492469 0.073000 4.612503
C 1.483472 0.524884 3.962725
C 1.313881 0.224155 4.206983
C 1.243624 0.736139 4.706098
C 1.721601 0.316420 4.764318
C 1.844232 0.713024 4.243692
C 2.057507 0.018508 3.989475
C 2.018614 0.510490 4.604147
C 2.484114 0.034029 4.557458
C 2.510005 0.509321 4.114393
C 2.284167 0.207006 4.251043
C 2.137465 0.720897 4.814059
C 2.811776 0.339004 4.807176
C 2.678571 0.793999 4.252604
C 3.024546 0.075426 4.007055
C 3.012492 0.512405 4.482831
C 3.468516 0.053956 4.576765
C 3.441697 0.527159 4.037338
C 3.301068 0.184326 4.287951
C 3.236993 0.771133 4.633906
C 3.770980 0.203044 4.778467
C 3.726581 0.774639 4.320134
C 3.925101 0.137030 4.009448
C 3.911386 0.533127 4.553896
C 4.554822 0.012272 4.524084
C 4.484984 0.494284 3.918228
C 4.125444 0.219256 4.223065
C 4.311793 0.837145 4.718627
C 4.700885 0.384294 4.736745
C 4.750018 0.632776 4.241530
C 4.874491 0.101593 4.060948
C 5.063813 0.524928 4.493621
C 5.561363 0.015811 4.600835
C 5.510630 0.525190 3.926488
C 5.207479 0.272107 4.300477
C 5.226344 0.673719 4.729154
C 5.742478 0.208658 4.808292
C 5.707538 0.847584 4.277890
C 0.109977 0.989358 3.923941
C 0.128651 1.484690 4.469464
C 0.537976 1.071764 4.544732
C 0.544709 1.437223 3.963546
C 0.317335 1.263591 4.260341
C 0.243836 1.655272 4.749086
C 0.756771 1.199478 4.785864
C 0.761183 1.810160 4.315086
C 0.897647 0.968798 4.055577
C 0.952625 1.361185 4.582401
C 1.557221 1.041027 4.410466
C 1.485113 1.495088 3.936591
C 1.231179 1.326555 4.342806
C 1.158668 1.754767 4.837752
C 1.826056 1.200173 4.673152
C 1.718811 1.870134 4.234813
C 2.089584 1.017356 4.024423
C 2.052493 1.413747 4.560472
C 2.548040 0.884869 4.548339
C 2.560926 1.545793 3.996241
C 2.315724 1.236589 4.283216
C 2.323628 1.662886 4.781685
C 2.755065 1.365659 4.793837
C 2.731220 1.746689 4.185861
C 2.937767 1.106511 3.974562
C 3.044234 1.464308 4.391122
C 3.478786 0.933275 4.490836
C 3.556321 1.474738 3.914225
C 3.167597 1.193877 4.327383
C 3.296867 1.840946 4.752869
C 3.725015 1.138025 4.815061
C 3.730688 1.655359 4.201964
C 3.927302 1.012352 4.001008
C 3.982846 1.417911 4.635158
C 4.553008 0.976828 4.580208
C 4.548361 1.551117 4.064107
C 4.272823 1.219693 4.330530
C 4.217119 1.709975 4.747081
C 4.720736 1.353797 4.669372
C 4.751761 1.708638 4.279200
C 4.965280 1.073298 4.015040
C 4.984835 1.510709 4.482722
C 5.442136 1.004810 4.481569
C 5.600126 1.537024 3.954808
C 5.238680 1.276406 4.260495
C 5.253083 1.819551 4.662685
C 5.713423 1.114213 4.747634
C 5.687908 1.720733 4.237993
C 0.033654 1.932312 3.872186
C 0.015145 2.479282 4.602410
C 0.449918 2.096371 4.399937
C 0.437604 2.484354 3.907725
C 0.172034 2.283470 4.344064
C 0.151964 2.775502 4.712560
C 0.710943 2.218772 4.628186
C 0.789438 2.778046 4.290203
C 0.936618 1.951868 4.025284
C 0.920050 2.552285 4.488982
C 1.516287 2.083467 4.557351
C 1.447222 2.550741 4.023048
C 1.203426 2.271201 4.350412
C 1.317777 2.843952 4.737268
C 1.877303 2.329415 4.790996
C 1.757431 2.675935 4.135924
C 1.986894 2.041534 3.984492
C 1.879271 2.459213 4.471971
C 2.500621 1.960728 4.600883
C 2.414580 2.499928 3.940059
C 2.274133 2.253599 4.170326
C 2.252572 2.615014 4.698805
C 2.731102 2.210617 4.713517
C 2.767778 2.658658 4.218123
C 2.982595 1.946038 3.940022
C 3.000074 2.474658 4.614743
C 3.453918 2.075137 4.500260
C 3.539674 2.391633 3.989473
C 3.255631 2.338111 4.269119
C 3.200596 2.915394 4.742319
C 3.837979 2.223991 4.692916
C 3.790264 2.847138 4.180104
C 3.959677 1.869426 4.022202
C 4.076920 2.538480 4.418048
C 4.449787 2.072030 4.402882
C 4.621216 2.496691 3.932676
C 4.236363 2.297260 4.330496
C 4.288062 2.645913 4.715031
C 4.659438 2.210813 4.801095
C 4.722270 2.773863 4.321177
C 4.978607 2.006951 3.883216
C 5.048109 2.436772 4.538030
C 5.501032 2.061048 4.603909
C 5.470449 2.443310 3.997019
C 5.300595 2.236789 4.291401
C 5.276926 2.695814 4.790321
C 5.743132 2.345629 4.869177
C 5.657574 2.608870 4.269834
C 0.048989 2.950804 4.062180
C 0.049873 3.486905 4.514157
C 0.446305 2.920975 4.566478
C 0.408266 3.635552 4.055097
C 0.237997 3.258883 4.155421
C 0.228789 3.720880 4.759472
C 0.778081 3.347192 4.781516
C 0.832210 3.712190 4.135932
C 1.030514 2.953876 3.988371
C 1.015390 3.506273 4.582177
C 1.446227 3.031046 4.514072
C 1.581158 3.523383 3.932638
C 1.243180 3.110129 4.229395
C 1.245100 3.657297 4.738982
C 1.666824 3.309929 4.692036
C 1.733245 3.814426 4.297069
C 2.090119 2.945644 4.097459
C 2.063334 3.488081 4.565844
C 2.485437 3.081563 4.566518
C 2.556173 3.608649 3.972653
C 2.196729 3.272669 4.123136
C 2.304102 3.797374 4.810261
C 2.748692 3.347623 4.835757
C 2.640002 3.704084 4.287866
C 3.038606 2.930678 4.038714
C 2.997262 3.377022 4.471727
C 3.483944 2.967733 4.552798
C 3.527022 3.593533 4.059803
C 3.262151 3.215368 4.244338
C 3.292782 3.804305 4.674883
C 3.845076 3.327709 4.755217
C 3.731763 3.848186 4.193275
C 4.052401 3.033625 3.988845
C 3.994252 3.573556 4.528766
C 4.558104 3.110185 4.398747
C 4.426133 3.476048 4.040031
C 4.192386 3.139558 4.245340
C 4.135337 3.771633 4.764980
C 4.888716 3.249432 4.729353
C 4.846817 3.780410 4.332256
C 5.056243 3.030875 4.077382
C 4.869170 3.379094 4.458806
C 5.579813 2.991108 4.406887
C 5.532962 3.426220 4.052103
C 5.268757 3.168093 4.319789
C 5.283338 3.740808 4.665510
C 5.749753 3.306404 4.794184
C 5.686786 3.649981 4.237359
C 0.010590 3.943902 4.074718
C 0.010407 4.523502 4.531844
C 0.482319 4.065297 4.483437
C 0.546999 4.487708 3.928755
C 0.139121 4.287281 4.348562
C 0.153090 4.715945 4.744817
C 0.800433 4.203053 4.820274
C 0.628338 4.779110 4.267551
C 0.987556 3.972891 4.079013
C 0.988333 4.594836 4.445141
C 1.537357 4.023710 4.448225
C 1.396992 4.463015 3.962727
C 1.287455 4.186746 4.163902
C 1.204250 4.693388 4.661339
C 1.814560 4.206817 4.672685
C 1.744341 4.760898 4.154230
C 1.987947 4.005660 4.055756
C 1.986362 4.550739 4.476848
C 2.470720 4.030457 4.488080
C 2.434934 4.498190 4.094942
C 2.230484 4.266347 4.243709
C 2.306623 4.786843 4.618667
C 2.819548 4.222411 4.845595
C 2.670205 4.762393 4.208964
C 3.021475 3.896092 4.030671
C 2.870306 4.476908 4.583604
C 3.492200 4.020471 4.543671
C 3.519678 4.501410 3.902078
C 3.289744 4.377309 4.232641
C 3.294876 4.825393 4.785686
C 3.751875 4.152157 4.830761
C 3.774569 4.799253 4.232339
C 4.076305 3.984971 3.951583
C 3.962474 4.499543 4.502664
C 4.467987 3.913019 4.415558
C 4.417992 4.543484 4.064751
C 4.213739 4.370149 4.285341
C 4.307632 4.639112 4.793349
C 4.774424 4.118019 4.792716
C 4.816629 4.707293 4.285250
C 5.044761 3.970805 3.921965
C 4.994806 4.360467 4.419522
C 5.510084 4.030456 4.564613
C 5.521697 4.617555 4.011608
C 5.268412 4.333672 4.317369
C 5.106921 4.719219 4.732017
C 5.729925 4.247285 4.655162
C 5.728888 4.696176 4.305660
C 0.048856 4.920783 4.084723
C 0.056262 5.577922 4.545857
C 0.365332 4.937411 4.599649
C 0.473320 5.594448 4.001501
C 0.258339 5.352997 4.257400
C 0.254101 5.724530 4.758779
C 0.751862 5.192993 4.720840
C 0.815745 5.700757 4.274760
C 1.017416 4.917419 4.045058
C 1.037583 5.492689 4.442148
C 1.532032 5.077228 4.474204
C 1.429459 5.554165 3.919736
C 1.247553 5.255213 4.288545
C 1.363912 5.705120 4.736224
C 1.786685 5.156694 4.745048
C 1.812485 5.730093 4.184687
C 1.894221 4.924455 3.922614
C 2.064413 5.619277 4.510196
C 2.403617 5.014062 4.436814
C 2.509602 5.395376 4.055233
C 2.238077 5.363707 4.342141
C 2.289687 5.673118 4.727843
C 2.775175 5.396804 4.754665
C 2.751455 5.746192 4.164858
C 2.980763 4.978118 4.101357
C 2.940155 5.468142 4.424856
C 3.519440 5.053229 4.593140
C 3.543194 5.562315 3.994893
C 3.193722 5.257128 4.284328
C 3.102394 5.721205 4.672032
C 3.788294 5.207763 4.721315
C 3.767942 5.715783 4.309008
C 3.930316 4.960243 4.003289
C 3.883497 5.455930 4.533290
C 4.367523 4.983486 4.526682
C 4.527367 5.525395 4.072012
C 4.294491 5.296454 4.184976
C 4.256806 5.729860 4.833618
C 4.748324 5.326019 4.862579
C 4.813340 5.663588 4.198084
C 4.936173 5.016548 3.989518
C 5.035702 5.519241 4.496428
C 5.468344 4.889354 4.530106
C 5.447987 5.497459 3.941419
C 5.258442 5.177145 4.287883
C 5.172570 5.667041 4.781276
C 5.707080 5.325783 4.821243
C 5.649694 5.670304 4.221930
C 0.016517 0.003847 4.832841
C 0.115752 0.501221 5.542248
C 0.639065 0.014761 5.431309
C 0.607218 0.493128 5.008991
C 0.256954 0.168051 5.334161
C 0.361383 0.743509 5.732983
C 0.654336 0.149186 5.739353
C 0.686704 0.773402 5.176213
C 1.033095 0.015957 5.039824
C 1.012581 0.506521 5.407136
C 1.562866 0.073618 5.620759
C 1.535585 0.558663 4.986425
C 1.241783 0.316638 5.373359
C 1.331559 0.744418 5.739315
C 1.708856 0.356564 5.731285
C 1.741139 0.686860 5.320622
C 2.099185 0.028104 5.071296
C 1.957785 0.578875 5.526345
C 2.398627 0.083341 5.595557
C 2.586358 0.441277 5.043706
C 2.324081 0.237617 5.224717
C 2.296093 0.785761 5.645227
C 2.650052 0.316921 5.729028
C 2.647198 0.780405 5.215132
C 2.958011 0.122069 5.002683
C 2.985526 0.464834 5.582286
C 3.523704 0.012120 5.525327
C 3.593601 0.514227 4.985637
C 3.208488 0.200522 5.171736
C 3.203329 0.660381 5.656627
C 3.696222 0.226496 5.737014
C 3.646222 0.747776 5.286181
C 4.104146 0.059837 4.984493
C 4.124534 0.472941 5.435165
C 4.576199 0.052806 5.560849
C 4.393282 0.474281 4.960477
C 4.253854 0.192118 5.304700
C 4.242913 0.760141 5.599278
C 4.833374 0.160160 5.730986
C 4.827391 0.783892 5.236837
C 5.086876 0.025683 4.976810
C 5.047892 0.419601 5.513114
C 5.580059 0.028345 5.521597
C 5.447949 0.514546 5.093711
C 5.244110 0.305042 5.295924
C 5.269896 0.780818 5.719032
C 5.666819 0.257162 5.699216
C 5.681918 0.758401 5.293483
C 0.155345 0.948214 5.048098
C 0.009727 1.466242 5.409508
C 0.526584 1.028144 5.417524
C 0.401867 1.438739 4.915837
C 0.170346 1.195149 5.277623
C 0.303874 1.660842 5.650543
C 0.646886 1.320139 5.737886
C 0.785282 1.706554 5.178122
C 1.070394 1.127193 5.011641
C 0.937457 1.482968 5.577718
C 1.473605 1.041060 5.637342
C 1.602230 1.499625 4.987340
C 1.226990 1.398064 5.267125
C 1.291968 1.827131 5.717249
C 1.766553 1.172118 5.643992
C 1.668818 1.724586 5.285928
C 2.039437 1.054362 4.970199
C 1.991761 1.474209 5.616958
C 2.477982 1.042585 5.404492
C 2.398706 1.516275 5.095423
C 2.216722 1.246038 5.175345
C 2.315827 1.654659 5.716931
C 2.802755 1.194668 5.670546
C 2.776083 1.774119 5.261431
C 3.096130 0.999154 5.011379
C 3.015476 1.403650 5.454896
C 3.519059 1.086773 5.402235
C 3.413684 1.406106 5.055834
C 3.172662 1.222442 5.207988
C 3.213019 1.645554 5.687439
C 3.865734 1.205634 5.718802
C 3.701863 1.717773 5.213502
C 4.042392 1.032132 4.932976
C 3.991389 1.492641 5.449525
C 4.615383 0.947583 5.464315
C 4.561928 1.423818 4.970280
C 4.217628 1.150932 5.175136
C 4.156974 1.779559 5.696405
C 4.808751 1.254756 5.649485
C 4.797303 1.813436 5.292862
C 4.906952 0.971964 4.974522
C 4.982275 1.500414 5.549686
C 5.565915 0.998414 5.460239
C 5.445795 1.461041 4.885688
C 5.125150 1.264582 5.296616
C 5.226138 1.681471 5.634016
C 5.672410 1.044193 5.717186
C 5.649089 1.821390 5.373420
C 0.020095 1.906922 5.074870
C 0.063937 2.535564 5.360984
C 0.411560 2.053653 5.440820
C 0.441601 2.547586 5.149948
C 0.258077 2.294900 5.334188
C 0.250363 2.661672 5.690653
C 0.683611 2.408902 5.737718
C 0.694855 2.724489 5.119314
C 1.040543 2.002456 5.018971
C 0.980301 2.514445 5.570720
C 1.498469 2.063762 5.592747
C 1.584408 2.482398 5.007739
C 1.171657 2.257907 5.160840
C 1.256070 2.651664 5.722020
C 1.758901 2.264607 5.620272
C 1.719312 2.658162 5.229138
C 1.998752 2.129847 5.015561
C 2.006756 2.375555 5.590318
C 2.563166 2.009737 5.369829
C 2.584374 2.430101 4.896885
C 2.327998 2.312888 5.177958
C 2.290332 2.711298 5.680860
C 2.719018 2.350074 5.739224
C 2.844884 2.829715 5.265625
C 2.935964 2.071820 5.056072
C 3.048649 2.559530 5.567436
C 3.470159 1.933439 5.527336
C 3.464654 2.513776 5.024672
C 3.282694 2.179101 5.287180
C 3.149891 2.810308 5.731390
C 3.769547 2.340007 5.701862
C 3.779281 2.785672 5.386994
C 3.978086 1.939848 4.911520
C 3.979269 2.513121 5.514341
C 4.396474 1.920496 5.509462
C 4.566219 2.482769 4.938426
C 4.277811 2.237763 5.299086
C 4.226967 2.652923 5.648012
C 4.810337 2.210831 5.654903
C 4.673422 2.773382 5.224088
C 5.055796 1.978443 4.910375
C 4.878896 2.487400 5.537557
C 5.482566 2.088113 5.430232
C 5.537246 2.552116 5.011823
C 5.239217 2.353581 5.252873
C 5.225609 2.779699 5.675875
C 5.645665 2.153053 5.699820
C 5.657540 2.686821 5.326569
C 0.080464 3.050176 5.021196
C 0.095851 3.463093 5.505471
C 0.528129 2.919450 5.468231
C 0.385812 3.483185 4.989409
C 0.284092 3.254831 5.184854
C 0.175528 3.691555 5.733892
C 0.661062 3.218444 5.676434
C 0.721580 3.751398 5.384282
C 0.902584 2.914462 4.958713
C 1.049276 3.402261 5.480644
C 1.469240 2.978857 5.414978
C 1.502920 3.585229 4.955746
C 1.277273 3.317805 5.175569
C 1.324866 3.700036 5.663250
C 1.783263 3.160771 5.676143
C 1.724596 3.775728 5.202374
C 2.010356 2.902232 4.949377
C 2.092941 3.487207 5.566219
C 2.483257 2.952881 5.550336
C 2.513608 3.539634 4.909161
C 2.333843 3.223343 5.226532
C 2.334837 3.757859 5.702366
C 2.720164 3.259906 5.685185
C 2.652467 3.713152 5.311160
C 3.003053 2.930049 5.006015
C 3.017757 3.518252 5.392967
C 3.480182 3.023771 5.394286
C 3.570812 3.469500 5.045467
C 3.306224 3.282422 5.340465
C 3.320171 3.630157 5.683144
C 3.656850 3.263653 5.682480
C 3.787044 3.696272 5.117019
C 4.029891 2.948328 4.997083
C 3.917224 3.502967 5.406498
C 4.444273 2.930865 5.548158
C 4.411694 3.488038 4.920149
C 4.185816 3.230282 5.343474
C 4.252560 3.656011 5.736515
C 4.821570 3.156497 5.615610
C 4.840068 3.701405 5.184218
C 4.920741 2.995400 5.022068
C 4.949704 3.429645 5.465211
C 5.604308 2.940947 5.570443
C 5.440936 3.523838 5.066736
C 5.198137 3.225821 5.215310
C 5.171574 3.727726 5.730308
C 5.746167 3.200554 5.617975
C 5.707552 3.863589 5.234572
C 0.001237 3.934525 4.963411
C 0.005100 4.436731 5.491202
C 0.532851 4.101798 5.451470
C 0.376054 4.534859 5.020917
C 0.242941 4.167271 5.164425
C 0.283643 4.766769 5.685970
C 0.659989 4.253945 5.740211
C 0.785918 4.822435 5.187758
C 0.911076 3.964978 5.111487
C 0.982909 4.486539 5.622631
C 1.467291 3.978120 5.541763
C 1.546860 4.469197 5.051312
C 1.219639 4.317425 5.258400
C 1.293043 4.748323 5.727883
C 1.609332 4.237617 5.709319
C 1.740858 4.695647 5.179023
C 1.924607 3.930688 5.006157
C 2.008533 4.433028 5.455576
C 2.396178 3.956303 5.446652
C 2.486584 4.420633 4.922054
C 2.346311 4.195489 5.196214
C 2.191129 4.738667 5.644836
C 2.922948 4.265975 5.746814
C 2.735123 4.751165 5.235246
C 3.047971 3.935779 5.028456
C 2.970127 4.539420 5.631810
C 3.413027 4.021400 5.529936
C 3.605400 4.522029 4.887156
C 3.205477 4.233566 5.347924
C 3.373730 4.772603 5.737304
C 3.797279 4.341345 5.716424
C 3.733751 4.627269 5.276787
C 3.935875 3.964997 5.088799
C 4.002536 4.406021 5.429472
C 4.366110 3.913902 5.467057
C 4.523131 4.436476 4.858974
C 4.193885 4.300957 5.211989
C 4.311422 4.882018 5.738943
C 4.688856 4.192636 5.704863
C 4.641554 4.761167 5.297513
C 5.098828 4.030916 5.087891
C 4.927260 4.589250 5.504751
C 5.574880 4.080896 5.450030
C 5.542347 4.567313 4.945180
C 5.172992 4.255290 5.330792
C 5.274417 4.834902 5.689270
C 5.663382 4.283289 5.735907
C 5.685612 4.807970 5.197156
C 0.011232 5.042378 4.884655
C 0.002673 5.586207 5.574677
C 0.483915 5.030014 5.470854
C 0.436663 5.458489 5.074492
C 0.154603 5.201302 5.202606
C 0.244296 5.736385 5.587254
C 0.711922 5.303260 5.637709
C 0.724115 5.722923 5.238288
C 0.936323 5.071482 4.984513
C 1.062150 5.524871 5.637867
C 1.493667 5.011798 5.433117
C 1.594438 5.565419 4.899633
C 1.350998 5.251914 5.151469
C 1.184130 5.736843 5.580192
C 1.859376 5.327096 5.748984
C 1.658942 5.735197 5.267365
C 2.111894 4.976657 4.910305
C 1.915819 5.514373 5.493500
C 2.542853 4.979821 5.402891
C 2.393916 5.461075 4.932483
C 2.252201 5.333269 5.192694
C 2.201993 5.702703 5.697874
C 2.757854 5.133815 5.682510
C 2.623114 5.700382 5.192102
C 3.020760 5.038763 4.967557
C 3.019397 5.354781 5.504507
C 3.460363 4.981858 5.527575
C 3.429549 5.551878 4.966935
C 3.253641 5.345028 5.268499
C 3.364769 5.748639 5.722943
C 3.728864 5.122683 5.708299
C 3.752358 5.707974 5.230583
C 4.016807 5.010773 4.877916
C 4.084280 5.556086 5.506102
C 4.519999 4.928142 5.533013
C 4.593869 5.484464 5.097590
C 4.235726 5.265667 5.256332
C 4.323429 5.722694 5.703496
C 4.853936 5.224247 5.690639
C 4.645079 5.731760 5.287813
C 5.062379 5.018711 5.075572
C 5.064774 5.463147 5.590124
C 5.654166 4.992567 5.525916
C 5.508356 5.495493 5.123005
C 5.195953 5.359771 5.261604
C 5.418441 5.688861 5.690123
C 5.663686 5.251957 5.709424
C 5.731287 5.642424 5.290473
1728
Frame 8/10
C 0.035243 0.042028 0.111775
C 0.086649 0.401340 0.461062
C 0.421205 0.000510 0.517755
C 0.559489 0.491199 0.162645
C 0.349730 0.252394 0.309656
C 0.125356 0.690722 0.734063
C 0.637853 0.287389 0.805662
C 0.730588 0.714992 0.334536
C 1.096939 0.024693 0.074206
C 1.004318 0.527414 0.433999
C 1.560225 0.007064 0.335167
C 1.545583 0.407421 0.066014
C 1.296929 0.271850 0.210083
C 1.326168 0.616016 0.808643
C 1.678456 0.146601 0.677475
C 1.646139 0.701641 0.205966
C 1.856124 0.014211 0.051524
C 1.888148 0.449728 0.445513
C 2.419078 0.043921 0.520574
C 2.597222 0.455934 0.050069
C 2.284306 0.200723 0.186700
C 2.240069 0.844057 0.830215
C 2.704052 0.167137 0.908345
C 2.743516 0.809996 0.155765
C 3.066464 0.027758 0.086356
C 3.015982 0.429157 0.494835
C 3.453555 0.024669 0.499189
C 3.548349 0.556647 0.050044
C 3.389478 0.292466 0.253768
C 3.359044 0.831921 0.799827
C 3.811095 0.159800 0.781552
C 3.819851 0.781710 0.193183
C 4.129771 0.161716 0.029529
C 4.126888 0.510454 0.475173
C 4.425283 0.017627 0.613289
C 4.493528 0.474712 0.006093
C 4.307000 0.410362 0.235289
C 4.408825 0.722258 0.750968
C 4.768812 0.290297 0.852077
C 4.732932 0.860158 0.215040
C 4.981864 0.132677 0.052199
C 4.893882 0.506692 0.509485
C 5.504888 0.172034 0.463670
C 5.353350 0.482927 0.139812
C 5.222898 0.167148 0.238107
C 5.236474 0.771434 0.798972
C 5.648623 0.287256 0.883389
C 5.684824 0.671790 0.193626
C 0.055501 0.917615 0.045879
C 0.109617 1.589608 0.471224
C 0.463993 1.001429 0.568679
C 0.577563 1.471172 0.099631
C 0.195693 1.313764 0.344148
C 0.384860 1.778060 0.795482
C 0.628814 1.185282 0.749037
C 0.754075 1.707311 0.287410
C 1.146467 0.888890 0.026360
C 0.976695 1.479396 0.359859
C 1.499282 0.930290 0.534871
C 1.451625 1.522622 0.005904
C 1.267748 1.288495 0.187481
C 1.136717 1.781096 0.711119
C 1.796012 1.227085 0.692255
C 1.731136 1.890839 0.333844
C 2.027861 0.973489 0.110909
C 1.861293 1.570481 0.531189
C 2.518240 1.033572 0.468909
C 2.558070 1.595722 0.000637
C 2.295393 1.318171 0.142180
C 2.367356 1.789021 0.678987
C 2.724277 1.152940 0.711515
C 2.725167 1.738630 0.257952
C 3.090322 1.069325 0.080815
C 2.927046 1.424148 0.553738
C 3.530781 1.006371 0.516182
C 3.516733 1.489179 0.069628
C 3.354642 1.236755 0.183580
C 3.336628 1.777136 0.813150
C 3.642462 1.129740 0.756511
C 3.610068 1.720888 0.306791
C 4.105862 1.011061 0.007039
C 3.855757 1.595605 0.532854
C 4.460260 1.048589 0.474164
C 4.491984 1.439804 0.079860
C 4.339008 1.328889 0.348599
C 4.277726 1.662486 0.825298
C 4.776984 1.197518 0.767071
C 4.699014 1.732387 0.236176
C 5.097575 0.927036 0.085209
C 4.974151 1.367130 0.538543
C 5.390726 0.865915 0.538218
C 5.480961 1.453443 0.106316
C 5.256553 1.199485 0.230942
C 5.267870 1.751457 0.750035
C 5.601194 1.141146 0.736173
C 5.711301 1.695378 0.149862
C 0.019978 1.861019 0.070222
C 0.061801 2.565168 0.498487
C 0.402148 2.013246 0.437091
C 0.592973 2.557591 0.097407
C 0.330939 2.368681 0.231483
C 0.266820 2.611493 0.758914
C 0.668444 2.284637 0.688939
C 0.664519 2.717336 0.347019
C 1.078327 2.099488 0.117373
C 1.009553 2.504686 0.508281
C 1.461280 1.964127 0.404954
C 1.627946 2.427985 0.037735
C 1.298397 2.290554 0.291330
C 1.210850 2.822342 0.891432
C 1.753807 2.378096 0.702172
C 1.735197 2.641791 0.330577
C 2.069128 2.037803 0.016536
C 1.971888 2.380428 0.468501
C 2.533903 1.923613 0.462767
C 2.476342 2.688235 0.133892
C 2.275160 2.362058 0.171617
C 2.360965 2.713441 0.777061
C 2.689842 2.168225 0.650955
C 2.768271 2.692755 0.179333
C 2.860811 2.038260 0.046372
C 3.063825 2.574483 0.562777
C 3.435999 1.903191 0.505279
C 3.496510 2.342753 0.073719
C 3.196942 2.126199 0.325027
C 3.259734 2.633022 0.830011
C 3.639992 2.128029 0.814025
C 3.811566 2.742111 0.250565
C 3.889307 2.069490 0.144883
C 3.983793 2.533384 0.434142
C 4.527408 2.134509 0.408813
C 4.405006 2.595422 0.013315
C 4.169146 2.265370 0.291013
C 4.351911 2.758166 0.719703
C 4.773134 2.263222 0.762320
C 4.786815 2.874534 0.211193
C 5.105659 2.045316 0.010372
C 5.022433 2.458906 0.476104
C 5.622232 2.038475 0.608345
C 5.623114 2.535053 0.046014
C 5.255276 2.182067 0.364995
C 5.114067 2.719007 0.715746
C 5.578397 2.270061 0.762113
C 5.624141 2.842018 0.231168
C 0.039979 3.018811 0.057391
C 0.133329 3.520188 0.595089
C 0.389097 3.015880 0.470256
C 0.427605 3.503889 0.045455
C 0.266285 3.374841 0.347933
C 0.362860 3.806288 0.615211
C 0.842776 3.358632 0.772085
C 0.712824 3.835605 0.256452
C 0.972192 2.994242 0.124209
C 1.045549 3.554519 0.457809
C 1.540629 3.077349 0.442496
C 1.486108 3.511966 0.083663
C 1.274354 3.211061 0.241430
C 1.244133 3.882913 0.824006
C 1.795181 3.245429 0.722618
C 1.752372 3.648216 0.205880
C 1.882586 2.924205 0.099384
C 2.069469 3.453949 0.584739
C 2.616154 3.008359 0.462752
C 2.569138 3.610229 0.034134
C 2.250010 3.296025 0.199395
C 2.149310 3.726643 0.721302
C 2.606771 3.185907 0.785386
C 2.869302 3.743546 0.325299
C 3.029025 2.832157 0.124705
C 3.110967 3.548415 0.480260
C 3.399121 3.052346 0.451047
C 3.628293 3.509623 0.040633
C 3.291315 3.294945 0.095367
C 3.117910 3.734586 0.726367
C 3.648724 3.251036 0.722375
C 3.749133 3.629516 0.328247
C 3.955480 3.014185 0.092643
C 4.039227 3.498272 0.348983
C 4.529862 2.999650 0.639202
C 4.464562 3.560151 0.036744
C 4.162571 3.132400 0.287363
C 4.227028 3.773919 0.886531
C 4.755659 3.309420 0.732660
C 4.725332 3.678610 0.192153
C 4.934469 3.108696 0.032066
C 4.892308 3.405770 0.483978
C 5.529381 3.096005 0.490520
C 5.471374 3.436715 0.094401
C 5.154955 3.317593 0.272234
C 5.271784 3.761408 0.756001
C 5.747845 3.061803 0.817328
C 5.672308 3.867881 0.214426
C 0.112756 3.860166 0.070832
C 0.021055 4.477528 0.395682
C 0.597258 4.065176 0.585279
C 0.447575 4.613772 0.022190
C 0.268388 4.354788 0.270452
C 0.201190 4.685140 0.883676
C 0.745682 4.245665 0.832035
C 0.631066 4.840128 0.233219
C 1.050999 4.058451 0.017219
C 0.964308 4.464173 0.546863
C 1.487217 3.993570 0.631284
C 1.374163 4.425492 0.004344
C 1.360343 4.184321 0.255175
C 1.208863 4.750887 0.666062
C 1.689926 4.212657 0.651867
C 1.706083 4.809249 0.182766
C 2.104545 3.993186 0.011224
C 1.952061 4.564603 0.605968
C 2.442304 3.893414 0.530074
C 2.403121 4.505582 0.097546
C 2.328930 4.208871 0.164930
C 2.265232 4.728429 0.736303
C 2.765720 4.294313 0.775693
C 2.724874 4.894042 0.251084
C 2.993113 4.040158 0.180222
C 3.096271 4.458649 0.563950
C 3.485586 4.029616 0.509196
C 3.508923 4.622566 0.113608
C 3.201560 4.234180 0.316124
C 3.205889 4.718008 0.788343
C 3.695175 4.359741 0.810367
C 3.891241 4.702345 0.241395
C 4.041396 4.153175 0.042447
C 4.000132 4.429414 0.521512
C 4.503673 4.122362 0.429897
C 4.563477 4.436509 0.183826
C 4.204535 4.261233 0.337091
C 4.275022 4.782855 0.818007
C 4.725042 4.248530 0.597132
C 4.716781 4.707732 0.202090
C 4.962297 3.971663 0.005768
C 4.973133 4.487944 0.625120
C 5.608420 3.996234 0.570696
C 5.479650 4.413906 0.069232
C 5.123400 4.225038 0.310344
C 5.237718 4.823989 0.736607
C 5.745239 4.189034 0.769560
C 5.707689 4.738637 0.172139
C 0.005886 4.911082 0.024989
C 0.091964 5.565051 0.392605
C 0.555339 4.995500 0.645754
C 0.652590 5.601296 0.009063
C 0.291752 5.124711 0.154121
C 0.288660 5.729191 0.847185
C 0.817558 5.293114 0.707724
C 0.802131 5.692600 0.387703
C 0.877284 4.979067 0.030457
C 0.961446 5.471731 0.502432
C 1.505874 4.962277 0.561807
C 1.515647 5.524640 0.149304
C 1.252780 5.276136 0.096796
C 1.090466 5.714493 0.668604
C 1.757342 5.240113 0.871614
C 1.714347 5.704085 0.392574
C 2.020895 4.947784 0.018028
C 2.017466 5.620452 0.533344
C 2.449288 4.930047 0.461833
C 2.493878 5.323380 0.083514
C 2.261184 5.125613 0.222536
C 2.350487 5.723445 0.579762
C 2.766247 5.238738 0.680995
C 2.678002 5.700395 0.303825
C 3.056478 4.844870 0.030396
C 3.095085 5.443496 0.526799
C 3.626888 5.039494 0.404339
C 3.438067 5.361229 0.071805
C 3.192429 5.359966 0.219724
C 3.349787 5.617375 0.810429
C 3.815783 5.377964 0.779580
C 3.709345 5.640076 0.344740
C 3.902223 5.026584 0.163544
C 3.991999 5.531473 0.400597
C 4.480839 4.847052 0.574905
C 4.519892 5.335485 0.003947
C 4.293901 5.281427 0.251624
C 4.205783 5.724374 0.829324
C 4.766752 5.244428 0.851524
C 4.655857 5.662977 0.112679
C 5.197702 4.978383 0.074395
C 4.985077 5.630995 0.498528
C 5.578904 4.923030 0.567146
C 5.550895 5.376303 0.093073
C 5.319365 5.229654 0.194435
C 5.246211 5.740905 0.887898
C 5.664486 5.297950 0.788115
C 5.645975 5.650120 0.238135
C 0.069398 0.148077 1.038134
C 0.038707 0.619010 1.346899
C 0.488210 0.063586 1.367908
C 0.582151 0.543951 0.979842
C 0.254197 0.227304 1.327581
C 0.217653 0.649105 1.745082
C 0.798512 0.343983 1.719004
C 0.797390 0.723229 1.093400
C 0.970736 0.038284 1.169848
C 1.050659 0.547313 1.508198
C 1.622709 0.086432 1.580795
C 1.571875 0.362273 0.969366
C 1.381755 0.293006 1.228586
C 1.234741 0.732668 1.696891
C 1.927880 0.260376 1.686010
C 1.703642 0.889314 1.288417
C 1.990654 0.073739 0.880071
C 2.104841 0.452002 1.369547
C 2.501119 0.092463 1.597860
C 2.532014 0.381072 0.908767
C 2.358511 0.303611 1.310693
C 2.294473 0.937691 1.725750
C 2.780448 0.129016 1.828070
C 2.623898 0.688012 1.183133
C 2.989697 0.001115 0.954564
C 3.103506 0.352309 1.497822
C 3.386700 0.070232 1.507332
C 3.568197 0.618348 0.938731
C 3.143477 0.138079 1.289171
C 3.269640 0.673771 1.641683
C 3.790874 0.254974 1.794972
C 3.685570 0.726927 1.320338
C 4.136806 0.077352 0.910854
C 3.926474 0.557133 1.482234
C 4.485718 0.141451 1.449844
C 4.521838 0.463944 0.906731
C 4.240850 0.203148 1.165798
C 4.357117 0.722937 1.715784
C 4.851148 0.314074 1.704511
C 4.731480 0.737950 1.244546
C 4.941914 0.065044 0.864726
C 4.918602 0.520869 1.337878
C 5.432183 0.095350 1.509426
C 5.441866 0.563245 0.913124
C 5.256022 0.289728 1.169397
C 5.330840 0.776050 1.653264
C 5.650101 0.196019 1.732657
C 5.650236 0.709336 1.258440
C 0.111159 0.855452 1.042597
C 0.013165 1.480778 1.426077
C 0.515208 0.960972 1.500977
C 0.570153 1.480310 0.875262
C 0.102334 1.242436 1.225444
C 0.346632 1.712278 1.681441
C 0.625851 1.247166 1.758381
C 0.788982 1.823562 1.234757
C 0.952236 0.984069 1.098713
C 0.929384 1.420690 1.603668
C 1.576664 1.125567 1.581223
C 1.429929 1.385476 0.888044
C 1.339642 1.278598 1.326659
C 1.300314 1.862486 1.781785
C 1.712069 1.274966 1.875573
C 1.693207 1.819973 1.121481
C 1.992553 1.105912 0.988034
C 2.074468 1.407360 1.419434
C 2.322634 1.005461 1.460569
C 2.430176 1.349649 0.958815
C 2.230620 1.337876 1.155256
C 2.405447 1.725317 1.697504
C 2.840939 1.245096 1.667353
C 2.626228 1.807635 1.171298
C 2.982473 0.929137 1.032156
C 2.946738 1.562537 1.543399
C 3.556778 0.981379 1.494790
C 3.482598 1.421514 1.100138
C 3.240245 1.227704 1.153290
C 3.357799 1.816147 1.714113
C 3.743257 1.318655 1.843885
C 3.722354 1.696737 1.205032
C 3.881494 0.965518 0.892601
C 4.000275 1.492005 1.558898
C 4.580706 1.094596 1.450917
C 4.430500 1.542309 1.049537
C 4.286975 1.268060 1.220107
C 4.112733 1.754374 1.687888
C 4.841562 1.175714 1.750228
C 4.732736 1.719424 1.131353
C 5.049139 1.047652 1.002702
C 4.926944 1.511977 1.402307
C 5.502335 0.983965 1.397296
C 5.528052 1.544494 1.088584
C 5.232313 1.211330 1.228432
C 5.130020 1.635476 1.687822
C 5.702192 1.317768 1.599556
C 5.676608 1.603267 1.363232
C 0.022805 2.059625 0.936501
C 0.019756 2.506836 1.564888
C 0.549245 2.052107 1.489553
C 0.660855 2.469952 1.054183
C 0.250654 2.176655 1.258842
C 0.209663 2.735613 1.850617
C 0.875649 2.308941 1.709834
C 0.882926 2.764608 1.268081
C 1.098815 2.008726 0.959943
C 0.944058 2.560139 1.484783
C 1.487290 2.079966 1.473459
C 1.583494 2.525848 1.031121
C 1.207215 2.406526 1.206825
C 1.248327 2.678804 1.707705
C 1.886693 2.256985 1.725704
C 1.658006 2.730480 1.361427
C 2.002561 1.980861 1.088287
C 2.044472 2.529884 1.415504
C 2.464486 1.891022 1.470061
C 2.335813 2.510655 1.048142
C 2.293455 2.223204 1.218350
C 2.226234 2.768732 1.648589
C 2.805032 2.339616 1.632743
C 2.701182 2.856150 1.276386
C 2.878967 1.975710 1.078523
C 3.129044 2.438599 1.578867
C 3.619452 1.889400 1.468509
C 3.431165 2.369260 0.946873
C 3.214911 2.116582 1.126891
C 3.136062 2.724901 1.831885
C 3.782730 2.397752 1.858882
C 3.811378 2.709909 1.341395
C 4.093995 2.010455 0.867377
C 3.963772 2.468080 1.414651
C 4.469366 1.897074 1.535727
C 4.530908 2.434822 0.854789
C 4.226694 2.342487 1.284886
C 4.379034 2.801253 1.847310
C 4.673029 2.190161 1.710090
C 4.674398 2.910583 1.283479
C 5.011317 1.965970 0.968157
C 4.903031 2.509974 1.432495
C 5.383141 1.972646 1.490447
C 5.613774 2.494047 1.018543
C 5.262525 2.168366 1.151552
C 5.234106 2.668088 1.839669
C 5.734520 2.173420 1.731971
C 5.725587 2.831778 1.182608
C 0.021975 2.946716 0.922688
C 0.072899 3.516021 1.492543
C 0.584669 3.039914 1.419119
C 0.587462 3.617260 1.099611
C 0.356483 3.238515 1.122708
C 0.264701 3.645482 1.735484
C 0.669274 3.353530 1.637159
C 0.820520 3.879330 1.271037
C 0.931943 3.097930 0.957002
C 1.066966 3.418764 1.443774
C 1.428146 2.921543 1.515179
C 1.578079 3.526286 1.101846
C 1.203724 3.211377 1.246831
C 1.188936 3.838927 1.667625
C 1.837968 3.107125 1.774836
C 1.796487 3.686312 1.224274
C 1.992303 3.135523 0.916995
C 2.038547 3.363084 1.597246
C 2.624875 2.964499 1.532014
C 2.535785 3.446601 1.078129
C 2.171234 3.357200 1.234450
C 2.158411 3.667697 1.681574
C 2.653498 3.238052 1.668897
C 2.770113 3.682602 1.266537
C 3.124318 2.888186 1.032900
C 2.994963 3.488605 1.587762
C 3.552158 3.069998 1.559962
C 3.473117 3.600128 0.945897
C 3.243679 3.238300 1.169216
C 3.242699 3.766136 1.806852
C 3.826645 3.352136 1.804198
C 3.759466 3.623662 1.196717
C 3.934853 3.066558 0.949338
C 3.928442 3.627729 1.416425
C 4.543663 3.111991 1.523201
C 4.607980 3.560528 0.981102
C 4.165366 3.153222 1.133471
C 4.202226 3.701636 1.599680
C 4.844941 3.216363 1.687258
C 4.743446 3.792852 1.237206
C 4.901141 3.019609 1.084889
C 4.936009 3.474825 1.622584
C 5.508214 3.137384 1.486100
C 5.394084 3.547493 1.059800
C 5.224982 3.305673 1.172326
C 5.312649 3.780294 1.850317
C 5.689245 3.210774 1.701537
C 5.632604 3.756745 1.244186
C 0.139518 3.946583 1.039299
C 0.005724 4.431131 1.679741
C 0.558497 3.889793 1.361054
C 0.545907 4.626333 0.996556
C 0.395401 4.201949 1.267187
C 0.180523 4.714646 1.803409
C 0.855335 4.180948 1.733883
C 0.790216 4.683529 1.141155
C 1.021173 4.019649 1.003090
C 1.098564 4.405241 1.528475
C 1.510954 3.950235 1.655696
C 1.465581 4.547757 1.069027
C 1.378415 4.246745 1.182225
C 1.308374 4.702714 1.742208
C 1.757190 4.194048 1.799032
C 1.883110 4.660384 1.300159
C 2.074707 4.092966 0.969753
C 2.115246 4.553124 1.446263
C 2.509387 4.092802 1.585052
C 2.589640 4.437841 1.004378
C 2.311418 4.199761 1.290761
C 2.250489 4.679324 1.720590
C 2.698507 4.244327 1.814127
C 2.796472 4.908346 1.291681
C 2.956954 4.083771 1.025108
C 2.921008 4.553129 1.611070
C 3.458203 4.073658 1.447852
C 3.486916 4.568253 0.907083
C 3.210225 4.254130 1.370965
C 3.164437 4.725426 1.625712
C 3.846459 4.272888 1.801841
C 3.682967 4.814061 1.206732
C 3.881201 3.862341 1.025612
C 3.970071 4.452607 1.427466
C 4.379781 4.063838 1.492125
C 4.480259 4.460005 1.074294
C 4.189857 4.250532 1.190190
C 4.337539 4.767886 1.800021
C 4.711457 4.124664 1.677640
C 4.672762 4.720650 1.286958
C 5.014118 4.115834 0.990944
C 5.131541 4.532520 1.501844
C 5.471691 3.941906 1.423215
C 5.556631 4.429302 1.012936
C 5.331635 4.361438 1.225174
C 5.263172 4.827968 1.847771
C 5.692524 4.301064 1.810007
C 5.718049 4.650372 1.317385
C 0.018609 4.910452 0.957555
C 0.145167 5.532626 1.627202
C 0.574277 4.863501 1.480537
C 0.463708 5.430484 1.013253
C 0.239571 5.150212 1.271259
C 0.363372 5.685130 1.774768
C 0.871217 5.308213 1.690491
C 0.801942 5.719812 1.265866
C 1.046908 5.092412 0.982574
C 0.901243 5.391457 1.367258
C 1.453829 4.935559 1.455088
C 1.503305 5.518346 0.898951
C 1.198583 5.320526 1.278307
C 1.144553 5.723101 1.592473
C 1.613593 5.217856 1.748602
C 1.671520 5.749309 1.086394
C 2.020710 4.895831 1.041651
C 1.932633 5.438768 1.466797
C 2.459860 4.968187 1.430014
C 2.524261 5.428313 0.995909
C 2.339596 5.243986 1.290239
C 2.229089 5.630539 1.763372
C 2.708466 5.273900 1.769393
C 2.697183 5.716516 1.311872
C 2.960328 4.927132 0.896763
C 3.119245 5.448556 1.547925
C 3.448660 4.983548 1.573454
C 3.622619 5.561779 1.028413
C 3.153455 5.296374 1.297899
C 3.320915 5.726279 1.895075
C 3.749844 5.239913 1.900081
C 3.747058 5.658774 1.322927
C 4.059603 4.963589 0.888759
C 4.135005 5.499302 1.521435
C 4.550691 5.147452 1.435886
C 4.643946 5.490926 0.982057
C 4.045469 5.199634 1.232972
C 4.284017 5.664198 1.752369
C 4.734418 5.255899 1.674286
C 4.729110 5.681259 1.308534
C 4.952457 4.908807 1.061412
C 4.988502 5.563646 1.397979
C 5.527453 4.910472 1.521041
C 5.493389 5.544035 0.813016
C 5.216450 5.208231 1.173558
C 5.143499 5.687736 1.769905
C 5.687008 5.188721 1.847766
C 5.638568 5.730960 1.078042
C 0.275929 0.003526 1.931805
C 0.012842 0.476248 2.477708
C 0.403549 0.108829 2.490107
C 0.427328 0.490386 1.905484
C 0.268103 0.138097 2.234602
C 0.236355 0.810084 2.805572
C 0.774828 0.329230 2.740950
C 0.707313 0.790458 2.350591
C 0.891249 0.139631 2.007181
C 1.119536 0.484882 2.463123
C 1.385784 0.000257 2.613564
C 1.562581 0.460380 1.895188
C 1.308603 0.176953 2.348191
C 1.232891 0.636145 2.764966
C 1.671539 0.244890 2.781971
C 1.754913 0.826344 2.130416
C 1.888988 0.015802 1.896096
C 1.945360 0.482051 2.457495
C 2.487908 0.057250 2.360059
C 2.409703 0.591555 2.026934
C 2.192655 0.308027 2.316158
C 2.334079 0.714329 2.845748
C 2.763219 0.225410 2.806320
C 2.788287 0.781193 2.251115
C 3.011110 0.006123 2.125527
C 2.866263 0.510626 2.421002
C 3.619953 0.003102 2.369717
C 3.526287 0.477982 2.001707
C 3.325647 0.294591 2.168013
C 3.345364 0.758056 2.726726
C 3.819043 0.249723 2.867887
C 3.760889 0.839324 2.155170
C 3.947876 0.084183 1.990849
C 3.918402 0.453591 2.555633
C 4.595833 0.026431 2.709606
C 4.577439 0.522890 2.121195
C 4.271990 0.245806 2.284041
C 4.282219 0.790840 2.657521
C 4.832714 0.252476 2.777557
C 4.918419 0.804478 2.241514
C 5.096439 0.021937 1.870251
C 4.867610 0.517635 2.547369
C 5.492424 0.030665 2.590914
C 5.546395 0.415257 1.926754
C 5.154579 0.215305 2.299967
C 5.195099 0.938605 2.685354
C 5.747575 0.224245 2.666712
C 5.707077 0.675583 2.187002
C 0.035088 1.049592 2.033726
C 0.008062 1.479971 2.517697
C 0.420518 0.971647 2.454920
C 0.624008 1.562466 1.980178
C 0.272542 1.212135 2.177268
C 0.153967 1.829570 2.765358
C 0.677407 1.253421 2.772228
C 0.707777 1.604176 2.237448
C 0.976035 0.931834 1.921710
C 0.866591 1.544091 2.576002
C 1.492289 1.141920 2.589910
C 1.474962 1.492169 2.038904
C 1.253980 1.264087 2.429679
C 1.175207 1.842056 2.814960
C 1.807082 1.244577 2.759758
C 1.731578 1.798800 2.318008
C 1.997842 0.971585 2.093022
C 1.925398 1.538908 2.559635
C 2.529588 1.071078 2.498278
C 2.452520 1.329738 1.993335
C 2.321043 1.317062 2.291134
C 2.302969 1.654249 2.631465
C 2.726845 1.383735 2.767488
C 2.795883 1.729071 2.346068
C 3.129227 0.933228 1.989988
C 2.997573 1.481893 2.469666
C 3.431320 0.984443 2.367580
C 3.537133 1.561355 2.002806
C 3.316011 1.283281 2.382227
C 3.213547 1.852159 2.613331
C 3.825162 1.225484 2.856408
C 3.692664 1.786607 2.191516
C 3.903858 0.926681 1.876038
C 4.011430 1.653422 2.534479
C 4.504495 1.124297 2.617504
C 4.611085 1.427528 2.001329
C 4.161245 1.312671 2.314416
C 4.218544 1.643331 2.768159
C 4.792776 1.252596 2.770279
C 4.749379 1.723560 2.167514
C 5.059752 1.016406 2.079199
C 4.983299 1.618683 2.495173
C 5.410020 1.004544 2.492240
C 5.457433 1.501659 2.036825
C 5.168284 1.289975 2.214470
C 5.386775 1.842275 2.770963
C 5.660378 1.143841 2.686089
C 5.613470 1.734387 2.313570
C 0.016563 2.023655 2.127341
C 0.019897 2.614758 2.399153
C 0.555190 1.890263 2.380499
C 0.461781 2.587272 1.963331
C 0.271138 2.334158 2.131846
C 0.249434 2.706450 2.607446
C 0.735784 2.335181 2.848163
C 0.652509 2.831918 2.178445
C 1.116019 2.121114 2.010629
C 1.009170 2.452393 2.359937
C 1.492900 1.967171 2.401276
C 1.525677 2.478310 1.978058
C 1.186095 2.089588 2.288338
C 1.182710 2.823250 2.909624
C 1.762490 2.223888 2.772123
C 1.734283 2.760749 2.321165
C 1.905457 1.906683 1.989640
C 2.070444 2.578573 2.506276
C 2.506089 1.852278 2.541192
C 2.496650 2.597070 1.907713
C 2.337191 2.287100 2.269749
C 2.319624 2.693394 2.719793
C 2.807518 2.337877 2.660141
C 2.743971 2.693529 2.147169
C 3.114882 2.102259 1.974236
C 2.972768 2.481267 2.341574
C 3.493230 2.041845 2.480654
C 3.520429 2.401933 1.908006
C 3.277974 2.292908 2.178112
C 3.330618 2.719109 2.806807
C 3.705144 2.371081 2.726174
C 3.704278 2.811099 2.337145
C 4.034086 2.023121 1.993283
C 4.079855 2.418368 2.357866
C 4.554289 2.061705 2.432055
C 4.569562 2.480019 2.061848
C 4.282679 2.108063 2.223671
C 4.278765 2.849383 2.787344
C 4.809493 2.171123 2.772113
C 4.656291 2.741261 2.287746
C 4.977823 1.957015 2.116897
C 4.953187 2.521236 2.385513
C 5.431559 1.968493 2.462061
C 5.533592 2.352619 1.924478
C 5.383540 2.280262 2.204757
C 5.141472 2.718221 2.750393
C 5.607800 2.244465 2.711345
C 5.669322 2.773714 2.304435
C 0.058944 2.953527 2.215168
C 0.097793 3.522092 2.369629
C 0.431358 2.959558 2.559982
C 0.460745 3.387038 2.100017
C 0.273582 3.191481 2.344080
C 0.264941 3.653910 2.871417
C 0.680977 3.389251 2.771009
C 0.710488 3.676387 2.247073
C 0.971921 2.978706 1.874315
C 1.114062 3.515010 2.376250
C 1.537485 3.054631 2.633191
C 1.527755 3.565132 2.091742
C 1.208314 3.142849 2.309859
C 1.177258 3.769931 2.859465
C 1.853137 3.294275 2.655937
C 1.617533 3.865761 2.273904
C 2.001346 2.870181 1.989662
C 1.932584 3.569111 2.564413
C 2.475882 3.050418 2.459109
C 2.463098 3.493738 1.863970
C 2.177583 3.267796 2.098834
C 2.363685 3.738979 2.743263
C 2.713460 3.174978 2.627632
C 2.787596 3.644663 2.154089
C 2.994568 3.032136 1.871935
C 2.987132 3.498335 2.592646
C 3.553271 2.940846 2.559905
C 3.379204 3.450554 2.002910
C 3.326336 3.313413 2.304819
C 3.190414 3.809864 2.575063
C 3.845923 3.328222 2.731687
C 3.774062 3.669826 2.146278
C 4.042742 3.067950 1.938550
C 4.013792 3.455716 2.408479
C 4.516776 2.891709 2.529883
C 4.405797 3.373827 2.004372
C 4.157865 3.214674 2.198371
C 4.220977 3.735680 2.722408
C 4.710305 3.331153 2.713249
C 4.764714 3.774834 2.160403
C 4.935555 3.040428 1.949718
C 4.914882 3.548228 2.602063
C 5.515915 3.120396 2.402602
C 5.463462 3.516966 2.061859
C 5.196277 3.144750 2.251919
C 5.379227 3.740666 2.709362
C 5.716284 3.132130 2.811077
C 5.676243 3.705870 2.156443
C 0.000815 4.073137 2.030792
C 0.024942 4.357662 2.446593
C 0.611366 3.945791 2.461061
C 0.596564 4.534132 1.921936
C 0.210461 4.124837 2.286766
C 0.208267 4.798502 2.670598
C 0.789811 4.264449 2.877479
C 0.801662 4.680118 2.313814
C 1.003602 3.923784 1.893368
C 1.044605 4.483090 2.375512
C 1.396280 4.117034 2.442288
C 1.474170 4.423794 2.083664
C 1.263108 4.210396 2.161947
C 1.267442 4.644027 2.728454
C 1.837277 4.190915 2.657518
C 1.751692 4.673824 2.290501
C 2.040205 3.953957 1.944480
C 2.012916 4.517517 2.476988
C 2.412238 3.930728 2.494850
C 2.421313 4.434884 2.101556
C 2.389108 4.271388 2.361640
C 2.249414 4.664023 2.800981
C 2.722935 4.162795 2.691779
C 2.773856 4.881247 2.374387
C 3.064122 3.975606 1.914137
C 2.948551 4.629859 2.562204
C 3.374739 4.027753 2.557749
C 3.566925 4.549527 2.145499
C 3.101820 4.309852 2.259453
C 3.381632 4.674494 2.715315
C 3.781797 4.219933 2.832158
C 3.664051 4.716054 2.376146
C 4.052023 3.933741 2.088636
C 3.964831 4.414529 2.525578
C 4.397919 3.946384 2.501166
C 4.605429 4.453260 1.986466
C 4.317173 4.301593 2.201224
C 4.224714 4.702006 2.784541
C 4.679804 4.328359 2.678577
C 4.627270 4.661126 2.220736
C 4.880891 4.056144 1.971841
C 4.964831 4.414878 2.598189
C 5.409223 3.991520 2.524890
C 5.436109 4.551250 1.923803
C 5.354814 4.294258 2.298917
C 5.326958 4.708607 2.811428
C 5.645199 4.307140 2.770394
C 5.728651 4.528245 2.168486
C 0.142536 4.934380 1.993248
C 0.009420 5.410527 2.417510
C 0.573698 4.879857 2.479862
C 0.517405 5.387237 2.019203
C 0.281561 5.244248 2.325690
C 0.325680 5.640574 2.816592
C 0.835157 5.252480 2.660430
C 0.647256 5.679994 2.295528
C 1.101765 5.015154 1.861936
C 1.032489 5.604114 2.563491
C 1.512815 4.913855 2.395703
C 1.571198 5.554090 2.094633
C 1.198139 5.175781 2.105719
C 1.354832 5.612807 2.775556
C 1.699889 5.347316 2.839206
C 1.848171 5.578864 2.207019
C 1.904494 5.030330 1.927608
C 1.977895 5.404831 2.434365
C 2.519477 5.083344 2.519123
C 2.431464 5.340516 1.939891
C 2.266365 5.290019 2.365110
C 2.077696 5.724415 2.739829
C 2.732442 5.389051 2.633134
C 2.757418 5.665939 2.373082
C 3.001034 5.080444 2.018996
C 3.150553 5.453885 2.460702
C 3.507468 4.953158 2.633356
C 3.493748 5.434026 1.901572
C 3.285822 5.171425 2.202776
C 3.173658 5.740910 2.865269
C 3.585370 5.254330 2.783126
C 3.868454 5.708117 2.182322
C 4.121523 4.992860 1.982870
C 3.934981 5.560553 2.435105
C 4.540270 4.955185 2.459269
C 4.465784 5.429840 2.100302
C 4.382908 5.193550 2.290140
C 4.256885 5.620545 2.850596
C 4.787604 5.151237 2.687639
C 4.581175 5.713957 2.229476
C 5.045874 4.975158 2.044522
C 5.110555 5.487231 2.503145
C 5.556177 4.959690 2.490213
C 5.410360 5.555029 2.038886
C 5.216680 5.285177 2.143608
C 5.253678 5.692109 2.692522
C 5.653728 5.118705 2.772563
C 5.625878 5.709987 2.208075
C 0.157971 0.034315 2.953917
C 0.003239 0.641512 3.531789
C 0.368162 0.165730 3.502605
C 0.547209 0.501639 2.988445
C 0.281265 0.380575 3.188627
C 0.353694 0.829343 3.810783
C 0.720077 0.120904 3.816355
C 0.707418 0.789941 3.274133
C 1.096932 0.048972 2.974962
C 0.896432 0.433202 3.527130
C 1.585329 0.048737 3.610330
C 1.538383 0.514212 2.915450
C 1.255088 0.256020 3.198203
C 1.223084 0.774797 3.767193
C 1.740291 0.290788 3.658253
C 1.755044 0.802099 3.220105
C 1.939218 0.033321 2.953651
C 2.011621 0.373168 3.498445
C 2.586789 0.066117 3.469974
C 2.468006 0.388331 2.890084
C 2.351765 0.241261 3.241170
C 2.331555 0.810975 3.742816
C 2.798884 0.181067 3.654818
C 2.728019 0.740749 3.348842
C 3.050274 0.019633 3.047353
C 2.938255 0.433066 3.485146
C 3.483136 0.075303 3.483321
C 3.470505 0.578813 3.140840
C 3.125942 0.225446 3.313236
C 3.232325 0.713416 3.676670
C 3.766406 0.160258 3.639337
C 3.737899 0.734729 3.399414
C 4.083324 0.006006 3.034566
C 4.141066 0.503290 3.459630
C 4.515404 0.003491 3.498511
C 4.476605 0.571196 3.047053
C 4.225364 0.255304 3.271828
C 4.159055 0.617762 3.792586
C 4.734858 0.238373 3.718280
C 4.601638 0.834027 3.186990
C 5.083835 0.127228 3.050193
C 5.047064 0.638932 3.526997
C 5.582858 0.096719 3.572450
C 5.408270 0.601317 3.002034
C 5.116236 0.185453 3.377104
C 5.258307 0.754033 3.764972
C 5.616549 0.373002 3.624465
C 5.614094 0.782316 3.238179
C 0.039460 1.137605 2.935742
C 0.073269 1.612018 3.452646
C 0.391286 0.989720 3.421460
C 0.490286 1.531503 2.981362
C 0.186163 1.258141 3.166769
C 0.166505 1.674916 3.758465
C 0.756045 1.180992 3.811791
C 0.789852 1.615116 3.274308
C 0.906150 1.034782 3.041093
C 0.903512 1.421692 3.533725
C 1.408915 1.094325 3.535066
C 1.541312 1.553635 2.934017
C 1.219985 1.366644 3.159259
C 1.157692 1.803397 3.691822
C 1.844446 1.356185 3.768648
C 1.691097 1.640715 3.338627
C 1.890654 1.002611 2.930646
C 1.978524 1.394440 3.454856
C 2.462329 0.888256 3.487557
C 2.627600 1.512000 3.061807
C 2.233652 1.350525 3.311520
C 2.305112 1.805047 3.757555
C 2.705649 1.111368 3.678519
C 2.748955 1.782828 3.162774
C 2.956424 0.885630 2.978541
C 2.852546 1.494857 3.493547
C 3.565044 0.998128 3.431745
C 3.442935 1.430376 3.051492
C 3.369878 1.210058 3.241023
C 3.233992 1.663873 3.800482
C 3.824646 1.329881 3.787650
C 3.684134 1.816746 3.148147
C 4.035597 0.897104 3.080996
C 4.037116 1.441042 3.478017
C 4.377917 1.003073 3.528601
C 4.491053 1.435457 3.093507
C 4.221917 1.088361 3.258731
C 4.381344 1.673201 3.722302
C 4.677555 1.204788 3.692492
C 4.821253 1.733171 3.157059
C 5.140987 0.966356 2.967417
C 5.064812 1.533311 3.557169
C 5.586996 1.047719 3.500295
C 5.577653 1.612784 2.936903
C 5.114611 1.272444 3.300862
C 5.157463 1.785015 3.679582
C 5.702737 1.326158 3.696153
C 5.718396 1.821715 3.104851
C 0.058197 2.081344 3.153159
C 0.085021 2.540275 3.444024
C 0.566939 2.027758 3.507627
C 0.441973 2.500190 2.899939
C 0.294687 2.190078 3.352366
C 0.273373 2.893674 3.734336
C 0.750820 2.213140 3.860316
C 0.717996 2.887173 3.335029
C 0.946193 1.877254 3.010417
C 0.992570 2.444963 3.457608
C 1.484241 1.869537 3.519874
C 1.353800 2.591318 2.940384
C 1.287315 2.263068 3.330954
C 1.326162 2.616583 3.725195
C 1.822430 2.234049 3.801839
C 1.857983 2.789086 3.250274
C 2.076033 2.052449 3.085590
C 2.088599 2.469168 3.582055
C 2.601155 1.918872 3.399310
C 2.570273 2.541693 3.133494
C 2.233410 2.286301 3.237679
C 2.167216 2.792698 3.835303
C 2.654787 2.244605 3.665263
C 2.862294 2.791386 3.204763
C 2.979956 1.943703 2.934093
C 3.074645 2.552956 3.536241
C 3.364714 2.004662 3.506348
C 3.506962 2.548433 3.000863
C 3.319542 2.219718 3.324583
C 3.177872 2.760119 3.778840
C 3.852977 2.256805 3.836119
C 3.672243 2.827011 3.241508
C 3.941581 1.889887 2.979685
C 4.023616 2.382368 3.601914
C 4.669614 1.930508 3.582381
C 4.576585 2.508661 3.135370
C 4.184985 2.165218 3.310506
C 4.247195 2.663757 3.847391
C 4.828107 2.360117 3.644753
C 4.834047 2.807990 3.344222
C 4.945420 1.972876 2.986952
C 5.009984 2.576643 3.363655
C 5.447763 2.098211 3.431087
C 5.505933 2.536966 2.955713
C 5.164667 2.221091 3.130349
C 5.312435 2.621894 3.679750
C 5.685069 2.274176 3.860346
C 5.574196 2.771135 3.298778
C 0.069514 2.950730 2.862950
C 0.033205 3.357259 3.449413
C 0.417087 3.000328 3.450075
C 0.454148 3.439193 3.012554
C 0.316517 3.218709 3.233749
C 0.136332 3.827438 3.800662
C 0.613889 3.245327 3.660617
C 0.771528 3.817371 3.347124
C 0.991119 3.060247 3.063590
C 1.033619 3.549049 3.429002
C 1.507853 2.934275 3.516557
C 1.634998 3.458346 2.949394
C 1.337389 3.264726 3.189478
C 1.196927 3.828303 3.613985
C 1.766418 3.170483 3.732252
C 1.716904 3.670076 3.291370
C 1.989824 2.985454 3.043729
C 2.076421 3.441748 3.425643
C 2.591866 3.049655 3.569929
C 2.400855 3.511249 2.943176
C 2.101737 3.283654 3.115384
C 2.368263 3.801948 3.762826
C 2.819865 3.332740 3.733289
C 2.760748 3.791524 3.229937
C 3.029290 2.974619 2.891495
C 2.905906 3.492461 3.504919
C 3.417357 3.026895 3.610016
C 3.628787 3.375656 3.028718
C 3.142075 3.261242 3.231918
C 3.316095 3.688191 3.782958
C 3.736709 3.172813 3.831811
C 3.660236 3.799070 3.214161
C 3.939060 3.021047 3.082531
C 4.108387 3.454692 3.499435
C 4.371509 2.905111 3.571078
C 4.462634 3.544771 3.078830
C 4.277660 3.185840 3.331649
C 4.360999 3.727318 3.694111
C 4.815262 3.350853 3.675471
C 4.803762 3.754842 3.281459
C 4.999425 3.126635 3.034145
C 4.949535 3.548911 3.461988
C 5.561240 3.040851 3.498972
C 5.499310 3.499035 2.938125
C 5.210843 3.318670 3.166927
C 5.203729 3.719920 3.806603
C 5.647031 3.346881 3.758195
C 5.645720 3.704805 3.232790
C 0.002786 4.048277 2.879237
C 0.003926 4.582906 3.568236
C 0.475782 3.962679 3.627243
C 0.419793 4.621922 3.071771
C 0.099503 4.128131 3.249830
C 0.125528 4.805923 3.764202
C 0.873551 4.267995 3.821519
C 0.869429 4.731000 3.234730
C 0.972542 3.988163 2.857873
C 0.961692 4.427125 3.587739
C 1.443782 3.984106 3.576549
C 1.465099 4.632747 2.960874
C 1.191387 4.170335 3.348113
C 1.220173 4.719759 3.856381
C 1.684846 4.115302 3.693777
C 1.645121 4.629383 3.318240
C 2.004998 4.053946 2.988781
C 1.911899 4.510333 3.408349
C 2.517615 3.996120 3.529130
C 2.427734 4.538869 3.106509
C 2.282308 4.271243 3.260809
C 2.364123 4.738826 3.734541
C 2.781174 4.244614 3.855493
C 2.742085 4.820661 3.239393
C 2.966310 4.054844 2.969141
C 3.072318 4.503097 3.471946
C 3.361070 3.977259 3.536893
C 3.566038 4.456956 2.898146
C 3.134231 4.266284 3.192734
C 3.265247 4.661606 3.676350
C 3.865052 4.272286 3.817904
C 3.702948 4.708972 3.289825
C 4.025165 3.920959 2.947291
C 3.913828 4.490061 3.484239
C 4.506815 3.997505 3.569733
C 4.435699 4.608425 2.977473
C 4.355707 4.263895 3.336262
C 4.261863 4.810249 3.779803
C 4.854693 4.177459 3.738259
C 4.773619 4.702196 3.152400
C 4.886090 3.955331 3.032414
C 5.112189 4.589133 3.425698
C 5.578427 3.921586 3.518845
C 5.473127 4.460283 2.969805
C 5.290712 4.282534 3.370042
C 5.258857 4.715936 3.777361
C 5.645998 4.120908 3.725634
C 5.671259 4.906362 3.241949
C 0.045535 4.916951 2.992502
C 0.038286 5.484498 3.465934
C 0.423685 4.862607 3.548533
C 0.564926 5.361898 3.017235
C 0.178756 5.288462 3.205662
C 0.266995 5.723588 3.807267
C 0.793941 5.348848 3.682381
C 0.693922 5.594181 3.252944
C 1.070680 5.022214 3.058885
C 1.091786 5.517047 3.455615
C 1.404930 5.069023 3.496404
C 1.636540 5.506696 3.132772
C 1.166194 5.346892 3.223478
C 1.254042 5.666887 3.658514
C 1.585001 5.326342 3.778174
C 1.895881 5.718131 3.142295
C 2.093664 5.070867 2.920757
C 1.929501 5.427558 3.507345
C 2.421390 4.981428 3.595686
C 2.399782 5.459072 2.882836
C 2.295622 5.317304 3.210578
C 2.260841 5.681560 3.821088
C 2.778492 5.361676 3.736968
C 2.599679 5.747894 3.197030
C 2.993097 4.978946 2.904423
C 2.967654 5.566286 3.412809
C 3.432785 4.962545 3.456024
C 3.426470 5.416817 2.986852
C 3.208286 5.331897 3.171923
C 3.165673 5.734890 3.895828
C 3.660352 5.336684 3.718281
C 3.874160 5.634946 3.313508
C 3.857219 5.055458 3.015774
C 3.991486 5.514025 3.581573
C 4.515901 5.036969 3.381914
C 4.581097 5.612853 2.956245
C 4.256852 5.304929 3.164468
C 4.238489 5.703028 3.728680
C 4.747174 5.205409 3.795288
C 4.753298 5.642523 3.270160
C 4.974046 5.110059 2.925189
C 5.021958 5.669301 3.448499
C 5.456233 4.987711 3.622191
C 5.615115 5.393941 2.934770
C 5.364514 5.388075 3.294248
C 5.290305 5.721247 3.786254
C 5.660819 5.356913 3.739232
C 5.681216 5.614884 3.255773
C 0.120452 0.026602 3.916319
C 0.052169 0.618539 4.558024
C 0.450859 0.091370 4.548519
C 0.512359 0.498885 4.067118
C 0.386231 0.179046 4.269249
C 0.230367 0.886143 4.780184
C 0.677677 0.218332 4.824540
C 0.649961 0.812402 4.193651
C 1.075174 0.057182 4.037313
C 1.003391 0.543078 4.593083
C 1.491213 0.085166 4.631253
C 1.480718 0.529031 3.956513
C 1.324528 0.219848 4.199813
C 1.242561 0.733829 4.698781
C 1.716868 0.327490 4.766704
C 1.859937 0.706862 4.242640
C 2.067091 0.021593 3.987720
C 2.021717 0.512239 4.621504
C 2.481467 0.039700 4.567035
C 2.511673 0.510874 4.133458
C 2.289862 0.199840 4.251216
C 2.118709 0.716047 4.824736
C 2.822072 0.353838 4.816706
C 2.666666 0.801333 4.253038
C 3.028637 0.087997 4.008231
C 3.014574 0.514473 4.479969
C 3.463268 0.062948 4.589559
C 3.431980 0.531685 4.043561
C 3.309579 0.173381 4.294276
C 3.234825 0.774655 4.614557
C 3.774477 0.195218 4.783211
C 3.722678 0.778746 4.331823
C 3.912618 0.159869 4.011022
C 3.896617 0.538649 4.562879
C 4.563959 0.014317 4.528098
C 4.482481 0.493331 3.904599
C 4.104685 0.214132 4.218576
C 4.322092 0.851669 4.713399
C 4.692699 0.406677 4.734535
C 4.750021 0.613238 4.240118
C 4.853573 0.118525 4.071106
C 5.074448 0.529083 4.492558
C 5.571590 0.018446 4.617641
C 5.512402 0.529388 3.914237
C 5.200392 0.275791 4.308890
C 5.222402 0.661006 4.725680
C 5.741225 0.201767 4.818008
C 5.700461 0.863848 4.282538
C 0.128306 0.987584 3.911265
C 0.150092 1.482138 4.464375
C 0.544305 1.083725 4.552187
C 0.552160 1.426761 3.957470
C 0.328557 1.265856 4.262065
C 0.242809 1.639484 4.748934
C 0.757900 1.191057 4.791841
C 0.763046 1.820187 4.325934
C 0.880589 0.963597 4.064840
C 0.944730 1.338049 4.596134
C 1.566758 1.047865 4.395544
C 1.482632 1.494269 3.926023
C 1.228042 1.339314 4.358273
C 1.143446 1.755561 4.852377
C 1.838732 1.191868 4.660344
C 1.713613 1.890157 4.232282
C 2.104514 1.020249 4.028494
C 2.061242 1.399372 4.570551
C 2.556047 0.865680 4.556396
C 2.571080 1.553425 3.995615
C 2.326677 1.234353 4.288752
C 2.335900 1.648367 4.786966
C 2.755909 1.384936 4.801143
C 2.728090 1.746137 4.175171
C 2.927395 1.124263 3.970322
C 3.051606 1.458359 4.372975
C 3.475250 0.922154 4.489309
C 3.565708 1.470528 3.899929
C 3.153863 1.184524 4.340280
C 3.304678 1.856103 4.753347
C 3.720851 1.119362 4.825904
C 3.727470 1.639585 4.193957
C 3.915186 1.014410 4.001176
C 3.979986 1.404229 4.657685
C 4.561843 0.972966 4.593576
C 4.556421 1.559636 4.074791
C 4.276627 1.214642 4.343952
C 4.211638 1.703304 4.746595
C 4.715859 1.371096 4.655933
C 4.752055 1.701745 4.284066
C 4.959494 1.085514 4.017547
C 4.982308 1.512494 4.479842
C 5.432492 1.005611 4.478497
C 5.616814 1.543195 3.947276
C 5.236794 1.280807 4.262244
C 5.253597 1.831142 4.648132
C 5.707327 1.091581 4.747240
C 5.677560 1.715855 4.235992
C 0.039262 1.921031 3.850884
C 0.017669 2.475829 4.619478
C 0.441571 2.112433 4.383260
C 0.427205 2.481747 3.892345
C 0.159039 2.289049 4.359741
C 0.135625 2.779752 4.706320
C 0.704433 2.213567 4.607884
C 0.796011 2.782720 4.296904
C 0.926054 1.943846 4.029498
C 0.906725 2.560999 4.487145
C 1.519002 2.097378 4.566910
C 1.438426 2.559198 4.026890
C 1.195664 2.274735 4.367148
C 1.329073 2.859611 4.735146
C 1.898520 2.342651 4.797829
C 1.758670 2.663591 4.116911
C 1.984710 2.048456 3.981908
C 1.859149 2.452415 4.467299
C 2.500725 1.954183 4.617697
C 2.400343 2.499916 3.930069
C 2.278156 2.254199 4.157047
C 2.253000 2.592516 4.690272
C 2.727952 2.204053 4.707437
C 2.770741 2.643434 4.212810
C 2.979694 1.937044 3.930026
C 3.000086 2.470435 4.633867
C 3.446238 2.087660 4.500304
C 3.546287 2.373572 3.987718
C 3.256569 2.352796 4.272306
C 3.192362 2.942960 4.741039
C 3.852643 2.219656 4.683402
C 3.796975 2.863328 4.168455
C 3.952956 1.847664 4.025902
C 4.089740 2.544894 4.404390
C 4.441419 2.084035 4.386696
C 4.641419 2.496139 3.921456
C 4.234090 2.305136 4.343912
C 4.294406 2.628565 4.709203
C 4.644344 2.204281 4.809610
C 4.717648 2.777841 4.333040
C 4.975041 2.008109 3.863752
C 5.056127 2.426234 4.544369
C 5.501204 2.071223 4.621227
C 5.465524 2.433862 3.996522
C 5.309027 2.234587 4.298302
C 5.281414 2.686783 4.797041
C 5.741987 2.361567 4.889039
C 5.642169 2.585348 4.273140
C 0.057154 2.942604 4.072543
C 0.058185 3.484723 4.516516
C 0.437356 2.907804 4.577558
C 0.392977 3.658145 4.064280
C 0.235996 3.260364 4.139658
C 0.225254 3.716027 4.761051
C 0.782761 3.363391 4.786769
C 0.845911 3.705888 4.116920
C 1.035600 2.946188 3.986433
C 1.017955 3.507318 4.595873
C 1.437265 3.036221 4.516417
C 1.594685 3.527280 3.921410
C 1.242043 3.086817 4.225961
C 1.244284 3.641847 4.737146
C 1.652962 3.319917 4.682375
C 1.730453 3.825164 4.304914
C 2.105139 2.936585 4.113702
C 2.073889 3.486095 4.576818
C 2.483010 3.095157 4.577605
C 2.565536 3.626757 3.968095
C 2.187851 3.276447 4.101991
C 2.313119 3.805270 4.820305
C 2.748474 3.363893 4.850050
C 2.621669 3.696431 4.294177
C 3.045040 2.919124 4.045167
C 2.996806 3.356525 4.467015
C 3.481268 2.962355 4.561598
C 3.531525 3.609122 4.069770
C 3.264177 3.209596 4.243394
C 3.299912 3.813356 4.662363
C 3.860922 3.340661 4.756087
C 3.728724 3.864551 4.183821
C 4.061135 3.039229 3.986986
C 3.993294 3.585816 4.533561
C 4.567788 3.128549 4.381871
C 4.413821 3.472056 4.046703
C 4.182784 3.121151 4.244563
C 4.116226 3.775238 4.767476
C 4.911835 3.249337 4.725912
C 4.862953 3.785478 4.345965
C 5.065617 3.036021 4.090279
C 4.847366 3.358943 4.451940
C 5.593115 2.989626 4.391368
C 5.538456 3.413924 4.060787
C 5.271883 3.154442 4.331420
C 5.288894 3.739276 4.651429
C 5.749712 3.315805 4.801548
C 5.676250 3.633312 4.235252
C 0.012356 3.934553 4.087171
C 0.012142 4.527419 4.537151
C 0.479372 4.076180 4.480676
C 0.554833 4.485659 3.916881
C 0.120642 4.293494 4.364989
C 0.136939 4.710269 4.743953
C 0.808839 4.195229 4.831986
C 0.608061 4.783962 4.270476
C 0.985482 3.968372 4.092182
C 0.986388 4.610642 4.435997
C 1.543584 4.027662 4.439595
C 1.379824 4.456851 3.956515
C 1.293698 4.176203 4.149552
C 1.196625 4.683953 4.646562
C 1.825320 4.199620 4.659799
C 1.743397 4.762714 4.138268
C 1.985938 4.006604 4.065049
C 1.984089 4.559196 4.472989
C 2.465840 4.035534 4.486094
C 2.424090 4.497889 4.110766
C 2.227231 4.269072 4.242661
C 2.316060 4.792984 4.596778
C 2.831139 4.217813 4.861528
C 2.656905 4.764459 4.202124
C 3.025054 3.878774 4.035783
C 2.848690 4.473059 4.597538
C 3.490900 4.023883 4.550950
C 3.522958 4.501645 3.885758
C 3.296368 4.398527 4.229748
C 3.302355 4.837959 4.791634
C 3.752187 4.135850 4.844221
C 3.778664 4.807462 4.229396
C 4.089023 3.982466 3.943514
C 3.956220 4.499467 4.503108
C 4.462651 3.898522 4.401484
C 4.404324 4.550731 4.075543
C 4.207696 4.390173 4.291231
C 4.317237 4.620631 4.800574
C 4.778494 4.096022 4.799836
C 4.827733 4.700175 4.291125
C 5.052221 3.965940 3.908960
C 4.993941 4.337211 4.406109
C 5.511765 4.035532 4.575382
C 5.525313 4.637147 4.013543
C 5.271480 4.347617 4.328597
C 5.083074 4.714089 4.729020
C 5.726579 4.246833 4.639356
C 5.725369 4.687205 4.314937
C 0.056999 4.907580 4.098843
C 0.065638 5.590909 4.553500
C 0.342887 4.926979 4.616257
C 0.468873 5.610190 4.001752
C 0.259729 5.370163 4.258634
C 0.254785 5.720285 4.760242
C 0.752173 5.183492 4.715980
C 0.826703 5.692549 4.278887
C 1.020319 4.903655 4.052568
C 1.043847 5.491470 4.432506
C 1.537370 5.090099 4.469905
C 1.417702 5.563192 3.906359
C 1.247145 5.256082 4.294969
C 1.382898 5.697640 4.733928
C 1.792799 5.141143 4.744223
C 1.822899 5.726775 4.173802
C 1.876591 4.911864 3.909717
C 2.075149 5.639157 4.511895
C 2.387553 5.016406 4.426283
C 2.511202 5.377938 4.064439
C 2.236089 5.382658 4.357498
C 2.296302 5.660304 4.724150
C 2.779371 5.421271 4.755443
C 2.751697 5.745557 4.150668
C 2.977557 4.974471 4.118250
C 2.930181 5.462832 4.412332
C 3.522680 5.062101 4.608663
C 3.550393 5.572701 3.994042
C 3.184342 5.258316 4.290049
C 3.077794 5.716406 4.659037
C 3.794677 5.200723 4.716534
C 3.770933 5.710080 4.318842
C 3.918702 4.953616 4.003838
C 3.864080 5.448586 4.538839
C 4.345443 4.980733 4.531129
C 4.531928 5.529628 4.084014
C 4.301907 5.304197 4.174139
C 4.257940 5.726503 4.847555
C 4.748045 5.338689 4.881342
C 4.823896 5.649186 4.189431
C 4.925535 5.019306 3.987771
C 5.041652 5.522448 4.495833
C 5.463068 4.870913 4.535124
C 5.439318 5.497036 3.931655
C 5.259849 5.165002 4.294197
C 5.159665 5.653215 4.786489
C 5.699926 5.338413 4.833117
C 5.632976 5.657022 4.217252
C 0.019270 0.004489 4.804981
C 0.135044 0.501424 5.549289
C 0.662242 0.017221 5.419861
C 0.625087 0.491983 5.010489
C 0.258113 0.154393 5.348188
C 0.379947 0.742427 5.730147
C 0.638392 0.132384 5.737578
C 0.676155 0.777302 5.163916
C 1.038611 0.018617 5.046461
C 1.014678 0.507607 5.391658
C 1.573343 0.085888 5.640886
C 1.541516 0.568440 4.984162
C 1.240413 0.327744 5.393918
C 1.345152 0.743487 5.737534
C 1.701999 0.374325 5.728166
C 1.739662 0.676337 5.332392
C 2.115716 0.032788 5.083179
C 1.950749 0.592020 5.530735
C 2.381732 0.097231 5.611483
C 2.600751 0.431490 5.050990
C 2.336428 0.235553 5.220504
C 2.303775 0.791721 5.627765
C 2.633394 0.328074 5.725533
C 2.630064 0.785473 5.209320
C 2.951013 0.142414 5.003131
C 2.983114 0.458973 5.596001
C 3.527654 0.014141 5.529548
C 3.609201 0.516599 4.983244
C 3.201569 0.192275 5.158693
C 3.195551 0.645444 5.641065
C 3.687259 0.222578 5.734849
C 3.628926 0.747406 5.292211
C 4.121503 0.069810 4.981909
C 4.145290 0.468431 5.424359
C 4.588899 0.061607 5.570991
C 4.375495 0.469994 4.953889
C 4.254496 0.182471 5.313817
C 4.241732 0.761831 5.574158
C 4.847269 0.145187 5.727817
C 4.840289 0.789541 5.234643
C 5.101355 0.029964 4.972945
C 5.055874 0.406201 5.515300
C 5.593402 0.033070 5.525196
C 5.439274 0.516970 5.109329
C 5.243128 0.314215 5.303578
C 5.273212 0.785955 5.713871
C 5.652956 0.258356 5.690752
C 5.670571 0.759801 5.300730
C 0.181236 0.939583 5.056115
C 0.011348 1.460616 5.394426
C 0.531015 1.032835 5.403778
C 0.385511 1.428528 4.901809
C 0.157071 1.186007 5.282227
C 0.312854 1.645982 5.633967
C 0.629701 1.331829 5.735867
C 0.791162 1.699312 5.166143
C 1.082126 1.148392 5.013581
C 0.927033 1.480130 5.590670
C 1.469205 1.047903 5.660233
C 1.619268 1.499563 4.985230
C 1.223155 1.422741 5.269979
C 1.298962 1.839986 5.711791
C 1.769312 1.159138 5.626324
C 1.655287 1.720351 5.291916
C 2.046010 1.063422 4.965232
C 1.990387 1.469910 5.636451
C 2.474313 1.049682 5.388573
C 2.381823 1.518987 5.111327
C 2.211175 1.245378 5.162903
C 2.326798 1.638769 5.711420
C 2.811547 1.185446 5.657304
C 2.780430 1.778139 5.263336
C 3.112151 0.999013 5.013275
C 3.018055 1.387591 5.447379
C 3.522235 1.101236 5.385941
C 3.399298 1.390457 5.065140
C 3.159772 1.217849 5.200986
C 3.206856 1.628146 5.677012
C 3.885023 1.198239 5.713602
C 3.693840 1.712401 5.207419
C 4.049457 1.037488 4.921805
C 3.989953 1.491414 5.441113
C 4.634613 0.938847 5.458367
C 4.572249 1.411121 4.965326
C 4.212233 1.134420 5.162658
C 4.141469 1.784485 5.687473
C 4.818543 1.255549 5.632732
C 4.805187 1.824009 5.300006
C 4.891444 0.967291 4.970276
C 4.979321 1.500483 5.557966
C 5.576901 0.998150 5.453613
C 5.436760 1.454547 4.866636
C 5.104342 1.267012 5.304385
C 5.222161 1.670050 5.614685
C 5.659478 1.009892 5.711716
C 5.632271 1.833288 5.393989
C 0.023444 1.891409 5.087348
C 0.074593 2.541491 5.337814
C 0.396820 2.062595 5.430957
C 0.431867 2.555518 5.174939
C 0.259424 2.302383 5.348219
C 0.250424 2.646951 5.680761
C 0.672546 2.435385 5.735672
C 0.685664 2.720237 5.097533
C 1.047300 2.002866 5.022132
C 0.977018 2.516853 5.582507
C 1.498213 2.074389 5.608205
C 1.598477 2.479465 5.009029
C 1.158600 2.259225 5.145980
C 1.257082 2.635275 5.717357
C 1.760385 2.267042 5.598651
C 1.714197 2.642856 5.225661
C 1.998544 2.151488 5.018154
C 2.007882 2.354814 5.605371
C 2.573694 2.011359 5.348133
C 2.598436 2.418451 4.879699
C 2.340998 2.323370 5.165951
C 2.297054 2.704847 5.669337
C 2.713854 2.366753 5.737428
C 2.860698 2.843001 5.268229
C 2.925291 2.083791 5.065417
C 3.056757 2.569452 5.578675
C 3.465185 1.922346 5.531892
C 3.458763 2.516073 5.028784
C 3.288143 2.167285 5.293376
C 3.133206 2.820359 5.728288
C 3.772804 2.355008 5.693839
C 3.784161 2.791617 5.409826
C 3.974433 1.929823 4.896773
C 3.975814 2.515308 5.516731
C 4.379220 1.907245 5.511039
C 4.577256 2.479897 4.928163
C 4.282446 2.235724 5.307267
C 4.223128 2.636744 5.631014
C 4.820393 2.204303 5.639053
C 4.660659 2.777278 5.219769
C 5.065096 1.974850 4.895438
C 4.858712 2.485300 5.543817
C 5.479661 2.102799 5.418604
C 5.543453 2.560802 5.013794
C 5.237420 2.370845 5.253351
C 5.221544 2.784649 5.663520
C 5.628276 2.136896 5.691456
C 5.642129 2.676291 5.339331
C 0.093874 3.058539 5.024729
C 0.111827 3.456942 5.506382
C 0.532818 2.906025 5.462936
C 0.366780 3.480383 4.987644
C 0.289774 3.255636 5.173997
C 0.163116 3.681814 5.731207
C 0.646239 3.213185 5.664173
C 0.716843 3.751630 5.406662
C 0.886348 2.900205 4.951832
C 1.057489 3.385971 5.477418
C 1.464113 2.975334 5.400807
C 1.503407 3.599434 4.948370
C 1.281818 3.329106 5.163163
C 1.337344 3.691709 5.648792
C 1.788807 3.145899 5.663834
C 1.720362 3.780016 5.194437
C 2.012082 2.885937 4.940940
C 2.108431 3.485075 5.577255
C 2.480467 2.945028 5.558726
C 2.515876 3.546239 4.894021
C 2.347817 3.218900 5.222620
C 2.348977 3.759169 5.694428
C 2.715192 3.261557 5.674383
C 2.636211 3.707011 5.321353
C 3.003562 2.918390 5.007018
C 3.020717 3.521294 5.375128
C 3.476879 3.027732 5.376667
C 3.582614 3.464417 5.053045
C 3.315594 3.287826 5.355542
C 3.331866 3.610183 5.672001
C 3.641325 3.265928 5.671227
C 3.793218 3.687318 5.094855
C 4.034873 2.939716 4.996596
C 3.903428 3.503462 5.390915
C 4.434986 2.919343 5.556184
C 4.396976 3.486044 4.906841
C 4.175119 3.226996 5.359052
C 4.252987 3.640347 5.734267
C 4.833498 3.140914 5.593211
C 4.855080 3.693306 5.173254
C 4.907531 2.994634 5.025746
C 4.941322 3.417919 5.459412
C 5.621693 2.931104 5.582183
C 5.431091 3.527811 5.077858
C 5.189493 3.221791 5.209528
C 5.158503 3.724013 5.727026
C 5.745528 3.192313 5.595971
C 5.700478 3.882520 5.232001
C 0.001443 3.923613 4.957312
C 0.005950 4.426186 5.489736
C 0.538327 4.118765 5.443382
C 0.355396 4.540669 5.024403
C 0.241765 4.153482 5.150163
C 0.289250 4.769564 5.675298
C 0.644987 4.254603 5.738580
C 0.791904 4.834507 5.177384
C 0.896255 3.959141 5.130068
C 0.980061 4.484295 5.643069
C 1.461840 3.974474 5.548724
C 1.554670 4.464063 5.059864
C 1.214579 4.328662 5.259800
C 1.300217 4.748044 5.724197
C 1.585888 4.235553 5.702538
C 1.739335 4.686588 5.167194
C 1.912042 3.919136 5.007183
C 2.009955 4.421866 5.448172
C 2.378875 3.949020 5.437761
C 2.484349 4.407405 4.909063
C 2.362363 4.186404 5.187250
C 2.181318 4.736778 5.627309
C 2.951773 4.268638 5.746283
C 2.732643 4.751360 5.232787
C 3.055966 3.925075 5.033199
C 2.965149 4.545990 5.653778
C 3.398531 4.024966 5.534925
C 3.622967 4.525700 4.868348
C 3.198057 4.230827 5.364245
C 3.394351 4.776370 5.735189
C 3.805159 4.356570 5.710828
C 3.731042 4.606814 5.281251
C 3.925187 3.959164 5.103599
C 4.002959 4.390357 5.417717
C 4.343794 3.899552 5.461566
C 4.526986 4.425888 4.835469
C 4.184533 4.309450 5.205654
C 4.321659 4.904021 5.737100
C 4.678666 4.183075 5.697341
C 4.623479 4.763028 5.305432
C 5.115300 4.036069 5.102540
C 4.915136 4.604125 5.505543
C 5.587359 4.094379 5.441702
C 5.549405 4.578532 4.936043
C 5.160158 4.256171 5.344257
C 5.278486 4.849052 5.679148
C 5.648946 4.288837 5.733558
C 5.674881 4.817632 5.188349
C 0.013104 5.049441 4.865431
C 0.003119 5.600575 5.587123
C 0.481234 5.035016 5.465996
C 0.426106 5.451570 5.086907
C 0.138703 5.193186 5.194706
C 0.243346 5.734115 5.560130
C 0.705576 5.312137 5.618994
C 0.719801 5.718411 5.236336
C 0.925710 5.083395 4.981932
C 1.072508 5.529016 5.660845
C 1.492611 5.013765 5.421970
C 1.610177 5.576322 4.882906
C 1.367831 5.252233 5.135047
C 1.173152 5.734650 5.551890
C 1.877605 5.339945 5.748814
C 1.643766 5.732730 5.270259
C 2.130543 4.972767 4.895356
C 1.901788 5.516768 5.492417
C 2.549996 4.976458 5.386706
C 2.376235 5.454588 4.921230
C 2.252568 5.347147 5.183143
C 2.193992 5.694820 5.689187
C 2.759163 5.114451 5.671261
C 2.601966 5.692112 5.182452
C 3.024220 5.045224 4.962150
C 3.022630 5.330578 5.505258
C 3.453757 4.978834 5.532171
C 3.417807 5.560524 4.961424
C 3.254247 5.360866 5.271582
C 3.383897 5.748412 5.718433
C 3.725342 5.101464 5.701349
C 3.752751 5.700970 5.227347
C 4.019608 5.012569 4.857569
C 4.098327 5.565433 5.507119
C 4.523332 4.916165 5.538515
C 4.609513 5.481874 5.113855
C 4.233347 5.268278 5.257387
C 4.335667 5.718143 5.695746
C 4.871259 5.219955 5.680746
C 4.627592 5.728720 5.294115
C 5.072775 5.021829 5.088167
C 5.075570 5.457005 5.605145
C 5.679861 4.991328 5.530235
C 5.509749 5.494742 5.143506
C 5.186945 5.378066 5.263537
C 5.446514 5.678672 5.680143
C 5.649300 5.252283 5.702661
C 5.728168 5.624494 5.297219
1728
Frame 9/10
C 0.040278 0.048032 0.127743
C 0.099027 0.387246 0.455499
C 0.409949 0.000582 0.520291
C 0.567987 0.489941 0.185879
C 0.363977 0.252737 0.318179
C 0.107550 0.682253 0.731787
C 0.621832 0.292730 0.813614
C 0.727814 0.709991 0.346612
C 1.110787 0.028221 0.084807
C 1.004935 0.531330 0.424571
C 1.568828 0.008073 0.311620
C 1.552095 0.394195 0.075445
C 1.303633 0.274972 0.204381
C 1.337049 0.596876 0.817021
C 1.668235 0.131829 0.667114
C 1.631302 0.694732 0.199675
C 1.835570 0.016241 0.058884
C 1.872169 0.442546 0.437729
C 2.407518 0.050196 0.523514
C 2.611111 0.449639 0.057222
C 2.289207 0.193684 0.177657
C 2.238651 0.857494 0.841674
C 2.697488 0.155300 0.930966
C 2.742590 0.818566 0.142303
C 3.075959 0.031724 0.098692
C 3.018266 0.419037 0.494098
C 3.446920 0.028194 0.499073
C 3.555256 0.564739 0.057193
C 3.409403 0.298533 0.254306
C 3.374621 0.843624 0.806945
C 3.819822 0.146914 0.786059
C 3.829830 0.786241 0.185067
C 4.148309 0.184818 0.033748
C 4.145015 0.511948 0.471626
C 4.414609 0.020145 0.629473
C 4.492603 0.471099 0.006963
C 4.315143 0.433271 0.233188
C 4.431514 0.718295 0.751107
C 4.771499 0.296053 0.866659
C 4.730493 0.875895 0.210045
C 4.979273 0.151631 0.059656
C 4.878722 0.507648 0.510840
C 5.505587 0.196611 0.458480
C 5.332400 0.480488 0.159785
C 5.219026 0.155312 0.236407
C 5.234541 0.774496 0.805968
C 5.634141 0.292579 0.902444
C 5.675513 0.660617 0.185572
C 0.063429 0.905846 0.052433
C 0.125277 1.602409 0.467113
C 0.458849 1.001633 0.578491
C 0.588643 1.467054 0.113864
C 0.187935 1.322873 0.357598
C 0.404126 1.782068 0.801979
C 0.611502 1.176036 0.748900
C 0.754657 1.701212 0.292754
C 1.167391 0.873017 0.030125
C 0.973366 1.476452 0.339838
C 1.499179 0.920331 0.539852
C 1.444715 1.525853 0.006748
C 1.270283 1.293994 0.178550
C 1.120534 1.785538 0.705565
C 1.802585 1.223811 0.684006
C 1.728441 1.910959 0.345822
C 2.031841 0.969702 0.126754
C 1.841478 1.580550 0.535644
C 2.520845 1.038368 0.464468
C 2.566366 1.609397 0.000728
C 2.301878 1.327910 0.126778
C 2.384122 1.794595 0.668842
C 2.720603 1.139074 0.706017
C 2.721620 1.737005 0.259088
C 3.103225 1.079229 0.092360
C 2.916624 1.413312 0.561414
C 3.535178 1.007281 0.518494
C 3.519124 1.487633 0.079575
C 3.369591 1.234863 0.174092
C 3.349003 1.781012 0.822171
C 3.627100 1.112560 0.757441
C 3.590078 1.716729 0.314904
C 4.120985 1.012641 0.008044
C 3.835151 1.609263 0.537548
C 4.454583 1.055531 0.470473
C 4.490839 1.431205 0.091269
C 4.351723 1.340158 0.362684
C 4.281687 1.649984 0.836055
C 4.780839 1.190020 0.769509
C 4.691730 1.729871 0.234202
C 5.111515 0.916612 0.097381
C 4.970458 1.348149 0.544049
C 5.375115 0.846760 0.543678
C 5.478241 1.446792 0.121504
C 5.257489 1.192269 0.228219
C 5.270422 1.751665 0.750040
C 5.579937 1.125595 0.734198
C 5.705772 1.687574 0.135557
C 0.022832 1.841165 0.080254
C 0.070629 2.574478 0.498271
C 0.388169 2.015138 0.428105
C 0.606254 2.565818 0.111323
C 0.342502 2.385635 0.228837
C 0.269223 2.591707 0.760188
C 0.656793 2.289585 0.680216
C 0.652307 2.712670 0.360879
C 1.089517 2.113701 0.134140
C 1.010918 2.505355 0.509463
C 1.455748 1.959002 0.391376
C 1.646225 2.417697 0.043125
C 1.305311 2.296347 0.297235
C 1.205257 2.832676 0.911636
C 1.754350 2.396395 0.695339
C 1.733083 2.626333 0.342088
C 2.079003 2.043204 0.018898
C 1.967872 2.363346 0.464001
C 2.538746 1.912701 0.457448
C 2.472962 2.715126 0.153019
C 2.278754 2.378066 0.160420
C 2.376817 2.708218 0.780927
C 2.681248 2.156543 0.636806
C 2.770881 2.684577 0.169238
C 2.840927 2.043726 0.052996
C 3.072943 2.585124 0.571745
C 3.426856 1.889361 0.506033
C 3.496011 2.320289 0.084251
C 3.189363 2.108513 0.335745
C 3.261124 2.616311 0.841441
C 3.624277 2.110605 0.823171
C 3.820361 2.740983 0.250645
C 3.873493 2.079417 0.165581
C 3.981478 2.538153 0.424734
C 4.531324 2.153725 0.395786
C 4.391435 2.609054 0.015217
C 4.157596 2.267565 0.296872
C 4.366470 2.759333 0.715375
C 4.776439 2.265110 0.764080
C 4.792074 2.892325 0.205649
C 5.120753 2.051790 0.011854
C 5.025638 2.453035 0.472690
C 5.639694 2.043971 0.623823
C 5.640702 2.540060 0.052588
C 5.256030 2.172362 0.381422
C 5.094648 2.714579 0.710853
C 5.553882 2.272926 0.763843
C 5.606161 2.855163 0.228477
C 0.045690 3.021499 0.065590
C 0.152376 3.523072 0.608673
C 0.373254 3.018148 0.466007
C 0.417262 3.504445 0.051949
C 0.268612 3.392675 0.361924
C 0.378983 3.814329 0.595956
C 0.856029 3.374151 0.775240
C 0.707513 3.847834 0.257374
C 0.968220 2.993420 0.141953
C 1.052057 3.562308 0.451782
C 1.546433 3.088399 0.434281
C 1.484123 3.513676 0.095615
C 1.277833 3.205498 0.240206
C 1.243295 3.901901 0.834579
C 1.801635 3.244776 0.718706
C 1.752711 3.633675 0.199577
C 1.865813 2.913377 0.113581
C 2.079393 3.447371 0.596845
C 2.632748 3.009553 0.457431
C 2.579014 3.625976 0.039010
C 2.250011 3.302600 0.192166
C 2.134925 3.723306 0.717202
C 2.586309 3.176751 0.790441
C 2.886345 3.742624 0.336056
C 3.033171 2.808180 0.142520
C 3.126820 3.555332 0.477440
C 3.384710 3.059824 0.444054
C 3.646620 3.510998 0.046437
C 3.297217 3.301366 0.073277
C 3.099040 3.732384 0.722991
C 3.634256 3.251184 0.718428
C 3.749009 3.612304 0.339425
C 3.949120 3.016212 0.105877
C 4.044831 3.498025 0.327410
C 4.534128 2.999600 0.659088
C 4.459500 3.568744 0.041993
C 4.150081 3.115600 0.292701
C 4.223746 3.777336 0.906036
C 4.756468 3.317909 0.730182
C 4.721808 3.668411 0.183889
C 4.925108 3.124224 0.036646
C 4.876924 3.392309 0.481689
C 5.533578 3.109720 0.489166
C 5.467285 3.427674 0.107887
C 5.141377 3.327250 0.275410
C 5.274896 3.763038 0.756859
C 5.747537 3.034918 0.826946
C 5.661210 3.884721 0.209344
C 0.128865 3.840189 0.080951
C 0.024062 4.474318 0.380779
C 0.611151 4.074487 0.597462
C 0.440085 4.630025 0.025360
C 0.271015 4.369757 0.273374
C 0.194218 4.675874 0.902773
C 0.745065 4.245046 0.843755
C 0.614075 4.853003 0.230821
C 1.058285 4.066801 0.019678
C 0.959209 4.459055 0.553558
C 1.485391 3.992652 0.650039
C 1.356186 4.414848 0.004964
C 1.376106 4.174938 0.255914
C 1.202986 4.751014 0.654071
C 1.681344 4.207322 0.637848
C 1.699809 4.817714 0.173161
C 2.119480 3.992212 0.012827
C 1.945212 4.573832 0.621106
C 2.434061 3.878188 0.534371
C 2.389281 4.506380 0.111481
C 2.340206 4.202996 0.152777
C 2.267409 4.725348 0.734347
C 2.767965 4.300643 0.779364
C 2.721285 4.914619 0.251239
C 2.992130 4.045895 0.205969
C 3.110024 4.452742 0.573086
C 3.483526 4.033847 0.510509
C 3.510198 4.640076 0.129838
C 3.194640 4.231920 0.325570
C 3.199587 4.713437 0.793821
C 3.687342 4.375418 0.818990
C 3.911419 4.695537 0.240166
C 4.047309 4.175057 0.048511
C 4.000151 4.419330 0.524585
C 4.504197 4.139842 0.419882
C 4.572545 4.427439 0.210086
C 4.198040 4.262837 0.349533
C 4.278596 4.787549 0.827722
C 4.721477 4.248321 0.575294
C 4.712035 4.701694 0.195246
C 4.956911 3.967615 0.006592
C 4.969295 4.486222 0.642995
C 5.623908 3.995696 0.580795
C 5.476742 4.401607 0.079122
C 5.105315 4.221472 0.318964
C 5.235964 4.834559 0.734694
C 5.744559 4.180324 0.772354
C 5.701645 4.737013 0.161016
C 0.006727 4.898379 0.028558
C 0.105101 5.574344 0.377263
C 0.563244 4.994857 0.666576
C 0.674389 5.615767 0.010357
C 0.297717 5.106813 0.140424
C 0.294183 5.726218 0.861069
C 0.827209 5.299274 0.701685
C 0.809579 5.684400 0.407375
C 0.859753 4.976077 0.034808
C 0.955939 5.467693 0.502780
C 1.506714 4.956888 0.570637
C 1.517882 5.528160 0.170633
C 1.253177 5.279869 0.074910
C 1.067675 5.709421 0.656976
C 1.758391 5.238701 0.888987
C 1.709253 5.697526 0.412942
C 2.023880 4.940325 0.020603
C 2.019961 5.637659 0.538107
C 2.442044 4.920054 0.456380
C 2.493004 5.298148 0.095444
C 2.262781 5.107844 0.218612
C 2.364842 5.719652 0.555443
C 2.768568 5.237130 0.671137
C 2.667717 5.693309 0.311514
C 3.064546 4.822708 0.034739
C 3.108668 5.435424 0.530627
C 3.645015 5.045136 0.390674
C 3.429219 5.341404 0.082063
C 3.184204 5.375675 0.215398
C 3.364042 5.598428 0.819061
C 3.825180 5.396244 0.783806
C 3.703537 5.624372 0.358275
C 3.888255 5.030382 0.186907
C 3.990856 5.535969 0.386396
C 4.478101 4.825202 0.585606
C 4.522734 5.311983 0.004511
C 4.300172 5.285917 0.251856
C 4.199466 5.720713 0.840656
C 4.769145 5.243632 0.866027
C 4.642408 5.650546 0.093062
C 5.225945 4.975295 0.085022
C 4.982945 5.649708 0.498318
C 5.590176 4.912035 0.576738
C 5.558165 5.358632 0.106369
C 5.329274 5.226747 0.186497
C 5.245669 5.739606 0.907598
C 5.652270 5.304799 0.793560
C 5.631114 5.635851 0.236440
C 0.079312 0.169230 1.043582
C 0.044237 0.636011 1.325027
C 0.486526 0.072669 1.349037
C 0.593887 0.550230 0.976962
C 0.254797 0.224062 1.338664
C 0.213032 0.634691 1.744379
C 0.805443 0.357409 1.714576
C 0.804160 0.719405 1.071029
C 0.966556 0.043754 1.194112
C 1.057895 0.554072 1.509369
C 1.640239 0.098779 1.592337
C 1.582143 0.342597 0.964989
C 1.400578 0.299150 1.225527
C 1.232561 0.730192 1.689304
C 1.953291 0.261858 1.676869
C 1.697019 0.909216 1.293905
C 1.989318 0.084273 0.862938
C 2.119818 0.445145 1.350911
C 2.501279 0.105672 1.611840
C 2.536588 0.364082 0.895734
C 2.374013 0.311269 1.319363
C 2.300826 0.964504 1.722285
C 2.784798 0.111733 1.839223
C 2.605883 0.679157 1.173581
C 2.988225 0.001274 0.948073
C 3.118293 0.331210 1.497511
C 3.370515 0.080265 1.508380
C 3.577939 0.635255 0.929978
C 3.128259 0.122090 1.294767
C 3.272446 0.662881 1.626209
C 3.796713 0.255684 1.801397
C 3.676366 0.723631 1.330386
C 4.156350 0.088403 0.898118
C 3.915970 0.565295 1.479696
C 4.483677 0.161658 1.442679
C 4.524958 0.458793 0.893407
C 4.239543 0.196455 1.153769
C 4.372420 0.719071 1.710896
C 4.865598 0.323227 1.698013
C 4.728834 0.736228 1.243767
C 4.933617 0.074337 0.845401
C 4.906973 0.523850 1.314718
C 5.422495 0.108972 1.510773
C 5.433561 0.572280 0.900714
C 5.256883 0.295403 1.157882
C 5.342388 0.779771 1.639444
C 5.635830 0.188307 1.730179
C 5.635984 0.703527 1.259646
C 0.127038 0.834802 1.048683
C 0.015046 1.478032 1.415517
C 0.517381 0.955397 1.501116
C 0.580174 1.477498 0.857442
C 0.081238 1.241355 1.221936
C 0.360437 1.706889 1.671647
C 0.608115 1.246762 1.759578
C 0.794551 1.834071 1.232579
C 0.945412 0.981793 1.112815
C 0.919296 1.409360 1.618477
C 1.587616 1.143505 1.592826
C 1.419919 1.369116 0.872050
C 1.352448 1.282684 1.337610
C 1.307501 1.878555 1.786326
C 1.706650 1.278533 1.893512
C 1.685094 1.829969 1.103121
C 1.991489 1.121043 0.986325
C 2.085106 1.394126 1.407925
C 2.297296 1.006241 1.454936
C 2.420202 1.328170 0.952931
C 2.227851 1.350430 1.141722
C 2.427654 1.721791 1.690005
C 2.853931 1.244395 1.655546
C 2.608546 1.815868 1.160055
C 2.979970 0.919014 1.036750
C 2.939129 1.571470 1.549599
C 3.564889 0.978719 1.494045
C 3.480112 1.410301 1.114444
C 3.238851 1.224519 1.139474
C 3.373199 1.825597 1.708987
C 3.742293 1.328463 1.857297
C 3.718404 1.689128 1.198608
C 3.864565 0.960593 0.877258
C 4.000315 1.490863 1.567312
C 4.592235 1.108110 1.443905
C 4.420571 1.548353 1.056614
C 4.292257 1.270641 1.215836
C 4.093124 1.754999 1.679015
C 4.854643 1.165102 1.750261
C 4.730270 1.715056 1.114403
C 5.056159 1.054459 1.003088
C 4.916507 1.513687 1.388350
C 5.502669 0.981674 1.382624
C 5.532059 1.550850 1.101239
C 5.229786 1.205806 1.225351
C 5.112880 1.619116 1.678939
C 5.695363 1.327449 1.578064
C 5.666123 1.582305 1.379408
C 0.026063 2.068143 0.927430
C 0.022578 2.507812 1.574158
C 0.556280 2.059551 1.488061
C 0.683834 2.465660 1.061923
C 0.250747 2.166177 1.260105
C 0.203900 2.733558 1.864991
C 0.893599 2.317361 1.704096
C 0.901915 2.766695 1.270664
C 1.112931 2.009972 0.954221
C 0.936067 2.568731 1.482609
C 1.485474 2.091389 1.469667
C 1.595422 2.529541 1.035566
C 1.201103 2.428887 1.200657
C 1.248088 2.668634 1.701663
C 1.906221 2.257983 1.722233
C 1.644864 2.727691 1.377346
C 2.002927 1.978127 1.100899
C 2.050825 2.534153 1.403433
C 2.459412 1.875453 1.465784
C 2.312358 2.512177 1.055019
C 2.299663 2.219375 1.213828
C 2.222839 2.771409 1.634102
C 2.812894 2.352419 1.615992
C 2.694208 2.871315 1.280155
C 2.861677 1.972240 1.089741
C 3.147479 2.429827 1.590134
C 3.636516 1.873600 1.464010
C 3.421331 2.350583 0.939284
C 3.209899 2.097522 1.109304
C 3.119785 2.721316 1.843583
C 3.787405 2.418859 1.874437
C 3.820146 2.704181 1.354451
C 4.107423 2.011948 0.848431
C 3.958597 2.463520 1.402459
C 4.464990 1.882370 1.540830
C 4.535324 2.425511 0.834045
C 4.223365 2.355699 1.289869
C 4.397467 2.808575 1.861212
C 4.662033 2.181612 1.704389
C 4.663598 2.933523 1.288262
C 5.012933 1.961109 0.963608
C 4.889178 2.511399 1.422851
C 5.366447 1.968738 1.489082
C 5.630028 2.493196 1.021192
C 5.264314 2.156704 1.137488
C 5.231835 2.656386 1.852479
C 5.732309 2.162480 1.729395
C 5.722100 2.843461 1.172981
C 0.025114 2.939104 0.911644
C 0.083313 3.518310 1.491477
C 0.596765 3.045616 1.407564
C 0.599957 3.634011 1.113841
C 0.371695 3.236875 1.104524
C 0.266801 3.630550 1.733411
C 0.657742 3.368319 1.621039
C 0.830595 3.897805 1.274042
C 0.922220 3.111921 0.950860
C 1.076533 3.407159 1.435742
C 1.417881 2.910335 1.517347
C 1.589233 3.530041 1.116396
C 1.197113 3.205859 1.246378
C 1.180213 3.851631 1.655857
C 1.850535 3.086714 1.778384
C 1.803128 3.677213 1.220599
C 1.991203 3.154884 0.905138
C 2.044053 3.343524 1.611138
C 2.642714 2.959428 1.536587
C 2.540897 3.438973 1.089290
C 2.159982 3.372514 1.232228
C 2.145327 3.655939 1.671799
C 2.639712 3.236345 1.657311
C 2.772987 3.672974 1.268900
C 3.142077 2.872213 1.037599
C 2.994244 3.486977 1.600299
C 3.559610 3.079998 1.568528
C 3.469277 3.614432 0.938168
C 3.242776 3.236628 1.157676
C 3.241656 3.768441 1.814974
C 3.837595 3.366727 1.811940
C 3.760818 3.605613 1.189105
C 3.925547 3.076066 0.942101
C 3.918220 3.645976 1.404486
C 4.549901 3.127990 1.526515
C 4.623405 3.569175 0.978403
C 4.153276 3.139396 1.116824
C 4.195401 3.694727 1.578206
C 4.858503 3.211557 1.678295
C 4.742509 3.798974 1.235378
C 4.887018 3.022410 1.097016
C 4.926868 3.471228 1.640096
C 5.509388 3.157010 1.484114
C 5.378953 3.554278 1.068343
C 5.221408 3.313626 1.161229
C 5.321599 3.784622 1.864648
C 5.680566 3.205171 1.694614
C 5.615833 3.757708 1.243356
C 0.159449 3.938952 1.044913
C 0.006541 4.421293 1.705419
C 0.566853 3.874050 1.341205
C 0.552465 4.644380 0.996063
C 0.416172 4.195085 1.269642
C 0.170597 4.709596 1.811039
C 0.870383 4.171083 1.731581
C 0.795961 4.674033 1.125606
C 1.024198 4.022456 1.003532
C 1.112645 4.391704 1.532543
C 1.512518 3.943126 1.677938
C 1.460664 4.554579 1.078887
C 1.396760 4.246280 1.172542
C 1.316714 4.695958 1.741095
C 1.758217 4.186055 1.806036
C 1.902125 4.647582 1.307324
C 2.085379 4.106246 0.965432
C 2.131710 4.560713 1.438586
C 2.510728 4.106060 1.597202
C 2.602445 4.428961 1.005004
C 2.320192 4.192583 1.296584
C 2.250559 4.669227 1.716389
C 2.691151 4.243516 1.823288
C 2.803111 4.930967 1.297636
C 2.950804 4.095738 1.028694
C 2.909724 4.560719 1.626937
C 3.452232 4.084181 1.440402
C 3.485047 4.578004 0.893809
C 3.204543 4.254720 1.388246
C 3.152214 4.721915 1.607957
C 3.860239 4.276158 1.809247
C 3.673390 4.823212 1.200551
C 3.864229 3.842675 1.029271
C 3.965795 4.445837 1.417104
C 4.362607 4.072958 1.491000
C 4.477439 4.454291 1.084908
C 4.181265 4.250608 1.181645
C 4.350044 4.770441 1.807167
C 4.705951 4.106758 1.667302
C 4.661728 4.716457 1.292237
C 5.016135 4.132382 0.989650
C 5.150333 4.537165 1.502107
C 5.467647 3.933607 1.412245
C 5.564721 4.419202 1.014784
C 5.343297 4.377358 1.221627
C 5.265053 4.839107 1.861738
C 5.684313 4.308359 1.818579
C 5.713485 4.636139 1.327011
C 0.021267 4.897659 0.951492
C 0.165906 5.537287 1.645374
C 0.584888 4.844001 1.477756
C 0.458524 5.420553 1.015146
C 0.238081 5.135957 1.274297
C 0.379568 5.675863 1.778306
C 0.888533 5.316529 1.681989
C 0.809363 5.715500 1.268133
C 1.053609 5.105614 0.980084
C 0.887135 5.375951 1.348295
C 1.447233 4.926353 1.448672
C 1.503777 5.520967 0.884515
C 1.191238 5.330602 1.282351
C 1.129490 5.719258 1.569969
C 1.594106 5.213264 1.748402
C 1.660309 5.749210 1.063021
C 2.023669 4.880950 1.047602
C 1.923009 5.430020 1.462054
C 2.454126 4.963643 1.420016
C 2.527727 5.418072 0.995324
C 2.352395 5.243126 1.295987
C 2.226102 5.613473 1.765282
C 2.702533 5.277315 1.772163
C 2.689638 5.711733 1.320711
C 2.954661 4.916722 0.882015
C 3.136280 5.441207 1.554772
C 3.441326 4.981197 1.583948
C 3.640136 5.570604 1.032472
C 3.139662 5.302999 1.304742
C 3.331046 5.722891 1.915800
C 3.749822 5.238472 1.921521
C 3.746637 5.645742 1.333345
C 4.068118 4.958388 0.872867
C 4.154292 5.499202 1.524497
C 4.557933 5.168517 1.426727
C 4.664510 5.489630 0.979494
C 4.016250 5.192438 1.230539
C 4.288877 5.651941 1.752708
C 4.732191 5.256742 1.663470
C 4.726126 5.671439 1.316896
C 4.945665 4.895780 1.070185
C 4.986860 5.572738 1.383404
C 5.531375 4.897682 1.524047
C 5.492444 5.550326 0.786304
C 5.211657 5.202264 1.162638
C 5.128285 5.678841 1.772748
C 5.678009 5.179967 1.861732
C 5.622649 5.728241 1.053477
C 0.315348 0.004030 1.922062
C 0.014677 0.472854 2.474523
C 0.389770 0.124376 2.488694
C 0.416946 0.489013 1.891982
C 0.270689 0.122111 2.232402
C 0.234405 0.818667 2.813510
C 0.778375 0.340548 2.739657
C 0.701214 0.796238 2.364961
C 0.875713 0.159579 2.008207
C 1.136612 0.482722 2.457855
C 1.369468 0.000294 2.629788
C 1.571522 0.454720 1.880215
C 1.316974 0.166518 2.362218
C 1.230447 0.619880 2.767104
C 1.660331 0.244160 2.786539
C 1.755615 0.837251 2.113332
C 1.873129 0.018060 1.881252
C 1.937554 0.479487 2.451422
C 2.486181 0.065429 2.340067
C 2.396804 0.604635 2.030782
C 2.184462 0.316317 2.325609
C 2.346090 0.709233 2.859426
C 2.765107 0.221898 2.814366
C 2.793756 0.785649 2.251274
C 3.012697 0.006998 2.143460
C 2.847158 0.512144 2.409717
C 3.637089 0.003545 2.351105
C 3.530042 0.474837 2.001951
C 3.336454 0.300962 2.156301
C 3.358987 0.759207 2.723401
C 3.828906 0.249683 2.884728
C 3.762444 0.852084 2.141623
C 3.940430 0.096209 1.989542
C 3.906745 0.446961 2.563580
C 4.609523 0.030206 2.739550
C 4.588502 0.526160 2.138509
C 4.275132 0.245206 2.288904
C 4.286822 0.796675 2.644309
C 4.844530 0.252830 2.781494
C 4.942479 0.812260 2.240302
C 5.110216 0.025071 1.851715
C 4.848697 0.520154 2.554136
C 5.491342 0.035046 2.603902
C 5.553023 0.403150 1.916290
C 5.140948 0.210349 2.307105
C 5.187256 0.965549 2.676119
C 5.747228 0.220566 2.654813
C 5.700946 0.664952 2.178002
C 0.040101 1.056676 2.038544
C 0.009213 1.477110 2.520225
C 0.409164 0.967596 2.448480
C 0.641723 1.571390 1.977347
C 0.275763 1.206726 2.166878
C 0.140248 1.840937 2.767552
C 0.667037 1.253909 2.775403
C 0.701745 1.583344 2.235654
C 0.972612 0.922096 1.910525
C 0.847533 1.550390 2.586859
C 1.491187 1.162194 2.602755
C 1.471385 1.491050 2.044462
C 1.254549 1.266099 2.455347
C 1.164522 1.855206 2.824240
C 1.815236 1.243802 2.761152
C 1.728946 1.805772 2.327724
C 1.997533 0.967525 2.106310
C 1.914740 1.544467 2.568154
C 2.533814 1.081232 2.498032
C 2.445737 1.305415 1.992383
C 2.331192 1.326642 2.297010
C 2.310536 1.640570 2.614531
C 2.723537 1.402840 2.769986
C 2.802437 1.726081 2.359792
C 3.147688 0.923689 1.988558
C 2.997227 1.479307 2.465333
C 3.421509 0.982220 2.348663
C 3.542438 1.570120 2.003207
C 3.325441 1.288035 2.401117
C 3.208339 1.866753 2.593807
C 3.835899 1.221982 2.871609
C 3.684473 1.791837 2.183161
C 3.890124 0.916207 1.858329
C 4.013063 1.675340 2.539404
C 4.505137 1.142054 2.634290
C 4.626955 1.417175 2.001519
C 4.148566 1.321624 2.323618
C 4.214051 1.628093 2.770754
C 4.798887 1.252967 2.773176
C 4.749290 1.719783 2.155730
C 5.068288 1.018749 2.090513
C 4.980913 1.635638 2.494483
C 5.397166 1.005193 2.491131
C 5.451352 1.501896 2.042085
C 5.156610 1.295686 2.209394
C 5.406315 1.855457 2.773957
C 5.647575 1.128676 2.676959
C 5.593965 1.732156 2.322651
C 0.018930 2.027034 2.145533
C 0.022740 2.631152 2.384747
C 0.563074 1.874586 2.363428
C 0.456321 2.599740 1.958093
C 0.274158 2.346181 2.114967
C 0.249353 2.700228 2.587081
C 0.733753 2.347349 2.862186
C 0.638581 2.843620 2.168223
C 1.132593 2.138416 2.012148
C 1.010480 2.445592 2.339928
C 1.491886 1.962482 2.387173
C 1.529345 2.475212 1.974924
C 1.176966 2.066672 2.293815
C 1.173097 2.833714 2.932428
C 1.764274 2.220157 2.775283
C 1.732038 2.762285 2.331331
C 1.891951 1.893352 1.988160
C 2.080507 2.589798 2.507173
C 2.506959 1.831175 2.547077
C 2.496172 2.610937 1.894529
C 2.349647 2.292400 2.272571
C 2.329571 2.685308 2.715478
C 2.815735 2.350431 2.647304
C 2.743110 2.685462 2.132479
C 3.131293 2.116867 1.970556
C 2.968877 2.478591 2.318941
C 3.492262 2.047823 2.477891
C 3.523347 2.387923 1.894864
C 3.281971 2.299038 2.167843
C 3.342134 2.714696 2.814922
C 3.698736 2.388379 2.722771
C 3.697747 2.819828 2.349595
C 4.038955 2.026424 1.992323
C 4.091263 2.406706 2.337561
C 4.562045 2.070520 2.422349
C 4.579499 2.477165 2.070684
C 4.287348 2.087786 2.219910
C 4.282874 2.863581 2.792679
C 4.817993 2.159855 2.775272
C 4.642904 2.740013 2.293138
C 4.974655 1.950875 2.133597
C 4.946499 2.524270 2.369158
C 5.421781 1.963992 2.456642
C 5.538391 2.331565 1.913689
C 5.402617 2.284585 2.198294
C 5.125968 2.713681 2.750449
C 5.587486 2.243674 2.705823
C 5.657796 2.777101 2.312211
C 0.067365 2.946888 2.245906
C 0.111763 3.525248 2.351005
C 0.421552 2.953780 2.568550
C 0.455137 3.370901 2.114305
C 0.276950 3.183122 2.357520
C 0.267075 3.640183 2.888762
C 0.671117 3.409144 2.774010
C 0.704843 3.665871 2.246655
C 0.967910 2.975664 1.856360
C 1.130357 3.517154 2.358571
C 1.542840 3.062435 2.652218
C 1.531720 3.574436 2.104848
C 1.202359 3.127542 2.318410
C 1.166867 3.772778 2.875103
C 1.867871 3.300600 2.642500
C 1.598609 3.882298 2.277319
C 2.001538 2.851635 1.988185
C 1.922953 3.578984 2.573615
C 2.472437 3.057620 2.453268
C 2.457827 3.492843 1.844537
C 2.167238 3.270338 2.077239
C 2.379926 3.737404 2.742300
C 2.708241 3.164260 2.610151
C 2.792967 3.629615 2.140388
C 2.993792 3.036727 1.853640
C 2.985294 3.498097 2.605881
C 3.560881 2.932396 2.568463
C 3.361947 3.443491 2.003326
C 3.337241 3.322472 2.312650
C 3.181902 3.818416 2.550072
C 3.859626 3.339396 2.729071
C 3.777499 3.658373 2.131460
C 4.048848 3.077658 1.929772
C 4.015763 3.449390 2.395405
C 4.519173 2.876238 2.534152
C 4.392339 3.355803 2.004997
C 4.144703 3.209628 2.190995
C 4.216830 3.733634 2.718467
C 4.704634 3.342746 2.707999
C 4.766816 3.778382 2.147604
C 4.926349 3.046203 1.942535
C 4.902722 3.555118 2.616643
C 5.518188 3.137596 2.388688
C 5.458242 3.519389 2.070696
C 5.188603 3.129714 2.252193
C 5.397688 3.739333 2.703557
C 5.711467 3.115291 2.819802
C 5.665707 3.699565 2.143078
C 0.000931 4.083585 2.035191
C 0.028505 4.337328 2.438963
C 0.627275 3.938047 2.455499
C 0.610358 4.539008 1.910785
C 0.204812 4.106957 2.292019
C 0.202305 4.805431 2.659254
C 0.795498 4.266513 2.895690
C 0.809042 4.670135 2.322930
C 1.004117 3.912895 1.878135
C 1.050977 4.480675 2.357728
C 1.381463 4.133753 2.434043
C 1.470481 4.412907 2.095616
C 1.264981 4.204738 2.149368
C 1.269933 4.628888 2.725376
C 1.849746 4.182474 2.644306
C 1.751934 4.662941 2.296287
C 2.045948 3.947380 1.936549
C 2.014762 4.520019 2.473700
C 2.399701 3.920832 2.494114
C 2.410072 4.425582 2.116064
C 2.408981 4.274444 2.377589
C 2.249330 4.651741 2.808264
C 2.719069 4.150337 2.683462
C 2.777264 4.899996 2.392157
C 3.073282 3.972121 1.901871
C 2.941201 4.648411 2.571090
C 3.356845 4.031718 2.565999
C 3.576486 4.556602 2.166285
C 3.080652 4.318402 2.260804
C 3.400437 4.663708 2.710360
C 3.786340 4.215637 2.843895
C 3.651772 4.711205 2.394167
C 4.059455 3.924276 2.101299
C 3.959807 4.402319 2.529232
C 4.383336 3.938725 2.501332
C 4.620490 4.446582 1.984533
C 4.326769 4.308964 2.194256
C 4.221102 4.695150 2.789476
C 4.669776 4.339553 2.668374
C 4.609738 4.648430 2.216555
C 4.863876 4.064165 1.967818
C 4.959807 4.402717 2.612216
C 5.396255 3.990308 2.528446
C 5.426982 4.558571 1.912918
C 5.369787 4.300580 2.305905
C 5.337953 4.702694 2.820204
C 5.630227 4.315303 2.773307
C 5.725602 4.496566 2.156841
C 0.162898 4.925006 1.992284
C 0.010765 5.397745 2.405726
C 0.584227 4.862693 2.476986
C 0.519891 5.371129 2.021946
C 0.286070 5.243426 2.336503
C 0.336491 5.624942 2.826105
C 0.847322 5.252835 2.647634
C 0.632579 5.669993 2.302032
C 1.116303 5.017319 1.842213
C 1.037131 5.618987 2.572561
C 1.514646 4.901548 2.380804
C 1.581369 5.561817 2.108152
C 1.190730 5.165178 2.085108
C 1.369808 5.593208 2.779207
C 1.692730 5.361219 2.851950
C 1.862195 5.554416 2.200879
C 1.890850 5.034663 1.917266
C 1.974737 5.391235 2.424988
C 2.522259 5.095250 2.521855
C 2.421673 5.317732 1.931304
C 2.268703 5.295736 2.381554
C 2.053082 5.720760 2.738376
C 2.729934 5.408916 2.616439
C 2.758477 5.653931 2.390665
C 3.001182 5.091936 2.021710
C 3.172061 5.447297 2.455088
C 3.508535 4.946467 2.652407
C 3.492855 5.424601 1.887511
C 3.290940 5.160200 2.196030
C 3.162752 5.739612 2.881736
C 3.561851 5.254948 2.787859
C 3.885376 5.702134 2.172654
C 4.138883 4.991840 1.980423
C 3.925692 5.569203 2.425835
C 4.546023 4.948783 2.453451
C 4.460896 5.419817 2.114631
C 4.401895 5.185486 2.295874
C 4.257868 5.602052 2.864967
C 4.792976 5.137128 2.678731
C 4.557057 5.708808 2.226544
C 5.052428 4.971610 2.050882
C 5.126348 5.485407 2.503595
C 5.564202 4.953931 2.488815
C 5.397554 5.562890 2.044441
C 5.211920 5.290202 2.128409
C 5.254203 5.683839 2.684311
C 5.639975 5.099949 2.775786
C 5.608147 5.704271 2.202086
C 0.180538 0.039217 2.947334
C 0.003702 0.661728 3.536330
C 0.349328 0.189406 3.502977
C 0.553953 0.501873 2.986794
C 0.285731 0.399228 3.179860
C 0.368508 0.840677 3.819466
C 0.715802 0.102462 3.825834
C 0.701334 0.795646 3.277581
C 1.110780 0.055968 2.971385
C 0.881637 0.423660 3.531006
C 1.597519 0.055700 3.626092
C 1.543866 0.516242 2.903372
C 1.255815 0.256880 3.190803
C 1.219239 0.778339 3.769649
C 1.738905 0.296615 3.645147
C 1.755764 0.809542 3.215835
C 1.930535 0.038082 2.947029
C 2.013281 0.355049 3.498222
C 2.599188 0.075563 3.465684
C 2.463435 0.372378 2.874382
C 2.366303 0.240013 3.239908
C 2.343206 0.819686 3.741789
C 2.805868 0.171220 3.641221
C 2.724879 0.739427 3.362962
C 3.057456 0.022438 3.054117
C 2.929434 0.423504 3.483024
C 3.480727 0.086060 3.480938
C 3.466291 0.590072 3.160960
C 3.108220 0.221939 3.322270
C 3.229800 0.708190 3.666195
C 3.768749 0.147438 3.623528
C 3.736171 0.732547 3.420759
C 4.095227 0.006864 3.039503
C 4.161218 0.503760 3.453863
C 4.517604 0.003990 3.498299
C 4.473263 0.581367 3.053775
C 4.221844 0.256061 3.274946
C 4.146063 0.598871 3.798669
C 4.732695 0.236712 3.713748
C 4.580444 0.846031 3.177989
C 5.095811 0.145403 3.057364
C 5.053788 0.658779 3.530854
C 5.594695 0.110536 3.582799
C 5.395166 0.615790 3.002325
C 5.097127 0.176232 3.395261
C 5.259494 0.754609 3.767110
C 5.597484 0.390573 3.606531
C 5.594678 0.786932 3.236491
C 0.045097 1.157262 2.926562
C 0.083736 1.628021 3.445881
C 0.375755 0.988252 3.410240
C 0.488898 1.536003 2.978699
C 0.177043 1.259304 3.154878
C 0.154577 1.664190 3.759674
C 0.756908 1.171134 3.820618
C 0.795545 1.595846 3.277780
C 0.892743 1.039751 3.046964
C 0.889728 1.410505 3.538543
C 1.395903 1.107799 3.540076
C 1.547214 1.561297 2.924591
C 1.215697 1.383307 3.146296
C 1.144505 1.811025 3.683511
C 1.857939 1.371355 3.771312
C 1.682683 1.625102 3.351288
C 1.875033 1.002984 2.920738
C 1.975456 1.379360 3.448407
C 2.456947 0.872293 3.485779
C 2.645829 1.513715 3.070637
C 2.231317 1.364886 3.320308
C 2.312985 1.812911 3.758634
C 2.699313 1.091563 3.668308
C 2.748805 1.787517 3.150314
C 2.950199 0.869291 2.975476
C 2.831482 1.494122 3.492626
C 3.574336 0.997861 3.421994
C 3.434783 1.420430 3.058848
C 3.387004 1.204352 3.239741
C 3.231706 1.651570 3.807693
C 3.835310 1.341293 3.793029
C 3.674725 1.826281 3.133597
C 4.040683 0.882405 3.092567
C 4.042419 1.432619 3.474877
C 4.360477 1.003513 3.532687
C 4.489774 1.426237 3.106866
C 4.217905 1.065270 3.259978
C 4.400107 1.662230 3.718345
C 4.667206 1.198329 3.684277
C 4.831432 1.730767 3.143781
C 5.161128 0.961550 2.962762
C 5.074071 1.538070 3.565336
C 5.599424 1.054536 3.500338
C 5.588746 1.628895 2.927889
C 5.095270 1.275650 3.308128
C 5.144244 1.790017 3.669522
C 5.695985 1.337038 3.688461
C 5.713881 1.831961 3.084115
C 0.066511 2.092964 3.175039
C 0.097167 2.546029 3.436027
C 0.576502 2.031724 3.508716
C 0.433684 2.500217 2.885645
C 0.301071 2.181517 3.366989
C 0.276712 2.914199 3.732098
C 0.750937 2.207875 3.876075
C 0.713424 2.906769 3.347176
C 0.938507 1.859719 3.011905
C 0.991509 2.437101 3.451552
C 1.481990 1.850900 3.522713
C 1.332914 2.604363 2.931868
C 1.292646 2.264935 3.342519
C 1.337043 2.597523 3.721651
C 1.832777 2.231770 3.809245
C 1.873409 2.794669 3.250313
C 2.086895 2.059942 3.097817
C 2.101256 2.464763 3.593777
C 2.615606 1.907282 3.384926
C 2.580312 2.547649 3.152565
C 2.231040 2.291487 3.235919
C 2.155389 2.798797 3.847489
C 2.641185 2.243834 3.653157
C 2.878336 2.797298 3.198300
C 2.977092 1.935660 2.924678
C 3.085309 2.560521 3.541418
C 3.345388 2.005328 3.507255
C 3.507957 2.555352 3.000986
C 3.329476 2.215392 3.335237
C 3.167568 2.761565 3.782960
C 3.867688 2.257778 3.848422
C 3.661135 2.838012 3.240295
C 3.933236 1.874157 2.976783
C 4.026990 2.365564 3.616474
C 4.693844 1.920581 3.594150
C 4.587526 2.509898 3.154709
C 4.175697 2.153106 3.319150
C 4.246794 2.651437 3.861304
C 4.839266 2.375848 3.629717
C 4.846053 2.816274 3.357682
C 4.937623 1.969002 2.985088
C 5.011410 2.587593 3.344177
C 5.440301 2.112241 3.421243
C 5.506781 2.542247 2.949387
C 5.152476 2.216961 3.113256
C 5.321354 2.603593 3.669715
C 5.675794 2.277630 3.876110
C 5.549082 2.774154 3.305746
C 0.079445 2.943691 2.843372
C 0.037948 3.336867 3.442187
C 0.405243 3.000374 3.442943
C 0.447598 3.430507 3.014347
C 0.326020 3.214239 3.231428
C 0.120094 3.838501 3.807899
C 0.594444 3.244660 3.647848
C 0.774604 3.826996 3.360999
C 0.989850 3.068853 3.072674
C 1.038422 3.556056 3.418859
C 1.508975 2.924885 3.518922
C 1.654284 3.452395 2.942164
C 1.349873 3.266830 3.180832
C 1.189345 3.839489 3.594554
C 1.768764 3.159124 3.729716
C 1.712176 3.658658 3.297280
C 1.988370 2.983376 3.049976
C 2.087339 3.433426 3.415020
C 2.604990 3.056748 3.579919
C 2.386691 3.512856 2.935058
C 2.080557 3.288462 3.096154
C 2.385157 3.809369 3.764658
C 2.829846 3.344560 3.730901
C 2.762284 3.797456 3.227071
C 3.033474 2.970993 2.875994
C 2.892464 3.491384 3.505621
C 3.405551 3.030737 3.625733
C 3.647185 3.357892 3.032820
C 3.126657 3.262848 3.229335
C 3.325537 3.679361 3.787666
C 3.734810 3.161786 3.843499
C 3.647412 3.806080 3.209041
C 3.930355 3.024053 3.094321
C 4.123871 3.448220 3.499354
C 4.353153 2.891556 3.581232
C 4.457296 3.551166 3.090092
C 4.281612 3.176674 3.343313
C 4.376856 3.724078 3.686127
C 4.824585 3.365260 3.664824
C 4.811442 3.755534 3.285953
C 4.999343 3.144726 3.039023
C 4.942326 3.555899 3.456557
C 5.569988 3.046687 3.498825
C 5.499212 3.498897 2.929285
C 5.205249 3.328480 3.155059
C 5.197119 3.715623 3.814689
C 5.632321 3.360721 3.759366
C 5.630823 3.698348 3.230331
C 0.003184 4.055174 2.861986
C 0.004487 4.594750 3.577984
C 0.472322 3.957348 3.645420
C 0.408335 4.639339 3.082024
C 0.078004 4.110721 3.249806
C 0.107747 4.813912 3.766231
C 0.891201 4.270566 3.831736
C 0.886491 4.728286 3.232549
C 0.968619 3.986472 2.837569
C 0.956219 4.416714 3.600273
C 1.435751 3.981835 3.587485
C 1.460113 4.651711 2.955285
C 1.183013 4.158954 3.362129
C 1.215912 4.715439 3.871578
C 1.675538 4.096059 3.685745
C 1.630139 4.612152 3.327988
C 2.005712 4.061653 2.987178
C 1.899313 4.511810 3.395256
C 2.520132 3.995566 3.533292
C 2.417410 4.544421 3.121725
C 2.286924 4.274278 3.262353
C 2.380427 4.737230 3.732333
C 2.785628 4.243844 3.870564
C 2.740955 4.830755 3.237878
C 2.961497 4.062679 2.964732
C 3.082649 4.503540 3.467938
C 3.341222 3.974010 3.542164
C 3.575471 4.450807 2.883596
C 3.117693 4.268610 3.184553
C 3.267425 4.648978 3.665829
C 3.881488 4.275469 3.827604
C 3.696227 4.703111 3.295514
C 4.028760 3.909668 2.939761
C 3.901517 4.488641 3.481987
C 4.507788 3.997148 3.579695
C 4.426513 4.623914 2.974255
C 4.370809 4.265880 3.348585
C 4.263558 4.818856 3.784060
C 4.869650 4.167096 3.736582
C 4.776994 4.695367 3.138458
C 4.869817 3.948950 3.037044
C 5.128216 4.601866 3.415083
C 5.589631 3.910383 3.521538
C 5.469288 4.454609 2.965492
C 5.296527 4.287181 3.387191
C 5.260122 4.711070 3.781270
C 5.631141 4.102466 3.722153
C 5.660011 4.928700 3.240799
C 0.052040 4.905086 2.991431
C 0.043756 5.482283 3.461067
C 0.412782 4.842979 3.555467
C 0.574201 5.342170 3.019697
C 0.168579 5.293956 3.199328
C 0.269423 5.719815 3.815448
C 0.800219 5.362970 3.672721
C 0.685911 5.571921 3.253365
C 1.080777 5.025388 3.067297
C 1.104898 5.519483 3.449275
C 1.391349 5.078883 3.495890
C 1.656046 5.507653 3.151739
C 1.154222 5.360734 3.219689
C 1.254620 5.655014 3.645445
C 1.561429 5.337248 3.782199
C 1.916721 5.713579 3.126908
C 2.107045 5.080991 2.909436
C 1.919430 5.417209 3.508394
C 2.410160 4.978775 3.609355
C 2.385465 5.453225 2.866098
C 2.302140 5.326919 3.204946
C 2.262389 5.671783 3.831243
C 2.782562 5.377630 3.735107
C 2.578205 5.747593 3.189463
C 2.992111 4.975939 2.890769
C 2.963034 5.575755 3.400354
C 3.423182 4.957194 3.449742
C 3.415966 5.404934 2.984973
C 3.202326 5.343596 3.160769
C 3.153627 5.732731 3.916661
C 3.647545 5.349067 3.713750
C 3.891897 5.618510 3.322581
C 3.836821 5.063381 3.018028
C 3.990270 5.516029 3.593226
C 4.518173 5.042250 3.365045
C 4.592682 5.628975 2.949994
C 4.257831 5.312776 3.152249
C 4.236845 5.696318 3.725634
C 4.746771 5.199039 3.801758
C 4.753769 5.627169 3.273040
C 4.970338 5.125782 2.914502
C 5.025095 5.693487 3.441142
C 5.449981 4.985956 3.639646
C 5.631559 5.378790 2.925451
C 5.380874 5.407800 3.300570
C 5.296063 5.717140 3.791433
C 5.648078 5.372186 3.737693
C 5.671389 5.595582 3.256598
C 0.137659 0.030402 3.904365
C 0.059621 0.635473 4.566313
C 0.443839 0.104423 4.555450
C 0.514124 0.498725 4.076706
C 0.405692 0.168910 4.271998
C 0.227563 0.905592 4.784496
C 0.667345 0.213808 4.835188
C 0.635669 0.821317 4.185602
C 1.085913 0.065351 4.042643
C 1.003875 0.549232 4.606380
C 1.489958 0.097333 4.650004
C 1.477963 0.533178 3.950300
C 1.335175 0.215540 4.192644
C 1.241499 0.731519 4.691464
C 1.712135 0.338560 4.769091
C 1.875643 0.700699 4.241589
C 2.076676 0.024677 3.985966
C 2.024819 0.513987 4.638862
C 2.478819 0.045372 4.576611
C 2.513340 0.512428 4.152523
C 2.295556 0.192674 4.251390
C 2.099953 0.711196 4.835412
C 2.832368 0.368672 4.826235
C 2.654761 0.808666 4.253472
C 3.032728 0.100569 4.009407
C 3.016656 0.516541 4.477108
C 3.458021 0.071941 4.602353
C 3.422263 0.536211 4.049784
C 3.318091 0.162435 4.300602
C 3.232658 0.778177 4.595208
C 3.777974 0.187392 4.787956
C 3.718775 0.782852 4.343512
C 3.900135 0.182707 4.012597
C 3.881848 0.544170 4.571861
C 4.573095 0.016363 4.532112
C 4.479978 0.492379 3.890970
C 4.083926 0.209008 4.214086
C 4.332391 0.866193 4.708170
C 4.684514 0.429059 4.732326
C 4.750024 0.593701 4.238706
C 4.832655 0.135457 4.081264
C 5.085083 0.533237 4.491495
C 5.581817 0.021081 4.634446
C 5.514173 0.533586 3.901985
C 5.193305 0.279475 4.317303
C 5.218459 0.648292 4.722205
C 5.739971 0.194877 4.827723
C 5.693383 0.880112 4.287186
C 0.146636 0.985810 3.898588
C 0.171534 1.479586 4.459285
C 0.550635 1.095685 4.559642
C 0.559611 1.416298 3.951395
C 0.339779 1.268121 4.263788
C 0.241781 1.623696 4.748782
C 0.759028 1.182637 4.797818
C 0.764910 1.830214 4.336781
C 0.863530 0.958397 4.074102
C 0.936834 1.314914 4.609868
C 1.576295 1.054703 4.380622
C 1.480151 1.493450 3.915454
C 1.224905 1.352073 4.373741
C 1.128224 1.756356 4.867002
C 1.851407 1.183564 4.647535
C 1.708415 1.910179 4.229751
C 2.119445 1.023141 4.032565
C 2.069991 1.384997 4.580629
C 2.564053 0.846492 4.564452
C 2.581234 1.561058 3.994989
C 2.337631 1.232118 4.294288
C 2.348171 1.633848 4.792247
C 2.756754 1.404212 4.808449
C 2.724961 1.745585 4.164481
C 2.917023 1.142015 3.966082
C 3.058979 1.452410 4.354829
C 3.471714 0.911034 4.487782
C 3.575095 1.466318 3.885633
C 3.140129 1.175170 4.353177
C 3.312489 1.871261 4.753825
C 3.716686 1.100700 4.836747
C 3.724251 1.623812 4.185951
C 3.903070 1.016469 4.001344
C 3.977127 1.390548 4.680211
C 4.570678 0.969105 4.606944
C 4.564482 1.568156 4.085475
C 4.280430 1.209591 4.357374
C 4.206158 1.696633 4.746108
C 4.710981 1.388396 4.642495
C 4.752348 1.694851 4.288933
C 4.953707 1.097730 4.020054
C 4.979780 1.514279 4.476963
C 5.422848 1.006413 4.475426
C 5.633502 1.549365 3.939744
C 5.234907 1.285208 4.263993
C 5.254111 1.842734 4.633580
C 5.701230 1.068950 4.746846
C 5.667211 1.710977 4.233990
C 0.044871 1.909749 3.829582
C 0.020193 2.472376 4.636547
C 0.433224 2.128494 4.366583
C 0.416805 2.479139 3.876966
C 0.146045 2.294627 4.375419
C 0.119286 2.784002 4.700080
C 0.697924 2.208363 4.587582
C 0.802584 2.787394 4.303604
C 0.915491 1.935824 4.033712
C 0.893400 2.569714 4.485309
C 1.521717 2.111289 4.576468
C 1.429630 2.567655 4.030731
C 1.187901 2.278268 4.383883
C 1.340370 2.875270 4.733024
C 1.919737 2.355886 4.804661
C 1.759908 2.651246 4.097898
C 1.982526 2.055378 3.979323
C 1.839027 2.445617 4.462628
C 2.500828 1.947637 4.634511
C 2.386107 2.499904 3.920079
C 2.282178 2.254798 4.143768
C 2.253429 2.570018 4.681740
C 2.724802 2.197489 4.701356
C 2.773703 2.628210 4.207497
C 2.976793 1.928051 3.920029
C 3.000099 2.466211 4.652991
C 3.438558 2.100182 4.500347
C 3.552899 2.355511 3.985964
C 3.257508 2.367481 4.275492
C 3.184128 2.970525 4.739758
C 3.867306 2.215321 4.673889
C 3.803686 2.879518 4.156805
C 3.946236 1.825901 4.029603
C 4.102560 2.551307 4.390731
C 4.433050 2.096039 4.370510
C 4.661622 2.495588 3.910235
C 4.231817 2.313013 4.357328
C 4.300749 2.611218 4.703375
C 4.629250 2.197750 4.818126
C 4.713026 2.781818 4.344903
C 4.971476 2.009267 3.844288
C 5.064145 2.415696 4.550707
C 5.501376 2.081397 4.638545
C 5.460598 2.424413 3.996026
C 5.317460 2.232385 4.305202
C 5.285902 2.677752 4.803761
C 5.740843 2.377505 4.908902
C 5.626765 2.561826 4.276445
C 0.065319 2.934405 4.082907
C 0.066497 3.482540 4.518876
C 0.428407 2.894633 4.588637
C 0.377688 3.680737 4.073463
C 0.233996 3.261844 4.123895
C 0.221719 3.711173 4.762629
C 0.787441 3.379589 4.792021
C 0.859613 3.699586 4.097909
C 1.040686 2.938501 3.984495
C 1.020520 3.508364 4.609569
C 1.428303 3.041395 4.518762
C 1.608211 3.531177 3.910183
C 1.240906 3.063505 4.222527
C 1.243467 3.626396 4.735310
C 1.639099 3.329906 4.672714
C 1.727660 3.835902 4.312759
C 2.120158 2.927526 4.129945
C 2.084445 3.484108 4.587792
C 2.480583 3.108751 4.588691
C 2.574898 3.644865 3.963537
C 2.178972 3.280225 4.080847
C 2.322136 3.813166 4.830348
C 2.748256 3.380164 4.864343
C 2.603336 3.688779 4.300488
C 3.051474 2.907570 4.051619
C 2.996349 3.336029 4.462302
C 3.478591 2.956977 4.570397
C 3.536029 3.624710 4.079737
C 3.266202 3.203824 4.242450
C 3.307042 3.822407 4.649844
C 3.876768 3.353612 4.756957
C 3.725684 3.880915 4.174367
C 4.069869 3.044833 3.985126
C 3.992336 3.598075 4.538355
C 4.577471 3.146913 4.364996
C 4.401510 3.468064 4.053375
C 4.173182 3.102744 4.243787
C 4.097115 3.778844 4.769973
C 4.934954 3.249243 4.722471
C 4.879089 3.790546 4.359674
C 5.074990 3.041167 4.103176
C 4.825561 3.338792 4.445074
C 5.606417 2.988144 4.375849
C 5.543949 3.401627 4.069471
C 5.275009 3.140791 4.343051
C 5.294450 3.737744 4.637347
C 5.749671 3.325205 4.808913
C 5.665715 3.616642 4.233146
C 0.014121 3.925203 4.099625
C 0.013877 4.531336 4.542458
C 0.476425 4.087063 4.477916
C 0.562666 4.483610 3.905007
C 0.102162 4.299707 4.381416
C 0.120787 4.704593 4.743089
C 0.817244 4.187404 4.843698
C 0.587784 4.788814 4.273402
C 0.983408 3.963854 4.105351
C 0.984444 4.626448 4.426854
C 1.549810 4.031614 4.430966
C 1.362656 4.450687 3.950303
C 1.299940 4.165661 4.135202
C 1.188999 4.674517 4.631785
C 1.836080 4.192423 4.646913
C 1.742454 4.764530 4.122306
C 1.983929 4.007547 4.074342
C 1.981816 4.567652 4.469130
C 2.460961 4.040610 4.484107
C 2.413246 4.497587 4.126589
C 2.223979 4.271796 4.241612
C 2.325497 4.799124 4.574889
C 2.842731 4.213215 4.877461
C 2.643606 4.766524 4.195285
C 3.028633 3.861456 4.040895
C 2.827075 4.469211 4.611472
C 3.489600 4.027294 4.558228
C 3.526237 4.501880 3.869437
C 3.302992 4.419746 4.226855
C 3.309835 4.850524 4.797582
C 3.752500 4.119543 4.857681
C 3.782759 4.815671 4.226453
C 4.101740 3.979961 3.935444
C 3.949966 4.499391 4.503552
C 4.457316 3.884026 4.387410
C 4.390656 4.557979 4.086335
C 4.201652 4.410198 4.297121
C 4.326843 4.602149 4.807799
C 4.782565 4.074025 4.806955
C 4.838838 4.693057 4.297000
C 5.059681 3.961074 3.895954
C 4.993075 4.313956 4.392696
C 5.513446 4.040608 4.586150
C 5.528930 4.656740 4.015478
C 5.274549 4.361563 4.339825
C 5.059228 4.708959 4.726023
C 5.723233 4.246380 4.623550
C 5.721850 4.678234 4.324213
C 0.065142 4.894377 4.112964
C 0.075015 5.603896 4.561143
C 0.320442 4.916548 4.632865
C 0.464426 5.625931 4.002002
C 0.261119 5.387329 4.259867
C 0.255468 5.716041 4.761705
C 0.752483 5.173990 4.711120
C 0.837660 5.684342 4.283014
C 1.023221 4.889891 4.060078
C 1.050111 5.490251 4.422865
C 1.542709 5.102970 4.465605
C 1.405945 5.572220 3.892982
C 1.246737 5.256951 4.301394
C 1.401883 5.690160 4.731632
C 1.798913 5.125592 4.743397
C 1.833314 5.723457 4.162916
C 1.858961 4.899273 3.896819
C 2.085884 5.659036 4.513595
C 2.371489 5.018750 4.415753
C 2.512803 5.360501 4.073644
C 2.234102 5.401609 4.372855
C 2.302917 5.647490 4.720457
C 2.783567 5.445738 4.756220
C 2.751939 5.744922 4.136478
C 2.974351 4.970824 4.135143
C 2.920207 5.457523 4.399808
C 3.525920 5.070972 4.624186
C 3.557592 5.583087 3.993191
C 3.174963 5.259504 4.295770
C 3.053193 5.711607 4.646042
C 3.801059 5.193684 4.711753
C 3.773923 5.704378 4.328677
C 3.907088 4.946990 4.004386
C 3.844663 5.441241 4.544387
C 4.323363 4.977981 4.535576
C 4.536490 5.533860 4.096016
C 4.309322 5.311939 4.163301
C 4.259075 5.723146 4.861491
C 4.747766 5.351359 4.900106
C 4.834453 5.634784 4.180778
C 4.914897 5.022064 3.986024
C 5.047602 5.525654 4.495238
C 5.457792 4.852472 4.540142
C 5.430650 5.496613 3.921892
C 5.261256 5.152860 4.300511
C 5.146760 5.639389 4.791701
C 5.692773 5.351043 4.844990
C 5.616259 5.643739 4.212574
C 0.022023 0.005130 4.777121
C 0.154336 0.501628 5.556330
C 0.685420 0.019681 5.408412
C 0.642957 0.490838 5.011988
C 0.259272 0.140735 5.362215
C 0.398511 0.741345 5.727311
C 0.622448 0.115581 5.735804
C 0.665606 0.781202 5.151618
C 1.044127 0.021276 5.053098
C 1.016775 0.508694 5.376181
C 1.583821 0.098158 5.661012
C 1.547446 0.578217 4.981900
C 1.239044 0.338850 5.414478
C 1.358745 0.742557 5.735753
C 1.695142 0.392086 5.725047
C 1.738185 0.665813 5.344163
C 2.132247 0.037472 5.095062
C 1.943713 0.605166 5.535126
C 2.364837 0.111121 5.627409
C 2.615144 0.421702 5.058274
C 2.348774 0.233490 5.216290
C 2.311457 0.797682 5.610303
C 2.616737 0.339228 5.722038
C 2.612931 0.790540 5.203509
C 2.944015 0.162759 5.003578
C 2.980702 0.453112 5.609715
C 3.531605 0.016161 5.533769
C 3.624802 0.518970 4.980850
C 3.194650 0.184029 5.145649
C 3.187772 0.630508 5.625502
C 3.678297 0.218661 5.732685
C 3.611630 0.747035 5.298242
C 4.138861 0.079783 4.979324
C 4.166046 0.463922 5.413553
C 4.601599 0.070408 5.581132
C 4.357709 0.465707 4.947302
C 4.255138 0.172824 5.322933
C 4.240551 0.763521 5.549037
C 4.861165 0.130214 5.724648
C 4.853188 0.795190 5.232449
C 5.115834 0.034244 4.969080
C 5.063856 0.392801 5.517486
C 5.606745 0.037794 5.528796
C 5.430599 0.519395 5.124947
C 5.242146 0.323389 5.311232
C 5.276528 0.791091 5.708709
C 5.639092 0.259550 5.682288
C 5.659224 0.761201 5.307977
C 0.207127 0.930952 5.064131
C 0.012970 1.454990 5.379343
C 0.535446 1.037526 5.390032
C 0.369156 1.418318 4.887782
C 0.143795 1.176865 5.286831
C 0.321833 1.631122 5.617391
C 0.612515 1.343519 5.733848
C 0.797042 1.692071 5.154163
C 1.093859 1.169591 5.015521
C 0.916609 1.477291 5.603623
C 1.464806 1.054747 5.683123
C 1.636307 1.499500 4.983120
C 1.219321 1.447419 5.272833
C 1.305957 1.852842 5.706332
C 1.772070 1.146158 5.608656
C 1.641757 1.716115 5.297904
C 2.052583 1.072482 4.960265
C 1.989014 1.465612 5.655944
C 2.470643 1.056780 5.372655
C 2.364941 1.521700 5.127230
C 2.205629 1.244717 5.150460
C 2.337770 1.622878 5.705908
C 2.820339 1.176224 5.644062
C 2.784777 1.782159 5.265241
C 3.128173 0.998872 5.015172
C 3.020635 1.371533 5.439861
C 3.525412 1.115698 5.369647
C 3.384912 1.374808 5.074446
C 3.146883 1.213256 5.193984
C 3.200693 1.610738 5.666585
C 3.904312 1.190845 5.708402
C 3.685817 1.707030 5.201336
C 4.056522 1.042843 4.910634
C 3.988518 1.490187 5.432700
C 4.653844 0.930111 5.452420
C 4.582570 1.398424 4.960373
C 4.206837 1.117909 5.150181
C 4.125965 1.789412 5.678541
C 4.828335 1.256341 5.615980
C 4.813070 1.834582 5.307150
C 4.875935 0.962618 4.966030
C 4.976367 1.500553 5.566247
C 5.587887 0.997885 5.446986
C 5.427726 1.448054 4.847584
C 5.083534 1.269443 5.312155
C 5.218184 1.658629 5.595354
C 5.646546 0.975591 5.706247
C 5.615453 1.845186 5.414559
C 0.026794 1.875895 5.099826
C 0.085249 2.547419 5.314645
C 0.382080 2.071537 5.421094
C 0.422134 2.563449 5.199931
C 0.260770 2.309866 5.362251
C 0.250484 2.632229 5.670870
C 0.661481 2.461869 5.733625
C 0.676473 2.715985 5.075752
C 1.054057 2.003275 5.025294
C 0.973735 2.519260 5.594294
C 1.497958 2.085016 5.623663
C 1.612545 2.476531 5.010319
C 1.145543 2.260542 5.131120
C 1.258094 2.618886 5.712693
C 1.761868 2.269476 5.577030
C 1.709082 2.627549 5.222184
C 1.998336 2.173130 5.020748
C 2.009008 2.334073 5.620424
C 2.584221 2.012982 5.326438
C 2.612498 2.406801 4.862514
C 2.353998 2.333851 5.153944
C 2.303776 2.698397 5.657814
C 2.708690 2.383432 5.735632
C 2.876513 2.856287 5.270833
C 2.914619 2.095761 5.074763
C 3.064865 2.579374 5.589914
C 3.460212 1.911252 5.536448
C 3.452872 2.518369 5.032896
C 3.293592 2.155468 5.299573
C 3.116521 2.830410 5.725186
C 3.776062 2.370009 5.685816
C 3.789041 2.797563 5.432659
C 3.970781 1.919797 4.882026
C 3.972358 2.517495 5.519121
C 4.361965 1.893994 5.512616
C 4.588293 2.477026 4.917901
C 4.287081 2.233684 5.315448
C 4.219290 2.620564 5.614016
C 4.830450 2.197775 5.623203
C 4.647896 2.781175 5.215451
C 5.074395 1.971257 4.880500
C 4.838528 2.483200 5.550076
C 5.476755 2.117484 5.406976
C 5.549661 2.569488 5.015765
C 5.235623 2.388109 5.253830
C 5.217479 2.789599 5.651166
C 5.610887 2.120738 5.683093
C 5.626719 2.665761 5.352092
C 0.107285 3.066902 5.028261
C 0.127802 3.450790 5.507294
C 0.537506 2.892600 5.457641
C 0.347749 3.477580 4.985879
C 0.295456 3.256441 5.163139
C 0.150704 3.672073 5.728522
C 0.631416 3.207925 5.651912
C 0.712106 3.751863 5.429042
C 0.870112 2.885949 4.944951
C 1.065702 3.369681 5.474192
C 1.458986 2.971810 5.386637
C 1.503894 3.613638 4.940995
C 1.286364 3.340407 5.150758
C 1.349821 3.683381 5.634334
C 1.794351 3.131028 5.651524
C 1.716129 3.784304 5.186499
C 2.013808 2.869642 4.932502
C 2.123921 3.482943 5.588292
C 2.477676 2.937175 5.567115
C 2.518144 3.552845 4.878881
C 2.361791 3.214458 5.218709
C 2.363116 3.760479 5.686489
C 2.710219 3.263208 5.663580
C 2.619956 3.700869 5.331546
C 3.004070 2.906732 5.008020
C 3.023676 3.524336 5.357289
C 3.473576 3.031694 5.359048
C 3.594416 3.459333 5.060623
C 3.324965 3.293229 5.370620
C 3.343561 3.590209 5.660858
C 3.625800 3.268204 5.659974
C 3.799392 3.678363 5.072692
C 4.039855 2.931103 4.996110
C 3.889632 3.503956 5.375331
C 4.425698 2.907820 5.564211
C 4.382258 3.484050 4.893533
C 4.164422 3.223709 5.374631
C 4.253414 3.624682 5.732020
C 4.845427 3.125330 5.570813
C 4.870091 3.685207 5.162290
C 4.894321 2.993867 5.029424
C 4.932939 3.406193 5.453614
C 5.639077 2.921262 5.593923
C 5.421247 3.531784 5.088981
C 5.180849 3.217762 5.203746
C 5.145432 3.720301 5.723744
C 5.744890 3.184072 5.573966
C 5.693403 3.901452 5.229429
C 0.001649 3.912700 4.951214
C 0.006800 4.415641 5.488270
C 0.543802 4.135731 5.435294
C 0.334739 4.546479 5.027889
C 0.240588 4.139694 5.135900
C 0.294858 4.772359 5.664626
C 0.629985 4.255260 5.736948
C 0.797891 4.846579 5.167011
C 0.881434 3.953304 5.148649
C 0.977212 4.482052 5.663508
C 1.456389 3.970827 5.555684
C 1.562480 4.458929 5.068416
C 1.209518 4.339899 5.261201
C 1.307391 4.747765 5.720511
C 1.562443 4.233489 5.695758
C 1.737811 4.677529 5.155364
C 1.899477 3.907584 5.008209
C 2.011378 4.410704 5.440768
C 2.361571 3.941737 5.428869
C 2.482113 4.394177 4.896072
C 2.378415 4.177319 5.178285
C 2.171506 4.734889 5.609781
C 2.980598 4.271300 5.745752
C 2.730164 4.751554 5.230328
C 3.063961 3.914372 5.037942
C 2.960170 4.552560 5.675747
C 3.384036 4.028533 5.539915
C 3.640534 4.529372 4.849541
C 3.190636 4.228089 5.380566
C 3.414973 4.780137 5.733073
C 3.813039 4.371794 5.705232
C 3.728334 4.586359 5.285716
C 3.914499 3.953330 5.118399
C 4.003381 4.374694 5.405963
C 4.321479 3.885202 5.456075
C 4.530841 4.415301 4.811965
C 4.175180 4.317943 5.199319
C 4.331896 4.926024 5.735257
C 4.668475 4.173514 5.689818
C 4.605405 4.764889 5.313351
C 5.131771 4.041222 5.117188
C 4.903013 4.619000 5.506335
C 5.599839 4.107861 5.433374
C 5.556462 4.589751 4.926906
C 5.147323 4.257053 5.357722
C 5.282556 4.863203 5.669027
C 5.634510 4.294385 5.731209
C 5.664149 4.827294 5.179542
C 0.014976 5.056504 4.846207
C 0.003564 5.614943 5.599569
C 0.478553 5.040018 5.461138
C 0.415550 5.444652 5.099323
C 0.122803 5.185069 5.186807
C 0.242395 5.731846 5.533006
C 0.699230 5.321013 5.600278
C 0.715486 5.713898 5.234385
C 0.915097 5.095309 4.979351
C 1.082866 5.533161 5.683823
C 1.491556 5.015731 5.410823
C 1.625917 5.587225 4.866178
C 1.384664 5.252552 5.118625
C 1.162174 5.732457 5.523589
C 1.895834 5.352794 5.748645
C 1.628590 5.730263 5.273153
C 2.149192 4.968877 4.880407
C 1.887758 5.519163 5.491334
C 2.557138 4.973094 5.370522
C 2.358554 5.448100 4.909977
C 2.252935 5.361025 5.173592
C 2.185991 5.686937 5.680499
C 2.760472 5.095087 5.660013
C 2.580819 5.683842 5.172803
C 3.027680 5.051684 4.956743
C 3.025863 5.306375 5.506009
C 3.447150 4.975811 5.536766
C 3.406065 5.569170 4.955913
C 3.254854 5.376704 5.274665
C 3.403025 5.748185 5.713924
C 3.721819 5.080244 5.694399
C 3.753144 5.693966 5.224111
C 4.022410 5.014365 4.837221
C 4.112374 5.574781 5.508136
C 4.526666 4.904189 5.544017
C 4.625158 5.479285 5.130120
C 4.230968 5.270889 5.258442
C 4.347905 5.713592 5.687995
C 4.888582 5.215663 5.670852
C 4.610105 5.725679 5.300417
C 5.083171 5.024948 5.100763
C 5.086366 5.450863 5.620165
C 5.705555 4.990089 5.534555
C 5.511141 5.493991 5.164006
C 5.177937 5.396362 5.265471
C 5.474588 5.668482 5.670164
C 5.634915 5.252609 5.695899
C 5.725049 5.606565 5.303965
1728
Frame 10/10
C 0.045313 0.054036 0.143711
C 0.111406 0.373152 0.449936
C 0.398693 0.000655 0.522827
C 0.576486 0.488684 0.209114
C 0.378224 0.253079 0.326701
C 0.089743 0.673785 0.729510
C 0.605811 0.298071 0.821566
C 0.725041 0.704990 0.358689
C 1.124635 0.031748 0.095407
C 1.005552 0.535246 0.415142
C 1.577432 0.009082 0.288072
C 1.558607 0.380969 0.084875
C 1.310337 0.278093 0.198679
C 1.347931 0.577735 0.825399
C 1.658015 0.117058 0.656753
C 1.616465 0.687824 0.193385
C 1.815017 0.018271 0.066245
C 1.856191 0.435364 0.429945
C 2.395958 0.056470 0.526453
C 2.625000 0.443344 0.064375
C 2.294108 0.186644 0.168614
C 2.237232 0.870931 0.853133
C 2.690924 0.143462 0.953587
C 2.741664 0.827137 0.128841
C 3.085453 0.035689 0.111029
C 3.020549 0.408916 0.493360
C 3.440285 0.031718 0.498957
C 3.562163 0.572831 0.064342
C 3.429329 0.304599 0.254844
C 3.390199 0.855327 0.814063
C 3.828550 0.134028 0.790566
C 3.839808 0.790771 0.176950
C 4.166848 0.207920 0.037966
C 4.163141 0.513441 0.468080
C 4.403935 0.022663 0.645657
C 4.491679 0.467487 0.007834
C 4.323286 0.456180 0.231086
C 4.454204 0.714331 0.751245
C 4.774187 0.301810 0.881242
C 4.728055 0.891631 0.205051
C 4.976682 0.170585 0.067113
C 4.863562 0.508605 0.512195
C 5.506285 0.221187 0.453290
C 5.311450 0.478050 0.179758
C 5.215154 0.143476 0.234708
C 5.232609 0.777558 0.812964
C 5.619659 0.297901 0.921500
C 5.666202 0.649444 0.177519
C 0.071358 0.894077 0.058987
C 0.140936 1.615210 0.463002
C 0.453706 1.001837 0.588302
C 0.599724 1.462936 0.128097
C 0.180176 1.331982 0.371048
C 0.423392 1.786077 0.808477
C 0.594189 1.166791 0.748762
C 0.755239 1.695114 0.298098
C 1.188315 0.857144 0.033891
C 0.970036 1.473509 0.319818
C 1.499076 0.910372 0.544834
C 1.437804 1.529085 0.007591
C 1.272819 1.299494 0.169618
C 1.104351 1.789980 0.700010
C 1.809158 1.220538 0.675756
C 1.725746 1.931079 0.357799
C 2.035821 0.965915 0.142598
C 1.821662 1.590619 0.540100
C 2.523451 1.043164 0.460026
C 2.574662 1.623071 0.000818
C 2.308363 1.337649 0.111375
C 2.400887 1.800169 0.658698
C 2.716928 1.125208 0.700519
C 2.718072 1.735381 0.260224
C 3.116128 1.089132 0.103905
C 2.906202 1.402476 0.569091
C 3.539575 1.008191 0.520805
C 3.521514 1.486087 0.089522
C 3.384539 1.232971 0.164603
C 3.361378 1.784889 0.831193
C 3.611737 1.095380 0.758372
C 3.570087 1.712570 0.323017
C 4.136108 1.014222 0.009050
C 3.814545 1.622921 0.542241
C 4.448906 1.062472 0.466782
C 4.489693 1.422605 0.102677
C 4.364439 1.351428 0.376770
C 4.285648 1.637482 0.846812
C 4.784694 1.182523 0.771948
C 4.684446 1.727354 0.232227
C 5.125454 0.906189 0.109554
C 4.966765 1.329167 0.549555
C 5.359505 0.827605 0.549137
C 5.475521 1.440141 0.136692
C 5.258425 1.185052 0.225496
C 5.272975 1.751873 0.750045
C 5.558679 1.110044 0.732222
C 5.700244 1.679771 0.121252
C 0.025686 1.821310 0.090286
C 0.079458 2.583788 0.498055
C 0.374190 2.017031 0.419118
C 0.619536 2.574045 0.125238
C 0.354065 2.402590 0.226192
C 0.271626 2.571920 0.761461
C 0.645142 2.294534 0.671493
C 0.640096 2.708003 0.374739
C 1.100707 2.127914 0.150908
C 1.012283 2.506024 0.510646
C 1.450217 1.953878 0.377798
C 1.664503 2.407409 0.048516
C 1.312225 2.302141 0.303139
C 1.199664 2.843011 0.931841
C 1.754894 2.414694 0.688507
C 1.730968 2.610874 0.353599
C 2.088879 2.048604 0.021260
C 1.963856 2.346264 0.459501
C 2.543590 1.901788 0.452129
C 2.469582 2.742016 0.172147
C 2.282348 2.394075 0.149222
C 2.392669 2.702995 0.784793
C 2.672654 2.144860 0.622656
C 2.773492 2.676399 0.159143
C 2.821043 2.049191 0.059621
C 3.082060 2.595764 0.580714
C 3.417713 1.875532 0.506787
C 3.495512 2.297826 0.094782
C 3.181783 2.090827 0.346463
C 3.262515 2.599599 0.852871
C 3.608561 2.093181 0.832318
C 3.829156 2.739856 0.250726
C 3.857680 2.089345 0.186278
C 3.979162 2.542923 0.415326
C 4.535239 2.172941 0.382759
C 4.377865 2.622686 0.017120
C 4.146045 2.269761 0.302731
C 4.381028 2.760500 0.711047
C 4.779744 2.266999 0.765840
C 4.797333 2.910115 0.200105
C 5.135847 2.058263 0.013336
C 5.028843 2.447165 0.469277
C 5.657156 2.049467 0.639301
C 5.658289 2.545068 0.059161
C 5.256784 2.162658 0.397850
C 5.075229 2.710152 0.705960
C 5.529367 2.275792 0.765573
C 5.588181 2.868309 0.225787
C 0.051402 3.024186 0.073788
C 0.171423 3.525956 0.622257
C 0.357411 3.020417 0.461758
C 0.406920 3.505000 0.058442
C 0.270938 3.410509 0.375914
C 0.395106 3.822370 0.576700
C 0.869283 3.389670 0.778394
C 0.702203 3.860063 0.258296
C 0.964247 2.992597 0.159697
C 1.058564 3.570096 0.445754
C 1.552237 3.099449 0.426066
C 1.482139 3.515385 0.107567
C 1.281312 3.199935 0.238982
C 1.242457 3.920888 0.845151
C 1.808090 3.244123 0.714794
C 1.753050 3.619135 0.193274
C 1.849039 2.902549 0.127779
C 2.089318 3.440792 0.608950
C 2.649341 3.010747 0.452110
C 2.588891 3.641723 0.043887
C 2.250012 3.309175 0.184936
C 2.120541 3.719969 0.713102
C 2.565848 3.167595 0.795496
C 2.903388 3.741702 0.346812
C 3.037317 2.784202 0.160335
C 3.142672 3.562248 0.474620
C 3.370298 3.067302 0.437061
C 3.664948 3.512373 0.052242
C 3.303119 3.307786 0.051187
C 3.080170 3.730182 0.719615
C 3.619788 3.251331 0.714482
C 3.748885 3.595092 0.350604
C 3.942760 3.018238 0.119112
C 4.050434 3.497778 0.305836
C 4.538394 2.999550 0.678974
C 4.454437 3.577337 0.047242
C 4.137592 3.098800 0.298039
C 4.220465 3.780753 0.925540
C 4.757276 3.326397 0.727705
C 4.718284 3.658212 0.175625
C 4.915746 3.139752 0.041227
C 4.861539 3.378847 0.479400
C 5.537775 3.123434 0.487811
C 5.463195 3.418633 0.121373
C 5.127799 3.336906 0.278586
C 5.278008 3.764668 0.757716
C 5.747229 3.008033 0.836564
C 5.650111 3.901561 0.204262
C 0.144973 3.820213 0.091070
C 0.027070 4.471107 0.365877
C 0.625045 4.083798 0.609645
C 0.432596 4.646278 0.028530
C 0.273642 4.384727 0.276296
C 0.187245 4.666608 0.921870
C 0.744448 4.244427 0.855474
C 0.597085 4.865878 0.228424
C 1.065570 4.075151 0.022138
C 0.954111 4.453937 0.560252
C 1.483565 3.991733 0.668794
C 1.338210 4.404204 0.005585
C 1.391869 4.165556 0.256653
C 1.197109 4.751141 0.642080
C 1.672762 4.201988 0.623829
C 1.693535 4.826178 0.163556
C 2.134415 3.991239 0.014430
C 1.938364 4.583061 0.636245
C 2.425819 3.862961 0.538667
C 2.375441 4.507177 0.125416
C 2.351482 4.197120 0.140624
C 2.269585 4.722266 0.732390
C 2.770211 4.306973 0.783034
C 2.717695 4.935197 0.251394
C 2.991146 4.051632 0.231715
C 3.123777 4.446835 0.582221
C 3.481467 4.038078 0.511823
C 3.511473 4.657585 0.146068
C 3.187720 4.229660 0.335017
C 3.193285 4.708867 0.799299
C 3.679510 4.391096 0.827614
C 3.931596 4.688729 0.238936
C 4.053223 4.196939 0.054575
C 4.000170 4.409246 0.527658
C 4.504722 4.157322 0.409868
C 4.581613 4.418369 0.236347
C 4.191545 4.264442 0.361975
C 4.282171 4.792242 0.837437
C 4.717912 4.248111 0.553456
C 4.707290 4.695656 0.188402
C 4.951525 3.963567 0.007416
C 4.965457 4.484500 0.660869
C 5.639397 3.995158 0.590894
C 5.473835 4.389308 0.089012
C 5.087229 4.217906 0.327585
C 5.234209 4.845129 0.732781
C 5.743879 4.171615 0.775149
C 5.695600 4.735390 0.149893
C 0.007568 4.885676 0.032128
C 0.118239 5.583636 0.361921
C 0.571150 4.994215 0.687398
C 0.696187 5.630238 0.011652
C 0.303681 5.088914 0.126727
C 0.299705 5.723245 0.874953
C 0.836860 5.305433 0.695645
C 0.817026 5.676200 0.427046
C 0.842222 4.973086 0.039159
C 0.950431 5.463655 0.503127
C 1.507553 4.951499 0.579467
C 1.520117 5.531680 0.191962
C 1.253574 5.283603 0.053023
C 1.044884 5.704348 0.645349
C 1.759439 5.237289 0.906361
C 1.704160 5.690967 0.433309
C 2.026865 4.932865 0.023178
C 2.022456 5.654866 0.542871
C 2.434799 4.910060 0.450928
C 2.492129 5.272917 0.107375
C 2.264379 5.090074 0.214689
C 2.379198 5.715858 0.531123
C 2.770889 5.235521 0.661279
C 2.657432 5.686222 0.319203
C 3.072615 4.800547 0.039081
C 3.122252 5.427352 0.534455
C 3.663141 5.050778 0.377008
C 3.420372 5.321580 0.092321
C 3.175980 5.391384 0.211073
C 3.378297 5.579482 0.827694
C 3.834578 5.414525 0.788031
C 3.697730 5.608669 0.371809
C 3.874287 5.034180 0.210271
C 3.989713 5.540465 0.372196
C 4.475364 4.803353 0.596307
C 4.525575 5.288481 0.005075
C 4.306444 5.290407 0.252088
C 4.193150 5.717052 0.851988
C 4.771538 5.242836 0.880531
C 4.628960 5.638114 0.073445
C 5.254189 4.972207 0.095650
C 4.980813 5.668422 0.498108
C 5.601448 4.901039 0.586330
C 5.565436 5.340961 0.119665
C 5.339184 5.223841 0.178559
C 5.245128 5.738306 0.927298
C 5.640053 5.311649 0.799004
C 5.616254 5.621583 0.234745
C 0.089226 0.190384 1.049029
C 0.049767 0.653012 1.303156
C 0.484841 0.081753 1.330167
C 0.605623 0.556508 0.974082
C 0.255396 0.220820 1.349747
C 0.208411 0.620278 1.743677
C 0.812373 0.370836 1.710148
C 0.810931 0.715581 1.048657
C 0.962375 0.049223 1.218376
C 1.065132 0.560831 1.510540
C 1.657769 0.111127 1.603879
C 1.592411 0.322922 0.960613
C 1.419400 0.305294 1.222468
C 1.230381 0.727716 1.681717
C 1.978703 0.263340 1.667727
C 1.690396 0.929119 1.299393
C 1.987983 0.094808 0.845805
C 2.134795 0.438288 1.332275
C 2.501439 0.118881 1.625820
C 2.541161 0.347092 0.882701
C 2.389514 0.318928 1.328034
C 2.307179 0.991317 1.718821
C 2.789148 0.094450 1.850376
C 2.587869 0.670301 1.164029
C 2.986753 0.001433 0.941583
C 3.133079 0.310111 1.497200
C 3.354329 0.090298 1.509427
C 3.587682 0.652162 0.921225
C 3.113041 0.106101 1.300363
C 3.275252 0.651991 1.610735
C 3.802553 0.256395 1.807821
C 3.667161 0.720335 1.340434
C 4.175894 0.099453 0.885383
C 3.905466 0.573457 1.477158
C 4.481637 0.181866 1.435513
C 4.528077 0.453642 0.880083
C 4.238236 0.189762 1.141740
C 4.387722 0.715205 1.706008
C 4.880047 0.332381 1.691515
C 4.726188 0.734507 1.242988
C 4.925319 0.083629 0.826076
C 4.895345 0.526832 1.291557
C 5.412807 0.122593 1.512119
C 5.425256 0.581315 0.888303
C 5.257743 0.301079 1.146367
C 5.353937 0.783493 1.625625
C 5.621558 0.180596 1.727701
C 5.621732 0.697718 1.260851
C 0.142918 0.814152 1.054768
C 0.016927 1.475286 1.404956
C 0.519553 0.949821 1.501256
C 0.590196 1.474685 0.839622
C 0.060143 1.240274 1.218428
C 0.374241 1.701500 1.661853
C 0.590380 1.246357 1.760776
C 0.800120 1.844579 1.230402
C 0.938589 0.979517 1.126917
C 0.909208 1.398030 1.633287
C 1.598568 1.161443 1.604429
C 1.409909 1.352755 0.856056
C 1.365254 1.286769 1.348561
C 1.314689 1.894624 1.790866
C 1.701232 1.282100 1.911451
C 1.676981 1.839965 1.084761
C 1.990425 1.136173 0.984615
C 2.095744 1.380892 1.396415
C 2.271958 1.007021 1.449303
C 2.410227 1.306691 0.947048
C 2.225083 1.362984 1.128187
C 2.449861 1.718265 1.682505
C 2.866922 1.243694 1.643739
C 2.590864 1.824102 1.148812
C 2.977466 0.908891 1.041343
C 2.931520 1.580404 1.555799
C 3.573000 0.976059 1.493301
C 3.477626 1.399089 1.128749
C 3.237458 1.221334 1.125659
C 3.388599 1.835046 1.703860
C 3.741330 1.338271 1.870710
C 3.714455 1.681519 1.192183
C 3.847636 0.955667 0.861916
C 4.000354 1.489721 1.575725
C 4.603765 1.121623 1.436894
C 4.410642 1.554397 1.063690
C 4.297539 1.273221 1.211566
C 4.073514 1.755623 1.670142
C 4.867723 1.154489 1.750293
C 4.727803 1.710688 1.097453
C 5.063179 1.061266 1.003474
C 4.906071 1.515398 1.374394
C 5.503003 0.979384 1.367952
C 5.536067 1.557206 1.113894
C 5.227259 1.200282 1.222270
C 5.095740 1.602755 1.670057
C 5.688533 1.337130 1.556572
C 5.655638 1.561343 1.395584
C 0.029321 2.076661 0.918358
C 0.025400 2.508789 1.583427
C 0.563315 2.066994 1.486568
C 0.706813 2.461367 1.069664
C 0.250841 2.155700 1.261368
C 0.198138 2.731503 1.879365
C 0.911549 2.325781 1.698358
C 0.920905 2.768782 1.273247
C 1.127048 2.011219 0.948498
C 0.928075 2.577322 1.480435
C 1.483658 2.102813 1.465875
C 1.607350 2.533234 1.040012
C 1.194991 2.451248 1.194490
C 1.247849 2.658463 1.695620
C 1.925748 2.258981 1.718762
C 1.631722 2.724903 1.393264
C 2.003293 1.975392 1.113512
C 2.057178 2.538422 1.391362
C 2.454339 1.859885 1.461506
C 2.288903 2.513699 1.061897
C 2.305871 2.215547 1.209307
C 2.219444 2.774085 1.619614
C 2.820756 2.365221 1.599241
C 2.687234 2.886479 1.283924
C 2.844386 1.968770 1.100959
C 3.165914 2.421056 1.601400
C 3.653581 1.857800 1.459511
C 3.411497 2.331906 0.931694
C 3.204886 2.078462 1.091717
C 3.103508 2.717730 1.855280
C 3.792081 2.439967 1.889992
C 3.828914 2.698454 1.367507
C 4.120850 2.013442 0.829485
C 3.953421 2.458960 1.390266
C 4.460614 1.867666 1.545934
C 4.539739 2.416200 0.813300
C 4.220035 2.368911 1.294853
C 4.415901 2.815897 1.875113
C 4.651038 2.173064 1.698687
C 4.652797 2.956464 1.293045
C 5.014550 1.956247 0.959059
C 4.875325 2.512824 1.413207
C 5.349752 1.964831 1.487717
C 5.646281 2.492346 1.023841
C 5.266104 2.145042 1.123424
C 5.229565 2.644684 1.865289
C 5.730097 2.151540 1.726819
C 5.718612 2.855143 1.163353
C 0.028253 2.931492 0.900599
C 0.093727 3.520599 1.490412
C 0.608861 3.051318 1.396010
C 0.612451 3.650763 1.128072
C 0.386907 3.235234 1.086339
C 0.268901 3.615619 1.731337
C 0.646209 3.383109 1.604919
C 0.840669 3.916281 1.277048
C 0.912498 3.125911 0.944717
C 1.086099 3.395554 1.427710
C 1.407616 2.899126 1.519515
C 1.600388 3.533796 1.130945
C 1.190502 3.200342 1.245925
C 1.171489 3.864335 1.644090
C 1.863102 3.066303 1.781932
C 1.809769 3.668115 1.216923
C 1.990103 3.174244 0.893280
C 2.049560 3.323965 1.625030
C 2.660553 2.954356 1.541160
C 2.546009 3.431344 1.100451
C 2.148730 3.387829 1.230007
C 2.132243 3.644182 1.662023
C 2.625926 3.234638 1.645725
C 2.775860 3.663346 1.271262
C 3.159837 2.856239 1.042299
C 2.993524 3.485349 1.612837
C 3.567061 3.089998 1.577094
C 3.465437 3.628736 0.930439
C 3.241873 3.234957 1.146135
C 3.240613 3.770746 1.823096
C 3.848544 3.381318 1.819683
C 3.762170 3.587565 1.181493
C 3.916240 3.085574 0.934863
C 3.907997 3.664223 1.392546
C 4.556138 3.143988 1.529830
C 4.638831 3.577822 0.975703
C 4.141185 3.125571 1.100178
C 4.188576 3.687818 1.556731
C 4.872066 3.206752 1.669331
C 4.741573 3.805096 1.233551
C 4.872896 3.025211 1.109143
C 4.917726 3.467632 1.657608
C 5.510561 3.176636 1.482128
C 5.363822 3.561063 1.076886
C 5.217834 3.321579 1.150133
C 5.330549 3.788950 1.878979
C 5.671886 3.199567 1.687690
C 5.599062 3.758672 1.242525
C 0.179381 3.931321 1.050527
C 0.007359 4.411454 1.731096
C 0.575210 3.858306 1.321355
C 0.559023 4.662428 0.995571
C 0.436944 4.188220 1.272097
C 0.160672 4.704545 1.818669
C 0.885431 4.161218 1.729278
C 0.801706 4.664537 1.110057
C 1.027223 4.025263 1.003973
C 1.126726 4.378167 1.536611
C 1.514083 3.936017 1.700181
C 1.455747 4.561402 1.088748
C 1.415105 4.245815 1.162860
C 1.325053 4.689203 1.739982
C 1.759244 4.178062 1.813041
C 1.921141 4.634779 1.314490
C 2.096051 4.119527 0.961110
C 2.148174 4.568302 1.430910
C 2.512069 4.119317 1.609353
C 2.615251 4.420081 1.005629
C 2.328966 4.185406 1.302407
C 2.250629 4.659131 1.712188
C 2.683794 4.242706 1.832449
C 2.809750 4.953588 1.303590
C 2.944655 4.107706 1.032281
C 2.898439 4.568309 1.642804
C 3.446261 4.094704 1.432953
C 3.483178 4.587754 0.880536
C 3.198861 4.255310 1.405526
C 3.139991 4.718405 1.590202
C 3.874019 4.279428 1.816653
C 3.663814 4.832364 1.194370
C 3.847258 3.823010 1.032929
C 3.961520 4.439066 1.406742
C 4.345433 4.082078 1.489875
C 4.474619 4.448578 1.095521
C 4.172673 4.250684 1.173101
C 4.362550 4.772996 1.814313
C 4.700445 4.088853 1.656965
C 4.650694 4.712264 1.297517
C 5.018152 4.148929 0.988356
C 5.169125 4.541811 1.502371
C 5.463603 3.925307 1.401276
C 5.572811 4.409102 1.016633
C 5.354959 4.393278 1.218080
C 5.266935 4.850245 1.875706
C 5.676102 4.315654 1.827152
C 5.708920 4.621907 1.336637
C 0.023926 4.884867 0.945428
C 0.186644 5.541948 1.663546
C 0.595499 4.824501 1.474976
C 0.453339 5.410622 1.017039
C 0.236591 5.121702 1.277334
C 0.395764 5.666596 1.781845
C 0.905850 5.324846 1.673488
C 0.816783 5.711187 1.270399
C 1.060310 5.118815 0.977595
C 0.873027 5.360445 1.329332
C 1.440637 4.917147 1.442256
C 1.504249 5.523588 0.870080
C 1.183893 5.340677 1.286395
C 1.114426 5.715415 1.547466
C 1.574619 5.208672 1.748203
C 1.649098 5.749112 1.039649
C 2.026627 4.866069 1.053552
C 1.913385 5.421273 1.457311
C 2.448392 4.959098 1.410018
C 2.531193 5.407831 0.994740
C 2.365194 5.242267 1.301736
C 2.223114 5.596408 1.767192
C 2.696599 5.280729 1.774933
C 2.682092 5.706950 1.329550
C 2.948993 4.906313 0.867267
C 3.153315 5.433857 1.561618
C 3.433991 4.978847 1.594441
C 3.657653 5.579430 1.036530
C 3.125870 5.309624 1.311585
C 3.341177 5.719502 1.936525
C 3.749800 5.237031 1.942961
C 3.746217 5.632710 1.343763
C 4.076633 4.953186 0.856976
C 4.173578 5.499102 1.527559
C 4.565174 5.189582 1.417568
C 4.685074 5.488334 0.976931
C 3.987031 5.185243 1.228107
C 4.293737 5.639683 1.753046
C 4.729965 5.257585 1.652654
C 4.723141 5.661619 1.325258
C 4.938873 4.882752 1.078958
C 4.985217 5.581830 1.368830
C 5.535297 4.884892 1.527053
C 5.491500 5.556617 0.759592
C 5.206864 5.196297 1.151718
C 5.113070 5.669946 1.775592
C 5.669010 5.171213 1.875699
C 5.606730 5.725521 1.028911
C 0.354766 0.004533 1.912320
C 0.016512 0.469461 2.471339
C 0.375991 0.139923 2.487281
C 0.406564 0.487639 1.878480
C 0.273275 0.106125 2.230202
C 0.232456 0.827251 2.821449
C 0.781921 0.351867 2.738364
C 0.695116 0.802018 2.379331
C 0.860177 0.179526 2.009233
C 1.153689 0.480563 2.452587
C 1.353151 0.000330 2.646011
C 1.580462 0.449060 1.865241
C 1.325346 0.156082 2.376245
C 1.228003 0.603615 2.769242
C 1.649122 0.243430 2.791106
C 1.756317 0.848157 2.096249
C 1.857271 0.020317 1.866409
C 1.929748 0.476923 2.445350
C 2.484453 0.073607 2.320075
C 2.383904 0.617714 2.034629
C 2.176270 0.324607 2.335061
C 2.358101 0.704138 2.873105
C 2.766996 0.218385 2.822412
C 2.799226 0.790105 2.251433
C 3.014284 0.007872 2.161392
C 2.828053 0.513662 2.398432
C 3.654225 0.003989 2.332493
C 3.533797 0.471691 2.002195
C 3.347261 0.307332 2.144588
C 3.372611 0.760358 2.720076
C 3.838769 0.249644 2.901569
C 3.764000 0.864845 2.128076
C 3.932983 0.108235 1.988235
C 3.895088 0.440331 2.571528
C 4.623214 0.033982 2.769494
C 4.599565 0.529430 2.155823
C 4.278273 0.244607 2.293768
C 4.291425 0.802509 2.631098
C 4.856347 0.253183 2.785430
C 4.966539 0.820043 2.239089
C 5.123992 0.028205 1.833179
C 4.829784 0.522673 2.560903
C 5.490259 0.039427 2.616889
C 5.559651 0.391044 1.905827
C 5.127316 0.205392 2.314243
C 5.179413 0.992492 2.666884
C 5.746882 0.216887 2.642915
C 5.694814 0.654321 2.169002
C 0.045113 1.063761 2.043362
C 0.010365 1.474248 2.522753
C 0.397809 0.963546 2.442040
C 0.659438 1.580313 1.974515
C 0.278983 1.201317 2.156488
C 0.126529 1.852304 2.769745
C 0.656666 1.254398 2.778579
C 0.695713 1.562513 2.233861
C 0.969188 0.912358 1.899341
C 0.828474 1.556689 2.597717
C 1.490086 1.182469 2.615599
C 1.467808 1.489932 2.050019
C 1.255117 1.268112 2.481016
C 1.153837 1.868357 2.833520
C 1.823391 1.243027 2.762546
C 1.726314 1.812743 2.337439
C 1.997225 0.963466 2.119599
C 1.904083 1.550025 2.576673
C 2.538041 1.091386 2.497785
C 2.438954 1.281092 1.991431
C 2.341340 1.336222 2.302886
C 2.318103 1.626891 2.597597
C 2.720229 1.421945 2.772484
C 2.808992 1.723091 2.373516
C 3.166149 0.914150 1.987128
C 2.996880 1.476720 2.460999
C 3.411697 0.979998 2.329746
C 3.547742 1.578885 2.003607
C 3.334871 1.292790 2.420007
C 3.203131 1.881347 2.574283
C 3.846637 1.218480 2.886810
C 3.676283 1.797066 2.174807
C 3.876389 0.905732 1.840620
C 4.014695 1.697257 2.544330
C 4.505779 1.159811 2.651076
C 4.642824 1.406822 2.001709
C 4.135887 1.330577 2.332820
C 4.209557 1.612855 2.773348
C 4.804998 1.253338 2.776073
C 4.749201 1.716006 2.143946
C 5.076825 1.021093 2.101827
C 4.978527 1.652593 2.493793
C 5.384311 1.005843 2.490023
C 5.445272 1.502133 2.047346
C 5.144937 1.301397 2.204318
C 5.425854 1.868639 2.776952
C 5.634772 1.113510 2.667829
C 5.574461 1.729926 2.331732
C 0.021296 2.030414 2.163724
C 0.025582 2.647546 2.370340
C 0.570958 1.858910 2.346356
C 0.450861 2.612207 1.952855
C 0.277178 2.358204 2.098088
C 0.249273 2.694007 2.566716
C 0.731722 2.359518 2.876210
C 0.624654 2.855323 2.158001
C 1.149167 2.155718 2.013666
C 1.011790 2.438791 2.319919
C 1.490872 1.957792 2.373069
C 1.533013 2.472113 1.971789
C 1.167837 2.043756 2.299292
C 1.163484 2.844179 2.955231
C 1.766058 2.216427 2.778444
C 1.729793 2.763821 2.341497
C 1.878445 1.880021 1.986680
C 2.090571 2.601022 2.508070
C 2.507829 1.810072 2.552961
C 2.495693 2.624804 1.881346
C 2.362102 2.297700 2.275392
C 2.339517 2.677221 2.711163
C 2.823952 2.362985 2.634467
C 2.742249 2.677395 2.117789
C 3.147705 2.131476 1.966875
C 2.964987 2.475915 2.296309
C 3.491295 2.053801 2.475127
C 3.526265 2.373913 1.881722
C 3.285967 2.305168 2.157573
C 3.353651 2.710284 2.823037
C 3.692327 2.405676 2.719367
C 3.691215 2.828556 2.362044
C 4.043825 2.029727 1.991364
C 4.102670 2.395044 2.317257
C 4.569800 2.079334 2.412643
C 4.589437 2.474310 2.079519
C 4.292016 2.067509 2.216148
C 4.286983 2.877779 2.798014
C 4.826492 2.148587 2.778431
C 4.629517 2.738764 2.298530
C 4.971486 1.944734 2.150296
C 4.939812 2.527304 2.352802
C 5.412004 1.959491 2.451222
C 5.543190 2.310510 1.902900
C 5.421694 2.288908 2.191830
C 5.110464 2.709141 2.750505
C 5.567172 2.242883 2.700301
C 5.646271 2.780489 2.319988
C 0.075785 2.940249 2.276644
C 0.125734 3.528404 2.332380
C 0.411746 2.948003 2.577119
C 0.449529 3.354763 2.128593
C 0.280319 3.174762 2.370960
C 0.269210 3.626455 2.906108
C 0.661257 3.429037 2.777011
C 0.699199 3.655355 2.246237
C 0.963898 2.972622 1.838405
C 1.146651 3.519299 2.340893
C 1.548195 3.070240 2.671245
C 1.535685 3.583741 2.117954
C 1.196404 3.112234 2.326962
C 1.156475 3.775626 2.890740
C 1.882605 3.306925 2.629062
C 1.579686 3.898835 2.280734
C 2.001730 2.833089 1.986708
C 1.913322 3.588857 2.582816
C 2.468992 3.064823 2.447426
C 2.452555 3.491948 1.825104
C 2.156893 3.272880 2.055644
C 2.396167 3.735830 2.741338
C 2.703021 3.153543 2.592670
C 2.798338 3.614567 2.126686
C 2.993016 3.041318 1.835345
C 2.983456 3.497860 2.619117
C 3.568491 2.923945 2.577021
C 3.344691 3.436427 2.003742
C 3.348146 3.331531 2.320481
C 3.173390 3.826969 2.525081
C 3.873330 3.350571 2.726455
C 3.780937 3.646920 2.116643
C 4.054954 3.087365 1.920993
C 4.017733 3.443064 2.382331
C 4.521570 2.860768 2.538420
C 4.378881 3.337778 2.005621
C 4.131541 3.204581 2.183619
C 4.212684 3.731588 2.714525
C 4.698964 3.354339 2.702749
C 4.768918 3.781930 2.134804
C 4.917142 3.051979 1.935352
C 4.890562 3.562008 2.631223
C 5.520462 3.154795 2.374774
C 5.453022 3.521813 2.079533
C 5.180928 3.114678 2.252467
C 5.416150 3.738000 2.697751
C 5.706650 3.098453 2.828528
C 5.655170 3.693261 2.129713
C 0.001047 4.094033 2.039590
C 0.032068 4.316994 2.431333
C 0.643184 3.930303 2.449936
C 0.624153 4.543884 1.899633
C 0.199164 4.089077 2.297271
C 0.196343 4.812360 2.647911
C 0.801186 4.268577 2.913901
C 0.816423 4.660151 2.332047
C 1.004632 3.902007 1.862902
C 1.057349 4.478259 2.339944
C 1.366645 4.150472 2.425799
C 1.466791 4.402021 2.107568
C 1.266853 4.199080 2.136790
C 1.272425 4.613749 2.722298
C 1.862214 4.174033 2.631095
C 1.752176 4.652059 2.302072
C 2.051692 3.940802 1.928617
C 2.016607 4.522521 2.470413
C 2.387164 3.910936 2.493378
C 2.398831 4.416280 2.130572
C 2.428853 4.277499 2.393537
C 2.249246 4.639458 2.815547
C 2.715203 4.137879 2.675145
C 2.780672 4.918746 2.409927
C 3.082443 3.968636 1.889605
C 2.933851 4.666962 2.579977
C 3.338951 4.035683 2.574248
C 3.586047 4.563677 2.187070
C 3.059483 4.326953 2.262154
C 3.419242 4.652921 2.705405
C 3.790882 4.211342 2.855632
C 3.639494 4.706355 2.412187
C 4.066886 3.914810 2.113961
C 3.954783 4.390108 2.532886
C 4.368753 3.931065 2.501499
C 4.635552 4.439905 1.982599
C 4.336365 4.316334 2.187288
C 4.217490 4.688294 2.794410
C 4.659748 4.350747 2.658171
C 4.592205 4.635734 2.212375
C 4.846860 4.072185 1.963796
C 4.954783 4.390557 2.626243
C 5.383286 3.989097 2.532002
C 5.417855 4.565892 1.902033
C 5.384760 4.306903 2.312894
C 5.348947 4.696780 2.828979
C 5.615256 4.323465 2.776220
C 5.722552 4.464887 2.145197
C 0.183261 4.915631 1.991319
C 0.012111 5.384963 2.393941
C 0.594755 4.845530 2.474109
C 0.522378 5.355020 2.024689
C 0.290579 5.242604 2.347316
C 0.347303 5.609310 2.835618
C 0.859487 5.253189 2.634838
C 0.617901 5.659992 2.308536
C 1.130841 5.019484 1.822489
C 1.041772 5.633860 2.581631
C 1.516477 4.889242 2.365904
C 1.591540 5.569544 2.121671
C 1.183322 5.154576 2.064496
C 1.384784 5.573609 2.782858
C 1.685572 5.375121 2.864694
C 1.876219 5.529968 2.194739
C 1.877207 5.038996 1.906924
C 1.971579 5.377640 2.415612
C 2.525041 5.107156 2.524587
C 2.411882 5.294949 1.922717
C 2.271040 5.301453 2.397999
C 2.028467 5.717105 2.736923
C 2.727426 5.428780 2.599743
C 2.759537 5.641922 2.408248
C 3.001329 5.103428 2.024424
C 3.193568 5.440709 2.449474
C 3.509602 4.939775 2.671458
C 3.491962 5.415176 1.873450
C 3.296057 5.148975 2.189284
C 3.151847 5.738313 2.898203
C 3.538332 5.255567 2.792591
C 3.902298 5.696150 2.162986
C 4.156244 4.990820 1.977976
C 3.916404 5.577854 2.416564
C 4.551776 4.942381 2.447632
C 4.456008 5.409794 2.128960
C 4.420882 5.177422 2.301609
C 4.258852 5.583558 2.879338
C 4.798348 5.123019 2.669822
C 4.532939 5.703659 2.223612
C 5.058981 4.968061 2.057242
C 5.142142 5.483583 2.504044
C 5.572227 4.948173 2.487417
C 5.384749 5.570752 2.049996
C 5.207160 5.295228 2.113210
C 5.254729 5.675568 2.676100
C 5.626222 5.081193 2.779010
C 5.590415 5.698555 2.196097
C 0.203106 0.044119 2.940750
C 0.004165 0.681944 3.540872
C 0.330494 0.213082 3.503349
C 0.560697 0.502107 2.985144
C 0.290197 0.417882 3.171092
C 0.383321 0.852012 3.828149
C 0.711527 0.084020 3.835314
C 0.695251 0.801352 3.281028
C 1.124627 0.062964 2.967809
C 0.866842 0.414117 3.534882
C 1.609709 0.062662 3.641853
C 1.549350 0.518272 2.891293
C 1.256541 0.257740 3.183403
C 1.215394 0.781882 3.772105
C 1.737518 0.302441 3.632040
C 1.756485 0.816985 3.211564
C 1.921852 0.042842 2.940408
C 2.014941 0.336931 3.498000
C 2.611586 0.085008 3.461395
C 2.458865 0.356425 2.858679
C 2.380841 0.238764 3.238647
C 2.354857 0.828397 3.740763
C 2.812851 0.161372 3.627623
C 2.721739 0.738106 3.377083
C 3.064638 0.025242 3.060882
C 2.920613 0.413942 3.480902
C 3.478318 0.096818 3.478555
C 3.462078 0.601331 3.181079
C 3.090497 0.218431 3.331304
C 3.227275 0.702964 3.655719
C 3.771093 0.134618 3.607719
C 3.734442 0.730366 3.442103
C 4.107131 0.007723 3.044441
C 4.181370 0.504230 3.448096
C 4.519805 0.004489 3.498086
C 4.469921 0.591538 3.060497
C 4.218325 0.256819 3.278065
C 4.133070 0.579980 3.804753
C 4.730532 0.235051 3.709217
C 4.559249 0.858035 3.168988
C 5.107788 0.163578 3.064534
C 5.060511 0.678627 3.534711
C 5.606531 0.124353 3.593149
C 5.382061 0.630264 3.002616
C 5.078018 0.167011 3.413419
C 5.260680 0.755185 3.769249
C 5.578420 0.408145 3.588597
C 5.575263 0.791549 3.234802
C 0.050735 1.176920 2.917383
C 0.094203 1.644023 3.439116
C 0.360225 0.986783 3.399020
C 0.487511 1.540504 2.976036
C 0.167923 1.260467 3.142988
C 0.142649 1.653464 3.760883
C 0.757772 1.161276 3.829445
C 0.801238 1.576577 3.281253
C 0.879336 1.044720 3.052834
C 0.875944 1.399318 3.543360
C 1.382891 1.121274 3.545085
C 1.553116 1.568960 2.915164
C 1.211410 1.399971 3.133333
C 1.131318 1.818653 3.675200
C 1.871431 1.386524 3.773976
C 1.674268 1.609490 3.363949
C 1.859412 1.003356 2.910830
C 1.972388 1.364280 3.441958
C 2.451566 0.856329 3.484002
C 2.664057 1.515429 3.079466
C 2.228981 1.379246 3.329097
C 2.320858 1.820775 3.759714
C 2.692978 1.071758 3.658096
C 2.748656 1.792207 3.137853
C 2.943974 0.852953 2.972410
C 2.810417 1.493388 3.491704
C 3.583628 0.997594 3.412244
C 3.426631 1.410484 3.066204
C 3.404129 1.198646 3.238459
C 3.229419 1.639266 3.814905
C 3.845974 1.352704 3.798408
C 3.665316 1.835816 3.119046
C 4.045768 0.867706 3.104138
C 4.047721 1.424197 3.471736
C 4.343036 1.003952 3.536772
C 4.488496 1.417017 3.120224
C 4.213893 1.042179 3.261226
C 4.418870 1.651259 3.714388
C 4.656856 1.191871 3.676062
C 4.841611 1.728363 3.130504
C 5.181269 0.956744 2.958108
C 5.083330 1.542829 3.573503
C 5.611852 1.061354 3.500380
C 5.599840 1.645007 2.918875
C 5.075929 1.278857 3.315394
C 5.131024 1.795020 3.659462
C 5.689233 1.347918 3.680768
C 5.709366 1.842206 3.063380
C 0.074825 2.104585 3.196919
C 0.109312 2.551783 3.428031
C 0.586065 2.035689 3.509806
C 0.425394 2.500244 2.871350
C 0.307455 2.172957 3.381613
C 0.280051 2.934724 3.729860
C 0.751054 2.202609 3.891835
C 0.708852 2.926366 3.359323
C 0.930820 1.842184 3.013393
C 0.990447 2.429238 3.445496
C 1.479738 1.832262 3.525552
C 1.312028 2.617408 2.923351
C 1.297976 2.266802 3.354084
C 1.347923 2.578463 3.718108
C 1.843124 2.229491 3.816650
C 1.888835 2.800253 3.250353
C 2.097757 2.067435 3.110044
C 2.113913 2.460358 3.605500
C 2.630057 1.895692 3.370542
C 2.590351 2.553605 3.171635
C 2.228670 2.296673 3.234159
C 2.143563 2.804897 3.859675
C 2.627584 2.243063 3.641052
C 2.894378 2.803210 3.191838
C 2.974229 1.927618 2.915263
C 3.095972 2.568086 3.546595
C 3.326061 2.005994 3.508162
C 3.508951 2.562271 3.001110
C 3.339411 2.211066 3.345892
C 3.157264 2.763011 3.787080
C 3.882399 2.258750 3.860725
C 3.650027 2.849014 3.239082
C 3.924890 1.858426 2.973881
C 4.030364 2.348759 3.631033
C 4.718075 1.910653 3.605919
C 4.598466 2.511135 3.174047
C 4.166409 2.140994 3.327794
C 4.246393 2.639116 3.875217
C 4.850424 2.391579 3.614682
C 4.858060 2.824559 3.371143
C 4.929826 1.965127 2.983224
C 5.012837 2.598542 3.324699
C 5.432839 2.126271 3.411398
C 5.507628 2.547528 2.943060
C 5.140286 2.212832 3.096163
C 5.330273 2.585292 3.659679
C 5.666518 2.281084 3.891873
C 5.523967 2.777173 3.312714
C 0.089375 2.936653 2.823793
C 0.042692 3.316476 3.434960
C 0.393398 3.000421 3.435811
C 0.441047 3.421820 3.016141
C 0.335522 3.209768 3.229106
C 0.103855 3.849563 3.815136
C 0.575000 3.243992 3.635079
C 0.777679 3.836620 3.374874
C 0.988581 3.077460 3.081758
C 1.043225 3.563064 3.408717
C 1.510097 2.915496 3.521288
C 1.673569 3.446445 2.934935
C 1.362357 3.268934 3.172186
C 1.181764 3.850675 3.575123
C 1.771109 3.147764 3.727181
C 1.707448 3.647240 3.303190
C 1.986916 2.981298 3.056223
C 2.098256 3.425105 3.404398
C 2.618113 3.063842 3.589909
C 2.372528 3.514463 2.926940
C 2.059376 3.293270 3.076923
C 2.402052 3.816790 3.766491
C 2.839827 3.356380 3.728514
C 2.763819 3.803388 3.224205
C 3.037658 2.967367 2.860493
C 2.879022 3.490307 3.506324
C 3.393744 3.034579 3.641450
C 3.665584 3.340129 3.036923
C 3.111240 3.264454 3.226751
C 3.334979 3.670531 3.792375
C 3.732911 3.150760 3.855186
C 3.634589 3.813090 3.203922
C 3.921649 3.027060 3.106111
C 4.139354 3.441747 3.499273
C 4.334797 2.878000 3.591386
C 4.451958 3.557562 3.101353
C 4.285563 3.167509 3.354977
C 4.392713 3.720838 3.678142
C 4.833908 3.379668 3.654177
C 4.819122 3.756226 3.290447
C 4.999261 3.162816 3.043901
C 4.935116 3.562886 3.451127
C 5.578737 3.052523 3.498678
C 5.499113 3.498759 2.920446
C 5.199655 3.338290 3.143192
C 5.190509 3.711326 3.822775
C 5.617611 3.374561 3.760537
C 5.615926 3.691892 3.227873
C 0.003582 4.062071 2.844734
C 0.005048 4.606593 3.587732
C 0.468863 3.952016 3.663598
C 0.396877 4.656756 3.092277
C 0.056504 4.093311 3.249782
C 0.089965 4.821901 3.768259
C 0.908851 4.273137 3.841953
C 0.903552 4.725572 3.230368
C 0.964697 3.984781 2.817265
C 0.950747 4.406304 3.612807
C 1.427720 3.979565 3.598420
C 1.455127 4.670675 2.949695
C 1.174640 4.147574 3.376145
C 1.211651 4.711119 3.886775
C 1.666230 4.076816 3.677713
C 1.615156 4.594921 3.337737
C 2.006425 4.069359 2.985575
C 1.886727 4.513286 3.382163
C 2.522648 3.995011 3.537453
C 2.407086 4.549974 3.136940
C 2.291539 4.277312 3.263897
C 2.396730 4.735634 3.730124
C 2.790081 4.243075 3.885634
C 2.739824 4.840850 3.236362
C 2.956684 4.070514 2.960324
C 3.092981 4.503982 3.463930
C 3.321375 3.970761 3.547434
C 3.584905 4.444658 2.869045
C 3.101154 4.270936 3.176372
C 3.269603 4.636350 3.655308
C 3.897924 4.278653 3.837305
C 3.689505 4.697250 3.301203
C 4.032355 3.898376 2.932231
C 3.889207 4.487221 3.479736
C 4.508762 3.996792 3.589657
C 4.417328 4.639404 2.971036
C 4.385910 4.267865 3.360908
C 4.265252 4.827463 3.788318
C 4.884606 4.156733 3.734905
C 4.780368 4.688538 3.124515
C 4.853545 3.942568 3.041675
C 5.144243 4.614600 3.404469
C 5.600835 3.899181 3.524230
C 5.465449 4.448935 2.961178
C 5.302343 4.291829 3.404340
C 5.261388 4.706204 3.785178
C 5.616284 4.084024 3.718672
C 5.648762 4.951037 3.239648
C 0.058545 4.893222 2.990360
C 0.049225 5.480068 3.456201
C 0.401880 4.823351 3.562400
C 0.583476 5.322441 3.022159
C 0.158401 5.299451 3.192994
C 0.271851 5.716042 3.823629
C 0.806496 5.377091 3.663061
C 0.677900 5.549661 3.253785
C 1.090874 5.028561 3.075709
C 1.118011 5.521918 3.442934
C 1.377767 5.088743 3.495376
C 1.675551 5.508609 3.170707
C 1.142250 5.374576 3.215900
C 1.255197 5.643141 3.632376
C 1.537858 5.348154 3.786224
C 1.937561 5.709026 3.111522
C 2.120426 5.091115 2.898116
C 1.909359 5.406860 3.509443
C 2.398930 4.976122 3.623025
C 2.371148 5.447378 2.849360
C 2.308657 5.336533 3.199315
C 2.263938 5.662006 3.841398
C 2.786632 5.393583 3.733245
C 2.556730 5.747293 3.181896
C 2.991125 4.972931 2.877115
C 2.958413 5.585224 3.387898
C 3.413580 4.951843 3.443460
C 3.405462 5.393051 2.983095
C 3.196367 5.355296 3.149615
C 3.141580 5.730572 3.937493
C 3.634739 5.361451 3.709218
C 3.909634 5.602073 3.331654
C 3.816424 5.071304 3.020281
C 3.989053 5.518033 3.604879
C 4.520445 5.047531 3.348176
C 4.604268 5.645097 2.943744
C 4.258810 5.320624 3.140030
C 4.235200 5.689607 3.722588
C 4.746367 5.192669 3.808227
C 4.754241 5.611815 3.275920
C 4.966630 5.141505 2.903814
C 5.028232 5.717673 3.433785
C 5.443729 4.984200 3.657102
C 5.648004 5.363639 2.916132
C 5.397233 5.427525 3.306891
C 5.301821 5.713032 3.796613
C 5.635338 5.387460 3.736155
C 5.661563 5.576280 3.257422
C 0.154867 0.034202 3.892410
C 0.067074 0.652407 4.574602
C 0.436819 0.117476 4.562381
C 0.515890 0.498566 4.086294
C 0.425154 0.158774 4.274748
C 0.224758 0.925041 4.788808
C 0.657013 0.209284 4.845837
C 0.621378 0.830231 4.177552
C 1.096652 0.073520 4.047974
C 1.004359 0.555386 4.619678
C 1.488703 0.109500 4.668754
C 1.475209 0.537325 3.944088
C 1.345822 0.211233 4.185474
C 1.240436 0.729209 4.684147
C 1.707402 0.349631 4.771477
C 1.891348 0.694536 4.240538
C 2.086260 0.027762 3.984212
C 2.027921 0.515736 4.656220
C 2.476172 0.051043 4.586187
C 2.515008 0.513981 4.171589
C 2.301251 0.185509 4.251564
C 2.081197 0.706346 4.846089
C 2.842664 0.383506 4.835764
C 2.642857 0.815999 4.253907
C 3.036819 0.113140 4.010583
C 3.018738 0.518608 4.474246
C 3.452773 0.080933 4.615147
C 3.412546 0.540738 4.056007
C 3.326602 0.151489 4.306927
C 3.230490 0.781699 4.575859
C 3.781471 0.179566 4.792700
C 3.714871 0.786959 4.355201
C 3.887652 0.205546 4.014172
C 3.867079 0.549691 4.580844
C 4.582232 0.018408 4.536126
C 4.477476 0.491426 3.877341
C 4.063166 0.203884 4.209597
C 4.342690 0.880717 4.702941
C 4.676328 0.451442 4.730117
C 4.750027 0.574164 4.237295
C 4.811737 0.152389 4.091421
C 5.095719 0.537392 4.490432
C 5.592044 0.023717 4.651252
C 5.515945 0.537785 3.889733
C 5.186219 0.283160 4.325716
C 5.214516 0.635579 4.718731
C 5.738717 0.187986 4.837438
C 5.686306 0.896376 4.291834
C 0.164965 0.984036 3.885912
C 0.192976 1.477035 4.454196
C 0.556964 1.107646 4.567098
C 0.567063 1.405835 3.945319
C 0.351002 1.270387 4.265512
C 0.240754 1.607908 4.748629
C 0.760157 1.174217 4.803796
C 0.766774 1.840241 4.347629
C 0.846471 0.953197 4.083365
C 0.928938 1.291778 4.623601
C 1.585831 1.061541 4.365700
C 1.477670 1.492631 3.904886
C 1.221769 1.364832 4.389208
C 1.113002 1.757150 4.881627
C 1.864083 1.175259 4.634727
C 1.703217 1.930202 4.227220
C 2.134375 1.026034 4.036635
C 2.078740 1.370621 4.590708
C 2.572060 0.827303 4.572509
C 2.591388 1.568690 3.994362
C 2.348585 1.229883 4.299824
C 2.360442 1.619330 4.797528
C 2.757598 1.423489 4.815755
C 2.721831 1.745033 4.153791
C 2.906651 1.159766 3.961842
C 3.066351 1.446462 4.336682
C 3.468179 0.899913 4.486255
C 3.584482 1.462108 3.871337
C 3.126395 1.165816 4.366074
C 3.320300 1.886419 4.754303
C 3.712522 1.082037 4.847591
C 3.721032 1.608038 4.177945
C 3.890953 1.018528 4.001512
C 3.974268 1.376866 4.702738
C 4.579513 0.965243 4.620311
C 4.572542 1.576675 4.096160
C 4.284234 1.204540 4.370796
C 4.200678 1.689962 4.745622
C 4.706104 1.405695 4.629057
C 4.752642 1.687957 4.293800
C 4.947920 1.109947 4.022560
C 4.977253 1.516064 4.474083
C 5.413204 1.007214 4.472354
C 5.650189 1.555536 3.932212
C 5.233021 1.289609 4.265742
C 5.254625 1.854326 4.619027
C 5.695134 1.046319 4.746451
C 5.656863 1.706099 4.231989
C 0.050480 1.898468 3.808280
C 0.022717 2.468923 4.653615
C 0.424877 2.144556 4.349905
C 0.406406 2.476532 3.861587
C 0.133051 2.300206 4.391096
C 0.102947 2.788252 4.693840
C 0.691414 2.203158 4.567279
C 0.809157 2.792068 4.310305
C 0.904927 1.927802 4.037926
C 0.880075 2.578428 4.483473
C 1.524431 2.125201 4.586027
C 1.420833 2.576112 4.034572
C 1.180139 2.281802 4.400619
C 1.351666 2.890929 4.730902
C 1.940954 2.369122 4.811494
C 1.761147 2.638902 4.078886
C 1.980342 2.062301 3.976739
C 1.818906 2.438819 4.457956
C 2.500932 1.941092 4.651325
C 2.371870 2.499892 3.910089
C 2.286200 2.255398 4.130489
C 2.253857 2.547520 4.673207
C 2.721653 2.190925 4.695276
C 2.776666 2.612987 4.202184
C 2.973892 1.919057 3.910033
C 3.000111 2.461987 4.672115
C 3.430878 2.112705 4.500391
C 3.559511 2.337449 3.984209
C 3.258446 2.382166 4.278679
C 3.175894 2.998091 4.738478
C 3.881969 2.210986 4.664375
C 3.810396 2.895708 4.145156
C 3.939515 1.804139 4.033303
C 4.115380 2.557720 4.377073
C 4.424681 2.108044 4.354324
C 4.681825 2.495036 3.899015
C 4.229544 2.320890 4.370744
C 4.307093 2.593870 4.697546
C 4.614157 2.191219 4.826642
C 4.708405 2.785795 4.356766
C 4.967910 2.010426 3.824824
C 5.072163 2.405158 4.557045
C 5.501548 2.091572 4.655864
C 5.455673 2.414965 3.995529
C 5.325892 2.230183 4.312102
C 5.290390 2.668720 4.810481
C 5.739698 2.393443 4.928765
C 5.611360 2.538304 4.279751
C 0.073484 2.926206 4.093270
C 0.074809 3.480358 4.521235
C 0.419458 2.881463 4.599717
C 0.362399 3.703329 4.082646
C 0.231995 3.263325 4.108132
C 0.218184 3.706320 4.764208
C 0.792121 3.395788 4.797274
C 0.873315 3.693285 4.078897
C 1.045771 2.930813 3.982557
C 1.023085 3.509409 4.623266
C 1.419341 3.046569 4.521107
C 1.621738 3.535074 3.898956
C 1.239770 3.040193 4.219093
C 1.242650 3.610946 4.733473
C 1.625237 3.339894 4.663054
C 1.724868 3.846639 4.320604
C 2.135178 2.918467 4.146188
C 2.095001 3.482122 4.598766
C 2.478156 3.122345 4.599777
C 2.584260 3.662973 3.958979
C 2.170094 3.284004 4.059703
C 2.331153 3.821061 4.840392
C 2.748038 3.396434 4.878636
C 2.585003 3.681126 4.306800
C 3.057909 2.896016 4.058071
C 2.995893 3.315532 4.457590
C 3.475915 2.951600 4.579197
C 3.540532 3.640299 4.089705
C 3.268227 3.198052 4.241506
C 3.314172 3.831457 4.637324
C 3.892614 3.366564 4.757826
C 3.722645 3.897279 4.164913
C 4.078602 3.050438 3.983267
C 3.991378 3.610335 4.543149
C 4.587155 3.165278 4.348120
C 4.389199 3.464072 4.060046
C 4.163579 3.084337 4.243010
C 4.078005 3.782449 4.772470
C 4.958074 3.249148 4.719029
C 4.895225 3.795615 4.373383
C 5.084364 3.046313 4.116073
C 4.803756 3.318641 4.438209
C 5.619719 2.986662 4.360330
C 5.549443 3.389330 4.078155
C 5.278136 3.127140 4.354683
C 5.300006 3.736212 4.623265
C 5.749630 3.334606 4.816277
C 5.655179 3.599972 4.231039
C 0.015886 3.915853 4.112078
C 0.015611 4.535253 4.547766
C 0.473478 4.097946 4.475155
C 0.570499 4.481562 3.893133
C 0.083682 4.305921 4.397843
C 0.104636 4.698917 4.742225
C 0.825650 4.179580 4.855410
C 0.567507 4.793665 4.276327
C 0.981334 3.959336 4.118519
C 0.982499 4.642254 4.417711
C 1.556036 4.035566 4.422337
C 1.345488 4.444522 3.944091
C 1.306183 4.155119 4.120852
C 1.181374 4.665082 4.617008
C 1.846841 4.185226 4.634027
C 1.741511 4.766347 4.106344
C 1.981920 4.008490 4.083634
C 1.979543 4.576109 4.465272
C 2.456081 4.045686 4.482121
C 2.402401 4.497285 4.142413
C 2.220726 4.274521 4.240564
C 2.334934 4.805265 4.553001
C 2.854322 4.208616 4.893393
C 2.630307 4.768590 4.188446
C 3.032212 3.844138 4.046007
C 2.805459 4.465362 4.625406
C 3.488300 4.030706 4.565507
C 3.529517 4.502115 3.853117
C 3.309616 4.440964 4.223962
C 3.317314 4.863090 4.803530
C 3.752812 4.103236 4.871141
C 3.786854 4.823879 4.223509
C 4.114458 3.977456 3.927375
C 3.943712 4.499315 4.503996
C 4.451980 3.869529 4.373336
C 4.376988 4.565226 4.097127
C 4.195609 4.430223 4.303011
C 4.336448 4.583668 4.815024
C 4.786635 4.052029 4.814074
C 4.849943 4.685939 4.302875
C 5.067141 3.956208 3.882948
C 4.992209 4.290700 4.379283
C 5.515126 4.045684 4.596919
C 5.532546 4.676332 4.017412
C 5.277617 4.375508 4.351053
C 5.035381 4.703829 4.723025
C 5.719887 4.245928 4.607744
C 5.718331 4.669264 4.333490
C 0.073284 4.881174 4.127084
C 0.084392 5.616883 4.568785
C 0.297998 4.906116 4.649473
C 0.459980 5.641673 4.002252
C 0.262509 5.404495 4.261100
C 0.256152 5.711796 4.763169
C 0.752794 5.164489 4.706260
C 0.848618 5.676135 4.287141
C 1.026124 4.876128 4.067587
C 1.056375 5.489033 4.413223
C 1.548048 5.115841 4.461306
C 1.394188 5.581247 3.879604
C 1.246329 5.257820 4.307818
C 1.420868 5.682680 4.729336
C 1.805028 5.110041 4.742572
C 1.843728 5.720139 4.152031
C 1.841331 4.886682 3.883922
C 2.096620 5.678916 4.515294
C 2.355425 5.021094 4.405222
C 2.514403 5.343063 4.082850
C 2.232115 5.420561 4.388212
C 2.309531 5.634676 4.716764
C 2.787762 5.470206 4.756998
C 2.752182 5.744287 4.122287
C 2.971145 4.967177 4.152036
C 2.910233 5.452213 4.387284
C 3.529160 5.079844 4.639709
C 3.564791 5.593473 3.992340
C 3.165583 5.260692 4.301492
C 3.028592 5.706808 4.633048
C 3.807442 5.186644 4.706972
C 3.776913 5.698675 4.338512
C 3.895474 4.940364 4.004934
C 3.825246 5.433896 4.549936
C 4.301284 4.975229 4.540023
C 4.541051 5.538093 4.108018
C 4.316737 5.319682 4.152464
C 4.260209 5.719789 4.875427
C 4.747486 5.364029 4.918869
C 4.845010 5.620383 4.172126
C 4.904259 5.024822 3.984277
C 5.053553 5.528861 4.494643
C 5.452516 4.834031 4.545159
C 5.421981 5.496189 3.912128
C 5.262663 5.140717 4.306825
C 5.133855 5.625562 4.796914
C 5.685619 5.363674 4.856864
C 5.599541 5.630456 4.207896
C 0.024776 0.005771 4.749261
C 0.173628 0.501831 5.563372
C 0.708597 0.022142 5.396964
C 0.660826 0.489692 5.013486
C 0.260431 0.127077 5.376242
C 0.417075 0.740264 5.724474
C 0.606504 0.098779 5.734029
C 0.655056 0.785103 5.139320
C 1.049642 0.023936 5.059736
C 1.018872 0.509781 5.360703
C 1.594299 0.110427 5.681139
C 1.553377 0.587994 4.979637
C 1.237674 0.349956 5.435038
C 1.372338 0.741626 5.733972
C 1.688284 0.409847 5.721928
C 1.736708 0.655290 5.355933
C 2.148778 0.042156 5.106944
C 1.936677 0.618312 5.539517
C 2.347941 0.125011 5.643335
C 2.629537 0.411915 5.065559
C 2.361121 0.231426 5.212076
C 2.319140 0.803642 5.592841
C 2.600079 0.350381 5.718542
C 2.595797 0.795608 5.197697
C 2.937016 0.183104 5.004025
C 2.978290 0.447251 5.623430
C 3.535555 0.018181 5.537990
C 3.640402 0.521341 4.978456
C 3.187732 0.175783 5.132605
C 3.179994 0.615571 5.609940
C 3.669334 0.214743 5.730520
C 3.594333 0.746664 5.304272
C 4.156218 0.089756 4.976740
C 4.186802 0.459412 5.402747
C 4.614299 0.079209 5.591274
C 4.339923 0.461421 4.940715
C 4.255780 0.163178 5.332050
C 4.239370 0.765211 5.523917
C 4.875061 0.115240 5.721479
C 4.866086 0.800839 5.230255
C 5.130313 0.038525 4.965215
C 5.071837 0.379401 5.519672
C 5.620088 0.042518 5.532395
C 5.421924 0.521819 5.140566
C 5.241165 0.332562 5.318886
C 5.279844 0.796227 5.703548
C 5.625229 0.260743 5.673824
C 5.647877 0.762601 5.315225
C 0.233018 0.922321 5.072148
C 0.014591 1.449364 5.364261
C 0.539877 1.042217 5.376287
C 0.352800 1.408108 4.873755
C 0.130519 1.167723 5.291434
C 0.330812 1.616263 5.600815
C 0.595330 1.355209 5.731829
C 0.802922 1.684830 5.142183
C 1.105591 1.190790 5.017462
C 0.906186 1.474452 5.616576
C 1.460407 1.061590 5.706013
C 1.653345 1.499438 4.981010
C 1.215486 1.472096 5.275688
C 1.312951 1.865697 5.700874
C 1.774829 1.133177 5.590988
C 1.628226 1.711879 5.303892
C 2.059156 1.081543 4.955298
C 1.987641 1.461313 5.675437
C 2.466973 1.063877 5.356737
C 2.348058 1.524412 5.143134
C 2.200082 1.244057 5.138018
C 2.348741 1.606988 5.700397
C 2.829132 1.167002 5.630819
C 2.789124 1.786179 5.267147
C 3.144195 0.998731 5.017068
C 3.023214 1.355474 5.432344
C 3.528588 1.130160 5.353353
C 3.370526 1.359158 5.083752
C 3.133993 1.208663 5.186982
C 3.194529 1.593331 5.656158
C 3.923601 1.183450 5.703203
C 3.677794 1.701659 5.195253
C 4.063587 1.048199 4.899463
C 3.987083 1.488961 5.424288
C 4.673074 0.921375 5.446472
C 4.592892 1.385727 4.955419
C 4.201442 1.101398 5.137703
C 4.110461 1.794338 5.669608
C 4.838127 1.257134 5.599227
C 4.820954 1.845154 5.314294
C 4.860427 0.957946 4.961784
C 4.973413 1.500622 5.574528
C 5.598873 0.997621 5.440359
C 5.418692 1.441561 4.828532
C 5.062726 1.271873 5.319924
C 5.214207 1.647207 5.576024
C 5.633614 0.941289 5.700778
C 5.598634 1.857085 5.435129
C 0.030143 1.860382 5.112305
C 0.095906 2.553346 5.291476
C 0.367340 2.080479 5.411231
C 0.412401 2.571380 5.224922
C 0.262116 2.317350 5.376282
C 0.250545 2.617508 5.660979
C 0.650416 2.488352 5.731578
C 0.667282 2.711733 5.053971
C 1.060814 2.003684 5.028456
C 0.970452 2.521668 5.606081
C 1.497703 2.095643 5.639121
C 1.626613 2.473598 5.011608
C 1.132486 2.261860 5.116260
C 1.259106 2.602497 5.708030
C 1.763352 2.271911 5.555409
C 1.703968 2.612243 5.218707
C 1.998129 2.194771 5.023341
C 2.010134 2.313332 5.635477
C 2.594749 2.014605 5.304743
C 2.626560 2.395151 4.845328
C 2.366997 2.344333 5.141937
C 2.310498 2.691946 5.646290
C 2.703526 2.400111 5.733836
C 2.892327 2.869572 5.273437
C 2.903946 2.107731 5.084108
C 3.072973 2.589295 5.601154
C 3.455238 1.900159 5.541004
C 3.446981 2.520665 5.037008
C 3.299041 2.143652 5.305770
C 3.099836 2.840461 5.722085
C 3.779320 2.385010 5.677793
C 3.793921 2.803508 5.455491
C 3.967128 1.909772 4.867280
C 3.968903 2.519681 5.521512
C 4.344711 1.880743 5.514193
C 4.599329 2.474154 4.907638
C 4.291717 2.231645 5.323629
C 4.215451 2.604385 5.597018
C 4.840506 2.191247 5.607354
C 4.635133 2.785072 5.211132
C 5.083694 1.967664 4.865563
C 4.818344 2.481100 5.556336
C 5.473850 2.132170 5.395348
C 5.555868 2.578174 5.017735
C 5.233826 2.405372 5.254309
C 5.213413 2.794549 5.638812
C 5.593498 2.104580 5.674730
C 5.611309 2.655231 5.364854
C 0.120696 3.075264 5.031794
C 0.143777 3.444639 5.508206
C 0.542194 2.879175 5.452346
C 0.328718 3.474778 4.984114
C 0.301138 3.257246 5.152282
C 0.138292 3.662332 5.725838
C 0.616593 3.202666 5.639651
C 0.707370 3.752096 5.451422
C 0.853876 2.871692 4.938070
C 1.073915 3.353391 5.470966
C 1.453860 2.968286 5.372467
C 1.504380 3.627843 4.933619
C 1.290909 3.351707 5.138353
C 1.362299 3.675054 5.619875
C 1.799895 3.116156 5.639215
C 1.711895 3.788592 5.178562
C 2.015534 2.853347 4.924065
C 2.139411 3.480811 5.599328
C 2.474886 2.929322 5.575505
C 2.520412 3.559451 4.863741
C 2.375765 3.210015 5.214798
C 2.377256 3.761788 5.678550
C 2.705247 3.264859 5.652778
C 2.603700 3.694728 5.341740
C 3.004579 2.895073 5.009023
C 3.026636 3.527378 5.339450
C 3.470273 3.035656 5.341429
C 3.606219 3.454250 5.068201
C 3.334336 3.298633 5.385697
C 3.355256 3.570235 5.649716
C 3.610275 3.270479 5.648721
C 3.805566 3.669409 5.050528
C 4.044837 2.922491 4.995624
C 3.875836 3.504451 5.359748
C 4.416410 2.896298 5.572237
C 4.367541 3.482057 4.880224
C 4.153725 3.220423 5.390210
C 4.253840 3.609017 5.729772
C 4.857355 3.109746 5.548415
C 4.885103 3.677108 5.151326
C 4.881112 2.993100 5.033102
C 4.924557 3.394467 5.447816
C 5.656462 2.911420 5.605664
C 5.411403 3.535757 5.100104
C 5.172205 3.213732 5.197965
C 5.132361 3.716588 5.720462
C 5.744251 3.175831 5.551962
C 5.686329 3.920383 5.226858
C 0.001856 3.901788 4.945116
C 0.007650 4.405096 5.486804
C 0.549277 4.152698 5.427205
C 0.314081 4.552289 5.031375
C 0.239412 4.125906 5.121638
C 0.300465 4.775154 5.653954
C 0.614983 4.255918 5.735317
C 0.803877 4.858652 5.156637
C 0.866614 3.947467 5.167230
C 0.974364 4.479808 5.683946
C 1.450937 3.967181 5.562645
C 1.570290 4.453795 5.076967
C 1.204458 4.351137 5.262601
C 1.314565 4.747485 5.716825
C 1.538998 4.231425 5.688978
C 1.736288 4.668470 5.143535
C 1.886911 3.896032 5.009236
C 2.012800 4.399542 5.433364
C 2.344267 3.934455 5.419978
C 2.479877 4.380949 4.883081
C 2.394467 4.168234 5.169321
C 2.161694 4.733000 5.592254
C 3.009423 4.273963 5.745221
C 2.727684 4.751748 5.227869
C 3.071957 3.903668 5.042685
C 2.955191 4.559130 5.697715
C 3.369540 4.032099 5.544904
C 3.658101 4.533043 4.830733
C 3.183216 4.225350 5.396886
C 3.435595 4.783905 5.730957
C 3.820919 4.387018 5.699636
C 3.725626 4.565904 5.290180
C 3.903812 3.947496 5.133199
C 4.003804 4.359031 5.394208
C 4.299164 3.870852 5.450585
C 4.534696 4.404714 4.788460
C 4.165828 4.326436 5.192984
C 4.342133 4.948027 5.733414
C 4.658284 4.163954 5.682295
C 4.587331 4.766750 5.321269
C 5.148242 4.046374 5.131837
C 4.890890 4.633875 5.507127
C 5.612319 4.121344 5.425046
C 5.563520 4.600970 4.917770
C 5.134489 4.257934 5.371187
C 5.286625 4.877353 5.658905
C 5.620074 4.299933 5.728860
C 5.653418 4.836956 5.170734
C 0.016848 5.063567 4.826983
C 0.004010 5.629311 5.612015
C 0.475872 5.045021 5.456281
C 0.404994 5.437733 5.111738
C 0.106904 5.176953 5.178908
C 0.241444 5.729577 5.505881
C 0.692883 5.329890 5.581563
C 0.711172 5.709385 5.232433
C 0.904484 5.107222 4.976770
C 1.093225 5.537307 5.706801
C 1.490500 5.017697 5.399675
C 1.641657 5.598128 4.849450
C 1.401497 5.252871 5.102203
C 1.151195 5.730264 5.495288
C 1.914064 5.365643 5.748476
C 1.613413 5.727796 5.276047
C 2.167841 4.964986 4.865457
C 1.873728 5.521559 5.490251
C 2.564280 4.969731 5.354337
C 2.340874 5.441613 4.898724
C 2.253302 5.374903 5.164041
C 2.177990 5.679054 5.671811
C 2.761781 5.075722 5.648764
C 2.559671 5.675572 5.163153
C 3.031140 5.058145 4.951336
C 3.029096 5.282172 5.506760
C 3.440544 4.972787 5.541362
C 3.394323 5.577817 4.950403
C 3.255461 5.392542 5.277748
C 3.422153 5.747958 5.709414
C 3.718297 5.059025 5.687449
C 3.753537 5.686961 5.220874
C 4.025211 5.016160 4.816874
C 4.126420 5.584128 5.509153
C 4.529999 4.892212 5.549520
C 4.640803 5.476696 5.146385
C 4.228590 5.273500 5.259497
C 4.360143 5.709041 5.680244
C 4.905904 5.211371 5.660959
C 4.592618 5.722639 5.306719
C 5.093568 5.028066 5.113358
C 5.097161 5.444721 5.635186
C 5.731250 4.988850 5.538874
C 5.512534 5.493240 5.184507
C 5.168930 5.414657 5.267405
C 5.502661 5.658292 5.660184
C 5.620529 5.252935 5.689136
C 5.721931 5.588636 5.310710
