1728
Frame 1/10
C 0.000000 0.000000 0.000000
C 0.000000 0.500000 0.500000
C 0.500000 0.000000 0.500000
C 0.500000 0.500000 0.000000
C 0.250000 0.250000 0.250000
C 0.250000 0.750000 0.750000
C 0.750000 0.250000 0.750000
C 0.750000 0.750000 0.250000
C 1.000000 0.000000 0.000000
C 1.000000 0.500000 0.500000
C 1.500000 0.000000 0.500000
C 1.500000 0.500000 0.000000
C 1.250000 0.250000 0.250000
C 1.250000 0.750000 0.750000
C 1.750000 0.250000 0.750000
C 1.750000 0.750000 0.250000
C 2.000000 0.000000 0.000000
C 2.000000 0.500000 0.500000
C 2.500000 0.000000 0.500000
C 2.500000 0.500000 0.000000
C 2.250000 0.250000 0.250000
C 2.250000 0.750000 0.750000
C 2.750000 0.250000 0.750000
C 2.750000 0.750000 0.250000
C 3.000000 0.000000 0.000000
C 3.000000 0.500000 0.500000
C 3.500000 0.000000 0.500000
C 3.500000 0.500000 0.000000
C 3.250000 0.250000 0.250000
C 3.250000 0.750000 0.750000
C 3.750000 0.250000 0.750000
C 3.750000 0.750000 0.250000
C 4.000000 0.000000 0.000000
C 4.000000 0.500000 0.500000
C 4.500000 0.000000 0.500000
C 4.500000 0.500000 0.000000
C 4.250000 0.250000 0.250000
C 4.250000 0.750000 0.750000
C 4.750000 0.250000 0.750000
C 4.750000 0.750000 0.250000
C 5.000000 0.000000 0.000000
C 5.000000 0.500000 0.500000
C 5.500000 0.000000 0.500000
C 5.500000 0.500000 0.000000
C 5.250000 0.250000 0.250000
C 5.250000 0.750000 0.750000
C 5.750000 0.250000 0.750000
C 5.750000 0.750000 0.250000
C 0.000000 1.000000 0.000000
C 0.000000 1.500000 0.500000
C 0.500000 1.000000 0.500000
C 0.500000 1.500000 0.000000
C 0.250000 1.250000 0.250000
C 0.250000 1.750000 0.750000
C 0.750000 1.250000 0.750000
C 0.750000 1.750000 0.250000
C 1.000000 1.000000 0.000000
C 1.000000 1.500000 0.500000
C 1.500000 1.000000 0.500000
C 1.500000 1.500000 0.000000
C 1.250000 1.250000 0.250000
C 1.250000 1.750000 0.750000
C 1.750000 1.250000 0.750000
C 1.750000 1.750000 0.250000
C 2.000000 1.000000 0.000000
C 2.000000 1.500000 0.500000
C 2.500000 1.000000 0.500000
C 2.500000 1.500000 0.000000
C 2.250000 1.250000 0.250000
C 2.250000 1.750000 0.750000
C 2.750000 1.250000 0.750000
C 2.750000 1.750000 0.250000
C 3.000000 1.000000 0.000000
C 3.000000 1.500000 0.500000
C 3.500000 1.000000 0.500000
C 3.500000 1.500000 0.000000
C 3.250000 1.250000 0.250000
C 3.250000 1.750000 0.750000
C 3.750000 1.250000 0.750000
C 3.750000 1.750000 0.250000
C 4.000000 1.000000 0.000000
C 4.000000 1.500000 0.500000
C 4.500000 1.000000 0.500000
C 4.500000 1.500000 0.000000
C 4.250000 1.250000 0.250000
C 4.250000 1.750000 0.750000
C 4.750000 1.250000 0.750000
C 4.750000 1.750000 0.250000
C 5.000000 1.000000 0.000000
C 5.000000 1.500000 0.500000
C 5.500000 1.000000 0.500000
C 5.500000 1.500000 0.000000
C 5.250000 1.250000 0.250000
C 5.250000 1.750000 0.750000
C 5.750000 1.250000 0.750000
C 5.750000 1.750000 0.250000
C 0.000000 2.000000 0.000000
C 0.000000 2.500000 0.500000
C 0.500000 2.000000 0.500000
C 0.500000 2.500000 0.000000
C 0.250000 2.250000 0.250000
C 0.250000 2.750000 0.750000
C 0.750000 2.250000 0.750000
C 0.750000 2.750000 0.250000
C 1.000000 2.000000 0.000000
C 1.000000 2.500000 0.500000
C 1.500000 2.000000 0.500000
C 1.500000 2.500000 0.000000
C 1.250000 2.250000 0.250000
C 1.250000 2.750000 0.750000
C 1.750000 2.250000 0.750000
C 1.750000 2.750000 0.250000
C 2.000000 2.000000 0.000000
C 2.000000 2.500000 0.500000
C 2.500000 2.000000 0.500000
C 2.500000 2.500000 0.000000
C 2.250000 2.250000 0.250000
C 2.250000 2.750000 0.750000
C 2.750000 2.250000 0.750000
C 2.750000 2.750000 0.250000
C 3.000000 2.000000 0.000000
C 3.000000 2.500000 0.500000
C 3.500000 2.000000 0.500000
C 3.500000 2.500000 0.000000
C 3.250000 2.250000 0.250000
C 3.250000 2.750000 0.750000
C 3.750000 2.250000 0.750000
C 3.750000 2.750000 0.250000
C 4.000000 2.000000 0.000000
C 4.000000 2.500000 0.500000
C 4.500000 2.000000 0.500000
C 4.500000 2.500000 0.000000
C 4.250000 2.250000 0.250000
C 4.250000 2.750000 0.750000
C 4.750000 2.250000 0.750000
C 4.750000 2.750000 0.250000
C 5.000000 2.000000 0.000000
C 5.000000 2.500000 0.500000
C 5.500000 2.000000 0.500000
C 5.500000 2.500000 0.000000
C 5.250000 2.250000 0.250000
C 5.250000 2.750000 0.750000
C 5.750000 2.250000 0.750000
C 5.750000 2.750000 0.250000
C 0.000000 3.000000 0.000000
C 0.000000 3.500000 0.500000
C 0.500000 3.000000 0.500000
C 0.500000 3.500000 0.000000
C 0.250000 3.250000 0.250000
C 0.250000 3.750000 0.750000
C 0.750000 3.250000 0.750000
C 0.750000 3.750000 0.250000
C 1.000000 3.000000 0.000000
C 1.000000 3.500000 0.500000
C 1.500000 3.000000 0.500000
C 1.500000 3.500000 0.000000
C 1.250000 3.250000 0.250000
C 1.250000 3.750000 0.750000
C 1.750000 3.250000 0.750000
C 1.750000 3.750000 0.250000
C 2.000000 3.000000 0.000000
C 2.000000 3.500000 0.500000
C 2.500000 3.000000 0.500000
C 2.500000 3.500000 0.000000
C 2.250000 3.250000 0.250000
C 2.250000 3.750000 0.750000
C 2.750000 3.250000 0.750000
C 2.750000 3.750000 0.250000
C 3.000000 3.000000 0.000000
C 3.000000 3.500000 0.500000
C 3.500000 3.000000 0.500000
C 3.500000 3.500000 0.000000
C 3.250000 3.250000 0.250000
C 3.250000 3.750000 0.750000
C 3.750000 3.250000 0.750000
C 3.750000 3.750000 0.250000
C 4.000000 3.000000 0.000000
C 4.000000 3.500000 0.500000
C 4.500000 3.000000 0.500000
C 4.500000 3.500000 0.000000
C 4.250000 3.250000 0.250000
C 4.250000 3.750000 0.750000
C 4.750000 3.250000 0.750000
C 4.750000 3.750000 0.250000
C 5.000000 3.000000 0.000000
C 5.000000 3.500000 0.500000
C 5.500000 3.000000 0.500000
C 5.500000 3.500000 0.000000
C 5.250000 3.250000 0.250000
C 5.250000 3.750000 0.750000
C 5.750000 3.250000 0.750000
C 5.750000 3.750000 0.250000
C 0.000000 4.000000 0.000000
C 0.000000 4.500000 0.500000
C 0.500000 4.000000 0.500000
C 0.500000 4.500000 0.000000
C 0.250000 4.250000 0.250000
C 0.250000 4.750000 0.750000
C 0.750000 4.250000 0.750000
C 0.750000 4.750000 0.250000
C 1.000000 4.000000 0.000000
C 1.000000 4.500000 0.500000
C 1.500000 4.000000 0.500000
C 1.500000 4.500000 0.000000
C 1.250000 4.250000 0.250000
C 1.250000 4.750000 0.750000
C 1.750000 4.250000 0.750000
C 1.750000 4.750000 0.250000
C 2.000000 4.000000 0.000000
C 2.000000 4.500000 0.500000
C 2.500000 4.000000 0.500000
C 2.500000 4.500000 0.000000
C 2.250000 4.250000 0.250000
C 2.250000 4.750000 0.750000
C 2.750000 4.250000 0.750000
C 2.750000 4.750000 0.250000
C 3.000000 4.000000 0.000000
C 3.000000 4.500000 0.500000
C 3.500000 4.000000 0.500000
C 3.500000 4.500000 0.000000
C 3.250000 4.250000 0.250000
C 3.250000 4.750000 0.750000
C 3.750000 4.250000 0.750000
C 3.750000 4.750000 0.250000
C 4.000000 4.000000 0.000000
C 4.000000 4.500000 0.500000
C 4.500000 4.000000 0.500000
C 4.500000 4.500000 0.000000
C 4.250000 4.250000 0.250000
C 4.250000 4.750000 0.750000
C 4.750000 4.250000 0.750000
C 4.750000 4.750000 0.250000
C 5.000000 4.000000 0.000000
C 5.000000 4.500000 0.500000
C 5.500000 4.000000 0.500000
C 5.500000 4.500000 0.000000
C 5.250000 4.250000 0.250000
C 5.250000 4.750000 0.750000
C 5.750000 4.250000 0.750000
C 5.750000 4.750000 0.250000
C 0.000000 5.000000 0.000000
C 0.000000 5.500000 0.500000
C 0.500000 5.000000 0.500000
C 0.500000 5.500000 0.000000
C 0.250000 5.250000 0.250000
C 0.250000 5.750000 0.750000
C 0.750000 5.250000 0.750000
C 0.750000 5.750000 0.250000
C 1.000000 5.000000 0.000000
C 1.000000 5.500000 0.500000
C 1.500000 5.000000 0.500000
C 1.500000 5.500000 0.000000
C 1.250000 5.250000 0.250000
C 1.250000 5.750000 0.750000
C 1.750000 5.250000 0.750000
C 1.750000 5.750000 0.250000
C 2.000000 5.000000 0.000000
C 2.000000 5.500000 0.500000
C 2.500000 5.000000 0.500000
C 2.500000 5.500000 0.000000
C 2.250000 5.250000 0.250000
C 2.250000 5.750000 0.750000
C 2.750000 5.250000 0.750000
C 2.750000 5.750000 0.250000
C 3.000000 5.000000 0.000000
C 3.000000 5.500000 0.500000
C 3.500000 5.000000 0.500000
C 3.500000 5.500000 0.000000
C 3.250000 5.250000 0.250000
C 3.250000 5.750000 0.750000
C 3.750000 5.250000 0.750000
C 3.750000 5.750000 0.250000
C 4.000000 5.000000 0.000000
C 4.000000 5.500000 0.500000
C 4.500000 5.000000 0.500000
C 4.500000 5.500000 0.000000
C 4.250000 5.250000 0.250000
C 4.250000 5.750000 0.750000
C 4.750000 5.250000 0.750000
C 4.750000 5.750000 0.250000
C 5.000000 5.000000 0.000000
C 5.000000 5.500000 0.500000
C 5.500000 5.000000 0.500000
C 5.500000 5.500000 0.000000
C 5.250000 5.250000 0.250000
C 5.250000 5.750000 0.750000
C 5.750000 5.250000 0.750000
C 5.750000 5.750000 0.250000
C 0.000000 0.000000 1.000000
C 0.000000 0.500000 1.500000
C 0.500000 0.000000 1.500000
C 0.500000 0.500000 1.000000
C 0.250000 0.250000 1.250000
C 0.250000 0.750000 1.750000
C 0.750000 0.250000 1.750000
C 0.750000 0.750000 1.250000
C 1.000000 0.000000 1.000000
C 1.000000 0.500000 1.500000
C 1.500000 0.000000 1.500000
C 1.500000 0.500000 1.000000
C 1.250000 0.250000 1.250000
C 1.250000 0.750000 1.750000
C 1.750000 0.250000 1.750000
C 1.750000 0.750000 1.250000
C 2.000000 0.000000 1.000000
C 2.000000 0.500000 1.500000
C 2.500000 0.000000 1.500000
C 2.500000 0.500000 1.000000
C 2.250000 0.250000 1.250000
C 2.250000 0.750000 1.750000
C 2.750000 0.250000 1.750000
C 2.750000 0.750000 1.250000
C 3.000000 0.000000 1.000000
C 3.000000 0.500000 1.500000
C 3.500000 0.000000 1.500000
C 3.500000 0.500000 1.000000
C 3.250000 0.250000 1.250000
C 3.250000 0.750000 1.750000
C 3.750000 0.250000 1.750000
C 3.750000 0.750000 1.250000
C 4.000000 0.000000 1.000000
C 4.000000 0.500000 1.500000
C 4.500000 0.000000 1.500000
C 4.500000 0.500000 1.000000
C 4.250000 0.250000 1.250000
C 4.250000 0.750000 1.750000
C 4.750000 0.250000 1.750000
C 4.750000 0.750000 1.250000
C 5.000000 0.000000 1.000000
C 5.000000 0.500000 1.500000
C 5.500000 0.000000 1.500000
C 5.500000 0.500000 1.000000
C 5.250000 0.250000 1.250000
C 5.250000 0.750000 1.750000
C 5.750000 0.250000 1.750000
C 5.750000 0.750000 1.250000
C 0.000000 1.000000 1.000000
C 0.000000 1.500000 1.500000
C 0.500000 1.000000 1.500000
C 0.500000 1.500000 1.000000
C 0.250000 1.250000 1.250000
C 0.250000 1.750000 1.750000
C 0.750000 1.250000 1.750000
C 0.750000 1.750000 1.250000
C 1.000000 1.000000 1.000000
C 1.000000 1.500000 1.500000
C 1.500000 1.000000 1.500000
C 1.500000 1.500000 1.000000
C 1.250000 1.250000 1.250000
C 1.250000 1.750000 1.750000
C 1.750000 1.250000 1.750000
C 1.750000 1.750000 1.250000
C 2.000000 1.000000 1.000000
C 2.000000 1.500000 1.500000
C 2.500000 1.000000 1.500000
C 2.500000 1.500000 1.000000
C 2.250000 1.250000 1.250000
C 2.250000 1.750000 1.750000
C 2.750000 1.250000 1.750000
C 2.750000 1.750000 1.250000
C 3.000000 1.000000 1.000000
C 3.000000 1.500000 1.500000
C 3.500000 1.000000 1.500000
C 3.500000 1.500000 1.000000
C 3.250000 1.250000 1.250000
C 3.250000 1.750000 1.750000
C 3.750000 1.250000 1.750000
C 3.750000 1.750000 1.250000
C 4.000000 1.000000 1.000000
C 4.000000 1.500000 1.500000
C 4.500000 1.000000 1.500000
C 4.500000 1.500000 1.000000
C 4.250000 1.250000 1.250000
C 4.250000 1.750000 1.750000
C 4.750000 1.250000 1.750000
C 4.750000 1.750000 1.250000
C 5.000000 1.000000 1.000000
C 5.000000 1.500000 1.500000
C 5.500000 1.000000 1.500000
C 5.500000 1.500000 1.000000
C 5.250000 1.250000 1.250000
C 5.250000 1.750000 1.750000
C 5.750000 1.250000 1.750000
C 5.750000 1.750000 1.250000
C 0.000000 2.000000 1.000000
C 0.000000 2.500000 1.500000
C 0.500000 2.000000 1.500000
C 0.500000 2.500000 1.000000
C 0.250000 2.250000 1.250000
C 0.250000 2.750000 1.750000
C 0.750000 2.250000 1.750000
C 0.750000 2.750000 1.250000
C 1.000000 2.000000 1.000000
C 1.000000 2.500000 1.500000
C 1.500000 2.000000 1.500000
C 1.500000 2.500000 1.000000
C 1.250000 2.250000 1.250000
C 1.250000 2.750000 1.750000
C 1.750000 2.250000 1.750000
C 1.750000 2.750000 1.250000
C 2.000000 2.000000 1.000000
C 2.000000 2.500000 1.500000
C 2.500000 2.000000 1.500000
C 2.500000 2.500000 1.000000
C 2.250000 2.250000 1.250000
C 2.250000 2.750000 1.750000
C 2.750000 2.250000 1.750000
C 2.750000 2.750000 1.250000
C 3.000000 2.000000 1.000000
C 3.000000 2.500000 1.500000
C 3.500000 2.000000 1.500000
C 3.500000 2.500000 1.000000
C 3.250000 2.250000 1.250000
C 3.250000 2.750000 1.750000
C 3.750000 2.250000 1.750000
C 3.750000 2.750000 1.250000
C 4.000000 2.000000 1.000000
C 4.000000 2.500000 1.500000
C 4.500000 2.000000 1.500000
C 4.500000 2.500000 1.000000
C 4.250000 2.250000 1.250000
C 4.250000 2.750000 1.750000
C 4.750000 2.250000 1.750000
C 4.750000 2.750000 1.250000
C 5.000000 2.000000 1.000000
C 5.000000 2.500000 1.500000
C 5.500000 2.000000 1.500000
C 5.500000 2.500000 1.000000
C 5.250000 2.250000 1.250000
C 5.250000 2.750000 1.750000
C 5.750000 2.250000 1.750000
C 5.750000 2.750000 1.250000
C 0.000000 3.000000 1.000000
C 0.000000 3.500000 1.500000
C 0.500000 3.000000 1.500000
C 0.500000 3.500000 1.000000
C 0.250000 3.250000 1.250000
C 0.250000 3.750000 1.750000
C 0.750000 3.250000 1.750000
C 0.750000 3.750000 1.250000
C 1.000000 3.000000 1.000000
C 1.000000 3.500000 1.500000
C 1.500000 3.000000 1.500000
C 1.500000 3.500000 1.000000
C 1.250000 3.250000 1.250000
C 1.250000 3.750000 1.750000
C 1.750000 3.250000 1.750000
C 1.750000 3.750000 1.250000
C 2.000000 3.000000 1.000000
C 2.000000 3.500000 1.500000
C 2.500000 3.000000 1.500000
C 2.500000 3.500000 1.000000
C 2.250000 3.250000 1.250000
C 2.250000 3.750000 1.750000
C 2.750000 3.250000 1.750000
C 2.750000 3.750000 1.250000
C 3.000000 3.000000 1.000000
C 3.000000 3.500000 1.500000
C 3.500000 3.000000 1.500000
C 3.500000 3.500000 1.000000
C 3.250000 3.250000 1.250000
C 3.250000 3.750000 1.750000
C 3.750000 3.250000 1.750000
C 3.750000 3.750000 1.250000
C 4.000000 3.000000 1.000000
C 4.000000 3.500000 1.500000
C 4.500000 3.000000 1.500000
C 4.500000 3.500000 1.000000
C 4.250000 3.250000 1.250000
C 4.250000 3.750000 1.750000
C 4.750000 3.250000 1.750000
C 4.750000 3.750000 1.250000
C 5.000000 3.000000 1.000000
C 5.000000 3.500000 1.500000
C 5.500000 3.000000 1.500000
C 5.500000 3.500000 1.000000
C 5.250000 3.250000 1.250000
C 5.250000 3.750000 1.750000
C 5.750000 3.250000 1.750000
C 5.750000 3.750000 1.250000
C 0.000000 4.000000 1.000000
C 0.000000 4.500000 1.500000
C 0.500000 4.000000 1.500000
C 0.500000 4.500000 1.000000
C 0.250000 4.250000 1.250000
C 0.250000 4.750000 1.750000
C 0.750000 4.250000 1.750000
C 0.750000 4.750000 1.250000
C 1.000000 4.000000 1.000000
C 1.000000 4.500000 1.500000
C 1.500000 4.000000 1.500000
C 1.500000 4.500000 1.000000
C 1.250000 4.250000 1.250000
C 1.250000 4.750000 1.750000
C 1.750000 4.250000 1.750000
C 1.750000 4.750000 1.250000
C 2.000000 4.000000 1.000000
C 2.000000 4.500000 1.500000
C 2.500000 4.000000 1.500000
C 2.500000 4.500000 1.000000
C 2.250000 4.250000 1.250000
C 2.250000 4.750000 1.750000
C 2.750000 4.250000 1.750000
C 2.750000 4.750000 1.250000
C 3.000000 4.000000 1.000000
C 3.000000 4.500000 1.500000
C 3.500000 4.000000 1.500000
C 3.500000 4.500000 1.000000
C 3.250000 4.250000 1.250000
C 3.250000 4.750000 1.750000
C 3.750000 4.250000 1.750000
C 3.750000 4.750000 1.250000
C 4.000000 4.000000 1.000000
C 4.000000 4.500000 1.500000
C 4.500000 4.000000 1.500000
C 4.500000 4.500000 1.000000
C 4.250000 4.250000 1.250000
C 4.250000 4.750000 1.750000
C 4.750000 4.250000 1.750000
C 4.750000 4.750000 1.250000
C 5.000000 4.000000 1.000000
C 5.000000 4.500000 1.500000
C 5.500000 4.000000 1.500000
C 5.500000 4.500000 1.000000
C 5.250000 4.250000 1.250000
C 5.250000 4.750000 1.750000
C 5.750000 4.250000 1.750000
C 5.750000 4.750000 1.250000
C 0.000000 5.000000 1.000000
C 0.000000 5.500000 1.500000
C 0.500000 5.000000 1.500000
C 0.500000 5.500000 1.000000
C 0.250000 5.250000 1.250000
C 0.250000 5.750000 1.750000
C 0.750000 5.250000 1.750000
C 0.750000 5.750000 1.250000
C 1.000000 5.000000 1.000000
C 1.000000 5.500000 1.500000
C 1.500000 5.000000 1.500000
C 1.500000 5.500000 1.000000
C 1.250000 5.250000 1.250000
C 1.250000 5.750000 1.750000
C 1.750000 5.250000 1.750000
C 1.750000 5.750000 1.250000
C 2.000000 5.000000 1.000000
C 2.000000 5.500000 1.500000
C 2.500000 5.000000 1.500000
C 2.500000 5.500000 1.000000
C 2.250000 5.250000 1.250000
C 2.250000 5.750000 1.750000
C 2.750000 5.250000 1.750000
C 2.750000 5.750000 1.250000
C 3.000000 5.000000 1.000000
C 3.000000 5.500000 1.500000
C 3.500000 5.000000 1.500000
C 3.500000 5.500000 1.000000
C 3.250000 5.250000 1.250000
C 3.250000 5.750000 1.750000
C 3.750000 5.250000 1.750000
C 3.750000 5.750000 1.250000
C 4.000000 5.000000 1.000000
C 4.000000 5.500000 1.500000
C 4.500000 5.000000 1.500000
C 4.500000 5.500000 1.000000
C 4.250000 5.250000 1.250000
C 4.250000 5.750000 1.750000
C 4.750000 5.250000 1.750000
C 4.750000 5.750000 1.250000
C 5.000000 5.000000 1.000000
C 5.000000 5.500000 1.500000
C 5.500000 5.000000 1.500000
C 5.500000 5.500000 1.000000
C 5.250000 5.250000 1.250000
C 5.250000 5.750000 1.750000
C 5.750000 5.250000 1.750000
C 5.750000 5.750000 1.250000
C 0.000000 0.000000 2.000000
C 0.000000 0.500000 2.500000
C 0.500000 0.000000 2.500000
C 0.500000 0.500000 2.000000
C 0.250000 0.250000 2.250000
C 0.250000 0.750000 2.750000
C 0.750000 0.250000 2.750000
C 0.750000 0.750000 2.250000
C 1.000000 0.000000 2.000000
C 1.000000 0.500000 2.500000
C 1.500000 0.000000 2.500000
C 1.500000 0.500000 2.000000
C 1.250000 0.250000 2.250000
C 1.250000 0.750000 2.750000
C 1.750000 0.250000 2.750000
C 1.750000 0.750000 2.250000
C 2.000000 0.000000 2.000000
C 2.000000 0.500000 2.500000
C 2.500000 0.000000 2.500000
C 2.500000 0.500000 2.000000
C 2.250000 0.250000 2.250000
C 2.250000 0.750000 2.750000
C 2.750000 0.250000 2.750000
C 2.750000 0.750000 2.250000
C 3.000000 0.000000 2.000000
C 3.000000 0.500000 2.500000
C 3.500000 0.000000 2.500000
C 3.500000 0.500000 2.000000
C 3.250000 0.250000 2.250000
C 3.250000 0.750000 2.750000
C 3.750000 0.250000 2.750000
C 3.750000 0.750000 2.250000
C 4.000000 0.000000 2.000000
C 4.000000 0.500000 2.500000
C 4.500000 0.000000 2.500000
C 4.500000 0.500000 2.000000
C 4.250000 0.250000 2.250000
C 4.250000 0.750000 2.750000
C 4.750000 0.250000 2.750000
C 4.750000 0.750000 2.250000
C 5.000000 0.000000 2.000000
C 5.000000 0.500000 2.500000
C 5.500000 0.000000 2.500000
C 5.500000 0.500000 2.000000
C 5.250000 0.250000 2.250000
C 5.250000 0.750000 2.750000
C 5.750000 0.250000 2.750000
C 5.750000 0.750000 2.250000
C 0.000000 1.000000 2.000000
C 0.000000 1.500000 2.500000
C 0.500000 1.000000 2.500000
C 0.500000 1.500000 2.000000
C 0.250000 1.250000 2.250000
C 0.250000 1.750000 2.750000
C 0.750000 1.250000 2.750000
C 0.750000 1.750000 2.250000
C 1.000000 1.000000 2.000000
C 1.000000 1.500000 2.500000
C 1.500000 1.000000 2.500000
C 1.500000 1.500000 2.000000
C 1.250000 1.250000 2.250000
C 1.250000 1.750000 2.750000
C 1.750000 1.250000 2.750000
C 1.750000 1.750000 2.250000
C 2.000000 1.000000 2.000000
C 2.000000 1.500000 2.500000
C 2.500000 1.000000 2.500000
C 2.500000 1.500000 2.000000
C 2.250000 1.250000 2.250000
C 2.250000 1.750000 2.750000
C 2.750000 1.250000 2.750000
C 2.750000 1.750000 2.250000
C 3.000000 1.000000 2.000000
C 3.000000 1.500000 2.500000
C 3.500000 1.000000 2.500000
C 3.500000 1.500000 2.000000
C 3.250000 1.250000 2.250000
C 3.250000 1.750000 2.750000
C 3.750000 1.250000 2.750000
C 3.750000 1.750000 2.250000
C 4.000000 1.000000 2.000000
C 4.000000 1.500000 2.500000
C 4.500000 1.000000 2.500000
C 4.500000 1.500000 2.000000
C 4.250000 1.250000 2.250000
C 4.250000 1.750000 2.750000
C 4.750000 1.250000 2.750000
C 4.750000 1.750000 2.250000
C 5.000000 1.000000 2.000000
C 5.000000 1.500000 2.500000
C 5.500000 1.000000 2.500000
C 5.500000 1.500000 2.000000
C 5.250000 1.250000 2.250000
C 5.250000 1.750000 2.750000
C 5.750000 1.250000 2.750000
C 5.750000 1.750000 2.250000
C 0.000000 2.000000 2.000000
C 0.000000 2.500000 2.500000
C 0.500000 2.000000 2.500000
C 0.500000 2.500000 2.000000
C 0.250000 2.250000 2.250000
C 0.250000 2.750000 2.750000
C 0.750000 2.250000 2.750000
C 0.750000 2.750000 2.250000
C 1.000000 2.000000 2.000000
C 1.000000 2.500000 2.500000
C 1.500000 2.000000 2.500000
C 1.500000 2.500000 2.000000
C 1.250000 2.250000 2.250000
C 1.250000 2.750000 2.750000
C 1.750000 2.250000 2.750000
C 1.750000 2.750000 2.250000
C 2.000000 2.000000 2.000000
C 2.000000 2.500000 2.500000
C 2.500000 2.000000 2.500000
C 2.500000 2.500000 2.000000
C 2.250000 2.250000 2.250000
C 2.250000 2.750000 2.750000
C 2.750000 2.250000 2.750000
C 2.750000 2.750000 2.250000
C 3.000000 2.000000 2.000000
C 3.000000 2.500000 2.500000
C 3.500000 2.000000 2.500000
C 3.500000 2.500000 2.000000
C 3.250000 2.250000 2.250000
C 3.250000 2.750000 2.750000
C 3.750000 2.250000 2.750000
C 3.750000 2.750000 2.250000
C 4.000000 2.000000 2.000000
C 4.000000 2.500000 2.500000
C 4.500000 2.000000 2.500000
C 4.500000 2.500000 2.000000
C 4.250000 2.250000 2.250000
C 4.250000 2.750000 2.750000
C 4.750000 2.250000 2.750000
C 4.750000 2.750000 2.250000
C 5.000000 2.000000 2.000000
C 5.000000 2.500000 2.500000
C 5.500000 2.000000 2.500000
C 5.500000 2.500000 2.000000
C 5.250000 2.250000 2.250000
C 5.250000 2.750000 2.750000
C 5.750000 2.250000 2.750000
C 5.750000 2.750000 2.250000
C 0.000000 3.000000 2.000000
C 0.000000 3.500000 2.500000
C 0.500000 3.000000 2.500000
C 0.500000 3.500000 2.000000
C 0.250000 3.250000 2.250000
C 0.250000 3.750000 2.750000
C 0.750000 3.250000 2.750000
C 0.750000 3.750000 2.250000
C 1.000000 3.000000 2.000000
C 1.000000 3.500000 2.500000
C 1.500000 3.000000 2.500000
C 1.500000 3.500000 2.000000
C 1.250000 3.250000 2.250000
C 1.250000 3.750000 2.750000
C 1.750000 3.250000 2.750000
C 1.750000 3.750000 2.250000
C 2.000000 3.000000 2.000000
C 2.000000 3.500000 2.500000
C 2.500000 3.000000 2.500000
C 2.500000 3.500000 2.000000
C 2.250000 3.250000 2.250000
C 2.250000 3.750000 2.750000
C 2.750000 3.250000 2.750000
C 2.750000 3.750000 2.250000
C 3.000000 3.000000 2.000000
C 3.000000 3.500000 2.500000
C 3.500000 3.000000 2.500000
C 3.500000 3.500000 2.000000
C 3.250000 3.250000 2.250000
C 3.250000 3.750000 2.750000
C 3.750000 3.250000 2.750000
C 3.750000 3.750000 2.250000
C 4.000000 3.000000 2.000000
C 4.000000 3.500000 2.500000
C 4.500000 3.000000 2.500000
C 4.500000 3.500000 2.000000
C 4.250000 3.250000 2.250000
C 4.250000 3.750000 2.750000
C 4.750000 3.250000 2.750000
C 4.750000 3.750000 2.250000
C 5.000000 3.000000 2.000000
C 5.000000 3.500000 2.500000
C 5.500000 3.000000 2.500000
C 5.500000 3.500000 2.000000
C 5.250000 3.250000 2.250000
C 5.250000 3.750000 2.750000
C 5.750000 3.250000 2.750000
C 5.750000 3.750000 2.250000
C 0.000000 4.000000 2.000000
C 0.000000 4.500000 2.500000
C 0.500000 4.000000 2.500000
C 0.500000 4.500000 2.000000
C 0.250000 4.250000 2.250000
C 0.250000 4.750000 2.750000
C 0.750000 4.250000 2.750000
C 0.750000 4.750000 2.250000
C 1.000000 4.000000 2.000000
C 1.000000 4.500000 2.500000
C 1.500000 4.000000 2.500000
C 1.500000 4.500000 2.000000
C 1.250000 4.250000 2.250000
C 1.250000 4.750000 2.750000
C 1.750000 4.250000 2.750000
C 1.750000 4.750000 2.250000
C 2.000000 4.000000 2.000000
C 2.000000 4.500000 2.500000
C 2.500000 4.000000 2.500000
C 2.500000 4.500000 2.000000
C 2.250000 4.250000 2.250000
C 2.250000 4.750000 2.750000
C 2.750000 4.250000 2.750000
C 2.750000 4.750000 2.250000
C 3.000000 4.000000 2.000000
C 3.000000 4.500000 2.500000
C 3.500000 4.000000 2.500000
C 3.500000 4.500000 2.000000
C 3.250000 4.250000 2.250000
C 3.250000 4.750000 2.750000
C 3.750000 4.250000 2.750000
C 3.750000 4.750000 2.250000
C 4.000000 4.000000 2.000000
C 4.000000 4.500000 2.500000
C 4.500000 4.000000 2.500000
C 4.500000 4.500000 2.000000
C 4.250000 4.250000 2.250000
C 4.250000 4.750000 2.750000
C 4.750000 4.250000 2.750000
C 4.750000 4.750000 2.250000
C 5.000000 4.000000 2.000000
C 5.000000 4.500000 2.500000
C 5.500000 4.000000 2.500000
C 5.500000 4.500000 2.000000
C 5.250000 4.250000 2.250000
C 5.250000 4.750000 2.750000
C 5.750000 4.250000 2.750000
C 5.750000 4.750000 2.250000
C 0.000000 5.000000 2.000000
C 0.000000 5.500000 2.500000
C 0.500000 5.000000 2.500000
C 0.500000 5.500000 2.000000
C 0.250000 5.250000 2.250000
C 0.250000 5.750000 2.750000
C 0.750000 5.250000 2.750000
C 0.750000 5.750000 2.250000
C 1.000000 5.000000 2.000000
C 1.000000 5.500000 2.500000
C 1.500000 5.000000 2.500000
C 1.500000 5.500000 2.000000
C 1.250000 5.250000 2.250000
C 1.250000 5.750000 2.750000
C 1.750000 5.250000 2.750000
C 1.750000 5.750000 2.250000
C 2.000000 5.000000 2.000000
C 2.000000 5.500000 2.500000
C 2.500000 5.000000 2.500000
C 2.500000 5.500000 2.000000
C 2.250000 5.250000 2.250000
C 2.250000 5.750000 2.750000
C 2.750000 5.250000 2.750000
C 2.750000 5.750000 2.250000
C 3.000000 5.000000 2.000000
C 3.000000 5.500000 2.500000
C 3.500000 5.000000 2.500000
C 3.500000 5.500000 2.000000
C 3.250000 5.250000 2.250000
C 3.250000 5.750000 2.750000
C 3.750000 5.250000 2.750000
C 3.750000 5.750000 2.250000
C 4.000000 5.000000 2.000000
C 4.000000 5.500000 2.500000
C 4.500000 5.000000 2.500000
C 4.500000 5.500000 2.000000
C 4.250000 5.250000 2.250000
C 4.250000 5.750000 2.750000
C 4.750000 5.250000 2.750000
C 4.750000 5.750000 2.250000
C 5.000000 5.000000 2.000000
C 5.000000 5.500000 2.500000
C 5.500000 5.000000 2.500000
C 5.500000 5.500000 2.000000
C 5.250000 5.250000 2.250000
C 5.250000 5.750000 2.750000
C 5.750000 5.250000 2.750000
C 5.750000 5.750000 2.250000
C 0.000000 0.000000 3.000000
C 0.000000 0.500000 3.500000
C 0.500000 0.000000 3.500000
C 0.500000 0.500000 3.000000
C 0.250000 0.250000 3.250000
C 0.250000 0.750000 3.750000
C 0.750000 0.250000 3.750000
C 0.750000 0.750000 3.250000
C 1.000000 0.000000 3.000000
C 1.000000 0.500000 3.500000
C 1.500000 0.000000 3.500000
C 1.500000 0.500000 3.000000
C 1.250000 0.250000 3.250000
C 1.250000 0.750000 3.750000
C 1.750000 0.250000 3.750000
C 1.750000 0.750000 3.250000
C 2.000000 0.000000 3.000000
C 2.000000 0.500000 3.500000
C 2.500000 0.000000 3.500000
C 2.500000 0.500000 3.000000
C 2.250000 0.250000 3.250000
C 2.250000 0.750000 3.750000
C 2.750000 0.250000 3.750000
C 2.750000 0.750000 3.250000
C 3.000000 0.000000 3.000000
C 3.000000 0.500000 3.500000
C 3.500000 0.000000 3.500000
C 3.500000 0.500000 3.000000
C 3.250000 0.250000 3.250000
C 3.250000 0.750000 3.750000
C 3.750000 0.250000 3.750000
C 3.750000 0.750000 3.250000
C 4.000000 0.000000 3.000000
C 4.000000 0.500000 3.500000
C 4.500000 0.000000 3.500000
C 4.500000 0.500000 3.000000
C 4.250000 0.250000 3.250000
C 4.250000 0.750000 3.750000
C 4.750000 0.250000 3.750000
C 4.750000 0.750000 3.250000
C 5.000000 0.000000 3.000000
C 5.000000 0.500000 3.500000
C 5.500000 0.000000 3.500000
C 5.500000 0.500000 3.000000
C 5.250000 0.250000 3.250000
C 5.250000 0.750000 3.750000
C 5.750000 0.250000 3.750000
C 5.750000 0.750000 3.250000
C 0.000000 1.000000 3.000000
C 0.000000 1.500000 3.500000
C 0.500000 1.000000 3.500000
C 0.500000 1.500000 3.000000
C 0.250000 1.250000 3.250000
C 0.250000 1.750000 3.750000
C 0.750000 1.250000 3.750000
C 0.750000 1.750000 3.250000
C 1.000000 1.000000 3.000000
C 1.000000 1.500000 3.500000
C 1.500000 1.000000 3.500000
C 1.500000 1.500000 3.000000
C 1.250000 1.250000 3.250000
C 1.250000 1.750000 3.750000
C 1.750000 1.250000 3.750000
C 1.750000 1.750000 3.250000
C 2.000000 1.000000 3.000000
C 2.000000 1.500000 3.500000
C 2.500000 1.000000 3.500000
C 2.500000 1.500000 3.000000
C 2.250000 1.250000 3.250000
C 2.250000 1.750000 3.750000
C 2.750000 1.250000 3.750000
C 2.750000 1.750000 3.250000
C 3.000000 1.000000 3.000000
C 3.000000 1.500000 3.500000
C 3.500000 1.000000 3.500000
C 3.500000 1.500000 3.000000
C 3.250000 1.250000 3.250000
C 3.250000 1.750000 3.750000
C 3.750000 1.250000 3.750000
C 3.750000 1.750000 3.250000
C 4.000000 1.000000 3.000000
C 4.000000 1.500000 3.500000
C 4.500000 1.000000 3.500000
C 4.500000 1.500000 3.000000
C 4.250000 1.250000 3.250000
C 4.250000 1.750000 3.750000
C 4.750000 1.250000 3.750000
C 4.750000 1.750000 3.250000
C 5.000000 1.000000 3.000000
C 5.000000 1.500000 3.500000
C 5.500000 1.000000 3.500000
C 5.500000 1.500000 3.000000
C 5.250000 1.250000 3.250000
C 5.250000 1.750000 3.750000
C 5.750000 1.250000 3.750000
C 5.750000 1.750000 3.250000
C 0.000000 2.000000 3.000000
C 0.000000 2.500000 3.500000
C 0.500000 2.000000 3.500000
C 0.500000 2.500000 3.000000
C 0.250000 2.250000 3.250000
C 0.250000 2.750000 3.750000
C 0.750000 2.250000 3.750000
C 0.750000 2.750000 3.250000
C 1.000000 2.000000 3.000000
C 1.000000 2.500000 3.500000
C 1.500000 2.000000 3.500000
C 1.500000 2.500000 3.000000
C 1.250000 2.250000 3.250000
C 1.250000 2.750000 3.750000
C 1.750000 2.250000 3.750000
C 1.750000 2.750000 3.250000
C 2.000000 2.000000 3.000000
C 2.000000 2.500000 3.500000
C 2.500000 2.000000 3.500000
C 2.500000 2.500000 3.000000
C 2.250000 2.250000 3.250000
C 2.250000 2.750000 3.750000
C 2.750000 2.250000 3.750000
C 2.750000 2.750000 3.250000
C 3.000000 2.000000 3.000000
C 3.000000 2.500000 3.500000
C 3.500000 2.000000 3.500000
C 3.500000 2.500000 3.000000
C 3.250000 2.250000 3.250000
C 3.250000 2.750000 3.750000
C 3.750000 2.250000 3.750000
C 3.750000 2.750000 3.250000
C 4.000000 2.000000 3.000000
C 4.000000 2.500000 3.500000
C 4.500000 2.000000 3.500000
C 4.500000 2.500000 3.000000
C 4.250000 2.250000 3.250000
C 4.250000 2.750000 3.750000
C 4.750000 2.250000 3.750000
C 4.750000 2.750000 3.250000
C 5.000000 2.000000 3.000000
C 5.000000 2.500000 3.500000
C 5.500000 2.000000 3.500000
C 5.500000 2.500000 3.000000
C 5.250000 2.250000 3.250000
C 5.250000 2.750000 3.750000
C 5.750000 2.250000 3.750000
C 5.750000 2.750000 3.250000
C 0.000000 3.000000 3.000000
C 0.000000 3.500000 3.500000
C 0.500000 3.000000 3.500000
C 0.500000 3.500000 3.000000
C 0.250000 3.250000 3.250000
C 0.250000 3.750000 3.750000
C 0.750000 3.250000 3.750000
C 0.750000 3.750000 3.250000
C 1.000000 3.000000 3.000000
C 1.000000 3.500000 3.500000
C 1.500000 3.000000 3.500000
C 1.500000 3.500000 3.000000
C 1.250000 3.250000 3.250000
C 1.250000 3.750000 3.750000
C 1.750000 3.250000 3.750000
C 1.750000 3.750000 3.250000
C 2.000000 3.000000 3.000000
C 2.000000 3.500000 3.500000
C 2.500000 3.000000 3.500000
C 2.500000 3.500000 3.000000
C 2.250000 3.250000 3.250000
C 2.250000 3.750000 3.750000
C 2.750000 3.250000 3.750000
C 2.750000 3.750000 3.250000
C 3.000000 3.000000 3.000000
C 3.000000 3.500000 3.500000
C 3.500000 3.000000 3.500000
C 3.500000 3.500000 3.000000
C 3.250000 3.250000 3.250000
C 3.250000 3.750000 3.750000
C 3.750000 3.250000 3.750000
C 3.750000 3.750000 3.250000
C 4.000000 3.000000 3.000000
C 4.000000 3.500000 3.500000
C 4.500000 3.000000 3.500000
C 4.500000 3.500000 3.000000
C 4.250000 3.250000 3.250000
C 4.250000 3.750000 3.750000
C 4.750000 3.250000 3.750000
C 4.750000 3.750000 3.250000
C 5.000000 3.000000 3.000000
C 5.000000 3.500000 3.500000
C 5.500000 3.000000 3.500000
C 5.500000 3.500000 3.000000
C 5.250000 3.250000 3.250000
C 5.250000 3.750000 3.750000
C 5.750000 3.250000 3.750000
C 5.750000 3.750000 3.250000
C 0.000000 4.000000 3.000000
C 0.000000 4.500000 3.500000
C 0.500000 4.000000 3.500000
C 0.500000 4.500000 3.000000
C 0.250000 4.250000 3.250000
C 0.250000 4.750000 3.750000
C 0.750000 4.250000 3.750000
C 0.750000 4.750000 3.250000
C 1.000000 4.000000 3.000000
C 1.000000 4.500000 3.500000
C 1.500000 4.000000 3.500000
C 1.500000 4.500000 3.000000
C 1.250000 4.250000 3.250000
C 1.250000 4.750000 3.750000
C 1.750000 4.250000 3.750000
C 1.750000 4.750000 3.250000
C 2.000000 4.000000 3.000000
C 2.000000 4.500000 3.500000
C 2.500000 4.000000 3.500000
C 2.500000 4.500000 3.000000
C 2.250000 4.250000 3.250000
C 2.250000 4.750000 3.750000
C 2.750000 4.250000 3.750000
C 2.750000 4.750000 3.250000
C 3.000000 4.000000 3.000000
C 3.000000 4.500000 3.500000
C 3.500000 4.000000 3.500000
C 3.500000 4.500000 3.000000
C 3.250000 4.250000 3.250000
C 3.250000 4.750000 3.750000
C 3.750000 4.250000 3.750000
C 3.750000 4.750000 3.250000
C 4.000000 4.000000 3.000000
C 4.000000 4.500000 3.500000
C 4.500000 4.000000 3.500000
C 4.500000 4.500000 3.000000
C 4.250000 4.250000 3.250000
C 4.250000 4.750000 3.750000
C 4.750000 4.250000 3.750000
C 4.750000 4.750000 3.250000
C 5.000000 4.000000 3.000000
C 5.000000 4.500000 3.500000
C 5.500000 4.000000 3.500000
C 5.500000 4.500000 3.000000
C 5.250000 4.250000 3.250000
C 5.250000 4.750000 3.750000
C 5.750000 4.250000 3.750000
C 5.750000 4.750000 3.250000
C 0.000000 5.000000 3.000000
C 0.000000 5.500000 3.500000
C 0.500000 5.000000 3.500000
C 0.500000 5.500000 3.000000
C 0.250000 5.250000 3.250000
C 0.250000 5.750000 3.750000
C 0.750000 5.250000 3.750000
C 0.750000 5.750000 3.250000
C 1.000000 5.000000 3.000000
C 1.000000 5.500000 3.500000
C 1.500000 5.000000 3.500000
C 1.500000 5.500000 3.000000
C 1.250000 5.250000 3.250000
C 1.250000 5.750000 3.750000
C 1.750000 5.250000 3.750000
C 1.750000 5.750000 3.250000
C 2.000000 5.000000 3.000000
C 2.000000 5.500000 3.500000
C 2.500000 5.000000 3.500000
C 2.500000 5.500000 3.000000
C 2.250000 5.250000 3.250000
C 2.250000 5.750000 3.750000
C 2.750000 5.250000 3.750000
C 2.750000 5.750000 3.250000
C 3.000000 5.000000 3.000000
C 3.000000 5.500000 3.500000
C 3.500000 5.000000 3.500000
C 3.500000 5.500000 3.000000
C 3.250000 5.250000 3.250000
C 3.250000 5.750000 3.750000
C 3.750000 5.250000 3.750000
C 3.750000 5.750000 3.250000
C 4.000000 5.000000 3.000000
C 4.000000 5.500000 3.500000
C 4.500000 5.000000 3.500000
C 4.500000 5.500000 3.000000
C 4.250000 5.250000 3.250000
C 4.250000 5.750000 3.750000
C 4.750000 5.250000 3.750000
C 4.750000 5.750000 3.250000
C 5.000000 5.000000 3.000000
C 5.000000 5.500000 3.500000
C 5.500000 5.000000 3.500000
C 5.500000 5.500000 3.000000
C 5.250000 5.250000 3.250000
C 5.250000 5.750000 3.750000
C 5.750000 5.250000 3.750000
C 5.750000 5.750000 3.250000
C 0.000000 0.000000 4.000000
C 0.000000 0.500000 4.500000
C 0.500000 0.000000 4.500000
C 0.500000 0.500000 4.000000
C 0.250000 0.250000 4.250000
C 0.250000 0.750000 4.750000
C 0.750000 0.250000 4.750000
C 0.750000 0.750000 4.250000
C 1.000000 0.000000 4.000000
C 1.000000 0.500000 4.500000
C 1.500000 0.000000 4.500000
C 1.500000 0.500000 4.000000
C 1.250000 0.250000 4.250000
C 1.250000 0.750000 4.750000
C 1.750000 0.250000 4.750000
C 1.750000 0.750000 4.250000
C 2.000000 0.000000 4.000000
C 2.000000 0.500000 4.500000
C 2.500000 0.000000 4.500000
C 2.500000 0.500000 4.000000
C 2.250000 0.250000 4.250000
C 2.250000 0.750000 4.750000
C 2.750000 0.250000 4.750000
C 2.750000 0.750000 4.250000
C 3.000000 0.000000 4.000000
C 3.000000 0.500000 4.500000
C 3.500000 0.000000 4.500000
C 3.500000 0.500000 4.000000
C 3.250000 0.250000 4.250000
C 3.250000 0.750000 4.750000
C 3.750000 0.250000 4.750000
C 3.750000 0.750000 4.250000
C 4.000000 0.000000 4.000000
C 4.000000 0.500000 4.500000
C 4.500000 0.000000 4.500000
C 4.500000 0.500000 4.000000
C 4.250000 0.250000 4.250000
C 4.250000 0.750000 4.750000
C 4.750000 0.250000 4.750000
C 4.750000 0.750000 4.250000
C 5.000000 0.000000 4.000000
C 5.000000 0.500000 4.500000
C 5.500000 0.000000 4.500000
C 5.500000 0.500000 4.000000
C 5.250000 0.250000 4.250000
C 5.250000 0.750000 4.750000
C 5.750000 0.250000 4.750000
C 5.750000 0.750000 4.250000
C 0.000000 1.000000 4.000000
C 0.000000 1.500000 4.500000
C 0.500000 1.000000 4.500000
C 0.500000 1.500000 4.000000
C 0.250000 1.250000 4.250000
C 0.250000 1.750000 4.750000
C 0.750000 1.250000 4.750000
C 0.750000 1.750000 4.250000
C 1.000000 1.000000 4.000000
C 1.000000 1.500000 4.500000
C 1.500000 1.000000 4.500000
C 1.500000 1.500000 4.000000
C 1.250000 1.250000 4.250000
C 1.250000 1.750000 4.750000
C 1.750000 1.250000 4.750000
C 1.750000 1.750000 4.250000
C 2.000000 1.000000 4.000000
C 2.000000 1.500000 4.500000
C 2.500000 1.000000 4.500000
C 2.500000 1.500000 4.000000
C 2.250000 1.250000 4.250000
C 2.250000 1.750000 4.750000
C 2.750000 1.250000 4.750000
C 2.750000 1.750000 4.250000
C 3.000000 1.000000 4.000000
C 3.000000 1.500000 4.500000
C 3.500000 1.000000 4.500000
C 3.500000 1.500000 4.000000
C 3.250000 1.250000 4.250000
C 3.250000 1.750000 4.750000
C 3.750000 1.250000 4.750000
C 3.750000 1.750000 4.250000
C 4.000000 1.000000 4.000000
C 4.000000 1.500000 4.500000
C 4.500000 1.000000 4.500000
C 4.500000 1.500000 4.000000
C 4.250000 1.250000 4.250000
C 4.250000 1.750000 4.750000
C 4.750000 1.250000 4.750000
C 4.750000 1.750000 4.250000
C 5.000000 1.000000 4.000000
C 5.000000 1.500000 4.500000
C 5.500000 1.000000 4.500000
C 5.500000 1.500000 4.000000
C 5.250000 1.250000 4.250000
C 5.250000 1.750000 4.750000
C 5.750000 1.250000 4.750000
C 5.750000 1.750000 4.250000
C 0.000000 2.000000 4.000000
C 0.000000 2.500000 4.500000
C 0.500000 2.000000 4.500000
C 0.500000 2.500000 4.000000
C 0.250000 2.250000 4.250000
C 0.250000 2.750000 4.750000
C 0.750000 2.250000 4.750000
C 0.750000 2.750000 4.250000
C 1.000000 2.000000 4.000000
C 1.000000 2.500000 4.500000
C 1.500000 2.000000 4.500000
C 1.500000 2.500000 4.000000
C 1.250000 2.250000 4.250000
C 1.250000 2.750000 4.750000
C 1.750000 2.250000 4.750000
C 1.750000 2.750000 4.250000
C 2.000000 2.000000 4.000000
C 2.000000 2.500000 4.500000
C 2.500000 2.000000 4.500000
C 2.500000 2.500000 4.000000
C 2.250000 2.250000 4.250000
C 2.250000 2.750000 4.750000
C 2.750000 2.250000 4.750000
C 2.750000 2.750000 4.250000
C 3.000000 2.000000 4.000000
C 3.000000 2.500000 4.500000
C 3.500000 2.000000 4.500000
C 3.500000 2.500000 4.000000
C 3.250000 2.250000 4.250000
C 3.250000 2.750000 4.750000
C 3.750000 2.250000 4.750000
C 3.750000 2.750000 4.250000
C 4.000000 2.000000 4.000000
C 4.000000 2.500000 4.500000
C 4.500000 2.000000 4.500000
C 4.500000 2.500000 4.000000
C 4.250000 2.250000 4.250000
C 4.250000 2.750000 4.750000
C 4.750000 2.250000 4.750000
C 4.750000 2.750000 4.250000
C 5.000000 2.000000 4.000000
C 5.000000 2.500000 4.500000
C 5.500000 2.000000 4.500000
C 5.500000 2.500000 4.000000
C 5.250000 2.250000 4.250000
C 5.250000 2.750000 4.750000
C 5.750000 2.250000 4.750000
C 5.750000 2.750000 4.250000
C 0.000000 3.000000 4.000000
C 0.000000 3.500000 4.500000
C 0.500000 3.000000 4.500000
C 0.500000 3.500000 4.000000
C 0.250000 3.250000 4.250000
C 0.250000 3.750000 4.750000
C 0.750000 3.250000 4.750000
C 0.750000 3.750000 4.250000
C 1.000000 3.000000 4.000000
C 1.000000 3.500000 4.500000
C 1.500000 3.000000 4.500000
C 1.500000 3.500000 4.000000
C 1.250000 3.250000 4.250000
C 1.250000 3.750000 4.750000
C 1.750000 3.250000 4.750000
C 1.750000 3.750000 4.250000
C 2.000000 3.000000 4.000000
C 2.000000 3.500000 4.500000
C 2.500000 3.000000 4.500000
C 2.500000 3.500000 4.000000
C 2.250000 3.250000 4.250000
C 2.250000 3.750000 4.750000
C 2.750000 3.250000 4.750000
C 2.750000 3.750000 4.250000
C 3.000000 3.000000 4.000000
C 3.000000 3.500000 4.500000
C 3.500000 3.000000 4.500000
C 3.500000 3.500000 4.000000
C 3.250000 3.250000 4.250000
C 3.250000 3.750000 4.750000
C 3.750000 3.250000 4.750000
C 3.750000 3.750000 4.250000
C 4.000000 3.000000 4.000000
C 4.000000 3.500000 4.500000
C 4.500000 3.000000 4.500000
C 4.500000 3.500000 4.000000
C 4.250000 3.250000 4.250000
C 4.250000 3.750000 4.750000
C 4.750000 3.250000 4.750000
C 4.750000 3.750000 4.250000
C 5.000000 3.000000 4.000000
C 5.000000 3.500000 4.500000
C 5.500000 3.000000 4.500000
C 5.500000 3.500000 4.000000
C 5.250000 3.250000 4.250000
C 5.250000 3.750000 4.750000
C 5.750000 3.250000 4.750000
C 5.750000 3.750000 4.250000
C 0.000000 4.000000 4.000000
C 0.000000 4.500000 4.500000
C 0.500000 4.000000 4.500000
C 0.500000 4.500000 4.000000
C 0.250000 4.250000 4.250000
C 0.250000 4.750000 4.750000
C 0.750000 4.250000 4.750000
C 0.750000 4.750000 4.250000
C 1.000000 4.000000 4.000000
C 1.000000 4.500000 4.500000
C 1.500000 4.000000 4.500000
C 1.500000 4.500000 4.000000
C 1.250000 4.250000 4.250000
C 1.250000 4.750000 4.750000
C 1.750000 4.250000 4.750000
C 1.750000 4.750000 4.250000
C 2.000000 4.000000 4.000000
C 2.000000 4.500000 4.500000
C 2.500000 4.000000 4.500000
C 2.500000 4.500000 4.000000
C 2.250000 4.250000 4.250000
C 2.250000 4.750000 4.750000
C 2.750000 4.250000 4.750000
C 2.750000 4.750000 4.250000
C 3.000000 4.000000 4.000000
C 3.000000 4.500000 4.500000
C 3.500000 4.000000 4.500000
C 3.500000 4.500000 4.000000
C 3.250000 4.250000 4.250000
C 3.250000 4.750000 4.750000
C 3.750000 4.250000 4.750000
C 3.750000 4.750000 4.250000
C 4.000000 4.000000 4.000000
C 4.000000 4.500000 4.500000
C 4.500000 4.000000 4.500000
C 4.500000 4.500000 4.000000
C 4.250000 4.250000 4.250000
C 4.250000 4.750000 4.750000
C 4.750000 4.250000 4.750000
C 4.750000 4.750000 4.250000
C 5.000000 4.000000 4.000000
C 5.000000 4.500000 4.500000
C 5.500000 4.000000 4.500000
C 5.500000 4.500000 4.000000
C 5.250000 4.250000 4.250000
C 5.250000 4.750000 4.750000
C 5.750000 4.250000 4.750000
C 5.750000 4.750000 4.250000
C 0.000000 5.000000 4.000000
C 0.000000 5.500000 4.500000
C 0.500000 5.000000 4.500000
C 0.500000 5.500000 4.000000
C 0.250000 5.250000 4.250000
C 0.250000 5.750000 4.750000
C 0.750000 5.250000 4.750000
C 0.750000 5.750000 4.250000
C 1.000000 5.000000 4.000000
C 1.000000 5.500000 4.500000
C 1.500000 5.000000 4.500000
C 1.500000 5.500000 4.000000
C 1.250000 5.250000 4.250000
C 1.250000 5.750000 4.750000
C 1.750000 5.250000 4.750000
C 1.750000 5.750000 4.250000
C 2.000000 5.000000 4.000000
C 2.000000 5.500000 4.500000
C 2.500000 5.000000 4.500000
C 2.500000 5.500000 4.000000
C 2.250000 5.250000 4.250000
C 2.250000 5.750000 4.750000
C 2.750000 5.250000 4.750000
C 2.750000 5.750000 4.250000
C 3.000000 5.000000 4.000000
C 3.000000 5.500000 4.500000
C 3.500000 5.000000 4.500000
C 3.500000 5.500000 4.000000
C 3.250000 5.250000 4.250000
C 3.250000 5.750000 4.750000
C 3.750000 5.250000 4.750000
C 3.750000 5.750000 4.250000
C 4.000000 5.000000 4.000000
C 4.000000 5.500000 4.500000
C 4.500000 5.000000 4.500000
C 4.500000 5.500000 4.000000
C 4.250000 5.250000 4.250000
C 4.250000 5.750000 4.750000
C 4.750000 5.250000 4.750000
C 4.750000 5.750000 4.250000
C 5.000000 5.000000 4.000000
C 5.000000 5.500000 4.500000
C 5.500000 5.000000 4.500000
C 5.500000 5.500000 4.000000
C 5.250000 5.250000 4.250000
C 5.250000 5.750000 4.750000
C 5.750000 5.250000 4.750000
C 5.750000 5.750000 4.250000
C 0.000000 0.000000 5.000000
C 0.000000 0.500000 5.500000
C 0.500000 0.000000 5.500000
C 0.500000 0.500000 5.000000
C 0.250000 0.250000 5.250000
C 0.250000 0.750000 5.750000
C 0.750000 0.250000 5.750000
C 0.750000 0.750000 5.250000
C 1.000000 0.000000 5.000000
C 1.000000 0.500000 5.500000
C 1.500000 0.000000 5.500000
C 1.500000 0.500000 5.000000
C 1.250000 0.250000 5.250000
C 1.250000 0.750000 5.750000
C 1.750000 0.250000 5.750000
C 1.750000 0.750000 5.250000
C 2.000000 0.000000 5.000000
C 2.000000 0.500000 5.500000
C 2.500000 0.000000 5.500000
C 2.500000 0.500000 5.000000
C 2.250000 0.250000 5.250000
C 2.250000 0.750000 5.750000
C 2.750000 0.250000 5.750000
C 2.750000 0.750000 5.250000
C 3.000000 0.000000 5.000000
C 3.000000 0.500000 5.500000
C 3.500000 0.000000 5.500000
C 3.500000 0.500000 5.000000
C 3.250000 0.250000 5.250000
C 3.250000 0.750000 5.750000
C 3.750000 0.250000 5.750000
C 3.750000 0.750000 5.250000
C 4.000000 0.000000 5.000000
C 4.000000 0.500000 5.500000
C 4.500000 0.000000 5.500000
C 4.500000 0.500000 5.000000
C 4.250000 0.250000 5.250000
C 4.250000 0.750000 5.750000
C 4.750000 0.250000 5.750000
C 4.750000 0.750000 5.250000
C 5.000000 0.000000 5.000000
C 5.000000 0.500000 5.500000
C 5.500000 0.000000 5.500000
C 5.500000 0.500000 5.000000
C 5.250000 0.250000 5.250000
C 5.250000 0.750000 5.750000
C 5.750000 0.250000 5.750000
C 5.750000 0.750000 5.250000
C 0.000000 1.000000 5.000000
C 0.000000 1.500000 5.500000
C 0.500000 1.000000 5.500000
C 0.500000 1.500000 5.000000
C 0.250000 1.250000 5.250000
C 0.250000 1.750000 5.750000
C 0.750000 1.250000 5.750000
C 0.750000 1.750000 5.250000
C 1.000000 1.000000 5.000000
C 1.000000 1.500000 5.500000
C 1.500000 1.000000 5.500000
C 1.500000 1.500000 5.000000
C 1.250000 1.250000 5.250000
C 1.250000 1.750000 5.750000
C 1.750000 1.250000 5.750000
C 1.750000 1.750000 5.250000
C 2.000000 1.000000 5.000000
C 2.000000 1.500000 5.500000
C 2.500000 1.000000 5.500000
C 2.500000 1.500000 5.000000
C 2.250000 1.250000 5.250000
C 2.250000 1.750000 5.750000
C 2.750000 1.250000 5.750000
C 2.750000 1.750000 5.250000
C 3.000000 1.000000 5.000000
C 3.000000 1.500000 5.500000
C 3.500000 1.000000 5.500000
C 3.500000 1.500000 5.000000
C 3.250000 1.250000 5.250000
C 3.250000 1.750000 5.750000
C 3.750000 1.250000 5.750000
C 3.750000 1.750000 5.250000
C 4.000000 1.000000 5.000000
C 4.000000 1.500000 5.500000
C 4.500000 1.000000 5.500000
C 4.500000 1.500000 5.000000
C 4.250000 1.250000 5.250000
C 4.250000 1.750000 5.750000
C 4.750000 1.250000 5.750000
C 4.750000 1.750000 5.250000
C 5.000000 1.000000 5.000000
C 5.000000 1.500000 5.500000
C 5.500000 1.000000 5.500000
C 5.500000 1.500000 5.000000
C 5.250000 1.250000 5.250000
C 5.250000 1.750000 5.750000
C 5.750000 1.250000 5.750000
C 5.750000 1.750000 5.250000
C 0.000000 2.000000 5.000000
C 0.000000 2.500000 5.500000
C 0.500000 2.000000 5.500000
C 0.500000 2.500000 5.000000
C 0.250000 2.250000 5.250000
C 0.250000 2.750000 5.750000
C 0.750000 2.250000 5.750000
C 0.750000 2.750000 5.250000
C 1.000000 2.000000 5.000000
C 1.000000 2.500000 5.500000
C 1.500000 2.000000 5.500000
C 1.500000 2.500000 5.000000
C 1.250000 2.250000 5.250000
C 1.250000 2.750000 5.750000
C 1.750000 2.250000 5.750000
C 1.750000 2.750000 5.250000
C 2.000000 2.000000 5.000000
C 2.000000 2.500000 5.500000
C 2.500000 2.000000 5.500000
C 2.500000 2.500000 5.000000
C 2.250000 2.250000 5.250000
C 2.250000 2.750000 5.750000
C 2.750000 2.250000 5.750000
C 2.750000 2.750000 5.250000
C 3.000000 2.000000 5.000000
C 3.000000 2.500000 5.500000
C 3.500000 2.000000 5.500000
C 3.500000 2.500000 5.000000
C 3.250000 2.250000 5.250000
C 3.250000 2.750000 5.750000
C 3.750000 2.250000 5.750000
C 3.750000 2.750000 5.250000
C 4.000000 2.000000 5.000000
C 4.000000 2.500000 5.500000
C 4.500000 2.000000 5.500000
C 4.500000 2.500000 5.000000
C 4.250000 2.250000 5.250000
C 4.250000 2.750000 5.750000
C 4.750000 2.250000 5.750000
C 4.750000 2.750000 5.250000
C 5.000000 2.000000 5.000000
C 5.000000 2.500000 5.500000
C 5.500000 2.000000 5.500000
C 5.500000 2.500000 5.000000
C 5.250000 2.250000 5.250000
C 5.250000 2.750000 5.750000
C 5.750000 2.250000 5.750000
C 5.750000 2.750000 5.250000
C 0.000000 3.000000 5.000000
C 0.000000 3.500000 5.500000
C 0.500000 3.000000 5.500000
C 0.500000 3.500000 5.000000
C 0.250000 3.250000 5.250000
C 0.250000 3.750000 5.750000
C 0.750000 3.250000 5.750000
C 0.750000 3.750000 5.250000
C 1.000000 3.000000 5.000000
C 1.000000 3.500000 5.500000
C 1.500000 3.000000 5.500000
C 1.500000 3.500000 5.000000
C 1.250000 3.250000 5.250000
C 1.250000 3.750000 5.750000
C 1.750000 3.250000 5.750000
C 1.750000 3.750000 5.250000
C 2.000000 3.000000 5.000000
C 2.000000 3.500000 5.500000
C 2.500000 3.000000 5.500000
C 2.500000 3.500000 5.000000
C 2.250000 3.250000 5.250000
C 2.250000 3.750000 5.750000
C 2.750000 3.250000 5.750000
C 2.750000 3.750000 5.250000
C 3.000000 3.000000 5.000000
C 3.000000 3.500000 5.500000
C 3.500000 3.000000 5.500000
C 3.500000 3.500000 5.000000
C 3.250000 3.250000 5.250000
C 3.250000 3.750000 5.750000
C 3.750000 3.250000 5.750000
C 3.750000 3.750000 5.250000
C 4.000000 3.000000 5.000000
C 4.000000 3.500000 5.500000
C 4.500000 3.000000 5.500000
C 4.500000 3.500000 5.000000
C 4.250000 3.250000 5.250000
C 4.250000 3.750000 5.750000
C 4.750000 3.250000 5.750000
C 4.750000 3.750000 5.250000
C 5.000000 3.000000 5.000000
C 5.000000 3.500000 5.500000
C 5.500000 3.000000 5.500000
C 5.500000 3.500000 5.000000
C 5.250000 3.250000 5.250000
C 5.250000 3.750000 5.750000
C 5.750000 3.250000 5.750000
C 5.750000 3.750000 5.250000
C 0.000000 4.000000 5.000000
C 0.000000 4.500000 5.500000
C 0.500000 4.000000 5.500000
C 0.500000 4.500000 5.000000
C 0.250000 4.250000 5.250000
C 0.250000 4.750000 5.750000
C 0.750000 4.250000 5.750000
C 0.750000 4.750000 5.250000
C 1.000000 4.000000 5.000000
C 1.000000 4.500000 5.500000
C 1.500000 4.000000 5.500000
C 1.500000 4.500000 5.000000
C 1.250000 4.250000 5.250000
C 1.250000 4.750000 5.750000
C 1.750000 4.250000 5.750000
C 1.750000 4.750000 5.250000
C 2.000000 4.000000 5.000000
C 2.000000 4.500000 5.500000
C 2.500000 4.000000 5.500000
C 2.500000 4.500000 5.000000
C 2.250000 4.250000 5.250000
C 2.250000 4.750000 5.750000
C 2.750000 4.250000 5.750000
C 2.750000 4.750000 5.250000
C 3.000000 4.000000 5.000000
C 3.000000 4.500000 5.500000
C 3.500000 4.000000 5.500000
C 3.500000 4.500000 5.000000
C 3.250000 4.250000 5.250000
C 3.250000 4.750000 5.750000
C 3.750000 4.250000 5.750000
C 3.750000 4.750000 5.250000
C 4.000000 4.000000 5.000000
C 4.000000 4.500000 5.500000
C 4.500000 4.000000 5.500000
C 4.500000 4.500000 5.000000
C 4.250000 4.250000 5.250000
C 4.250000 4.750000 5.750000
C 4.750000 4.250000 5.750000
C 4.750000 4.750000 5.250000
C 5.000000 4.000000 5.000000
C 5.000000 4.500000 5.500000
C 5.500000 4.000000 5.500000
C 5.500000 4.500000 5.000000
C 5.250000 4.250000 5.250000
C 5.250000 4.750000 5.750000
C 5.750000 4.250000 5.750000
C 5.750000 4.750000 5.250000
C 0.000000 5.000000 5.000000
C 0.000000 5.500000 5.500000
C 0.500000 5.000000 5.500000
C 0.500000 5.500000 5.000000
C 0.250000 5.250000 5.250000
C 0.250000 5.750000 5.750000
C 0.750000 5.250000 5.750000
C 0.750000 5.750000 5.250000
C 1.000000 5.000000 5.000000
C 1.000000 5.500000 5.500000
C 1.500000 5.000000 5.500000
C 1.500000 5.500000 5.000000
C 1.250000 5.250000 5.250000
C 1.250000 5.750000 5.750000
C 1.750000 5.250000 5.750000
C 1.750000 5.750000 5.250000
C 2.000000 5.000000 5.000000
C 2.000000 5.500000 5.500000
C 2.500000 5.000000 5.500000
C 2.500000 5.500000 5.000000
C 2.250000 5.250000 5.250000
C 2.250000 5.750000 5.750000
C 2.750000 5.250000 5.750000
C 2.750000 5.750000 5.250000
C 3.000000 5.000000 5.000000
C 3.000000 5.500000 5.500000
C 3.500000 5.000000 5.500000
C 3.500000 5.500000 5.000000
C 3.250000 5.250000 5.250000
C 3.250000 5.750000 5.750000
C 3.750000 5.250000 5.750000
C 3.750000 5.750000 5.250000
C 4.000000 5.000000 5.000000
C 4.000000 5.500000 5.500000
C 4.500000 5.000000 5.500000
C 4.500000 5.500000 5.000000
C 4.250000 5.250000 5.250000
C 4.250000 5.750000 5.750000
C 4.750000 5.250000 5.750000
C 4.750000 5.750000 5.250000
C 5.000000 5.000000 5.000000
C 5.000000 5.500000 5.500000
C 5.500000 5.000000 5.500000
C 5.500000 5.500000 5.000000
C 5.250000 5.250000 5.250000
C 5.250000 5.750000 5.750000
C 5.750000 5.250000 5.750000
C 5.750000 5.750000 5.250000
1728
Frame 2/10
C 0.017218 0.000540 0.010312
C 0.013884 0.493168 0.498074
C 0.515914 0.017863 0.498712
C 0.501446 0.495494 0.016562
C 0.261744 0.247293 0.252081
C 0.246724 0.749866 0.739695
C 0.741977 0.240512 0.757381
C 0.755179 0.768018 0.250751
C 0.998193 0.010326 0.011745
C 0.996563 0.512019 0.494739
C 1.506325 0.011931 0.505220
C 1.516094 0.490489 0.002025
C 1.232689 0.254638 0.248347
C 1.249097 0.746117 0.749636
C 1.757336 0.259889 0.729028
C 1.742840 0.744559 0.232759
C 2.011285 0.004207 0.001276
C 1.984885 0.511756 0.499500
C 2.519856 0.004361 0.510572
C 2.518702 0.493122 0.003951
C 2.258494 0.229907 0.250851
C 2.246034 0.743777 0.770959
C 2.763870 0.240616 0.748825
C 2.762660 0.743247 0.261216
C 2.988182 0.010049 0.007483
C 3.006458 0.505890 0.503539
C 3.512500 0.012680 0.491850
C 3.519435 0.507855 0.003408
C 3.263364 0.251163 0.253767
C 3.243092 0.753155 0.731547
C 3.734303 0.244837 0.743369
C 3.758511 0.751924 0.244478
C 4.016675 0.000947 0.015240
C 4.008602 0.513688 0.503498
C 4.498581 0.013937 0.484317
C 4.497932 0.497827 0.004745
C 4.237236 0.247033 0.265450
C 4.241603 0.753757 0.751193
C 4.751255 0.250357 0.768771
C 4.746439 0.749223 0.240731
C 4.977994 0.015516 0.007109
C 4.994742 0.496118 0.478240
C 5.484098 0.013494 0.514840
C 5.516601 0.500526 0.002606
C 5.250432 0.248695 0.230239
C 5.242935 0.741454 0.757031
C 5.743397 0.252894 0.750282
C 5.729698 0.743134 0.245718
C 0.002159 0.993818 0.014145
C 0.000819 1.494408 0.510038
C 0.496101 0.986621 0.488232
C 0.497745 1.496996 0.005955
C 0.250172 1.236415 0.250481
C 0.234492 1.751663 0.764158
C 0.756111 1.265597 0.750492
C 0.750916 1.734815 0.237949
C 1.003001 0.980047 0.011176
C 1.005151 1.513498 0.500385
C 1.492281 0.995026 0.499387
C 1.494101 1.486848 0.004882
C 1.252728 1.237420 0.245684
C 1.246817 1.749539 0.757538
C 1.755400 1.236816 0.742235
C 1.748759 1.744449 0.228764
C 1.997801 1.003700 0.000166
C 1.998854 1.508288 0.491821
C 2.502567 1.003454 0.518013
C 2.478792 1.505395 0.001412
C 2.250770 1.239425 0.236588
C 2.233852 1.740693 0.749020
C 2.741813 1.248961 0.731433
C 2.764485 1.740253 0.239373
C 2.986198 1.008828 0.019881
C 2.997935 1.489084 0.514095
C 3.499846 1.000548 0.488589
C 3.506204 1.524875 0.005348
C 3.236410 1.240842 0.242316
C 3.253346 1.737480 0.767186
C 3.746522 1.247461 0.740194
C 3.758343 1.743333 0.238609
C 4.008602 0.987436 0.000693
C 4.019337 1.502018 0.505566
C 4.510099 0.993270 0.487702
C 4.520166 1.483792 0.003724
C 4.261835 1.248994 0.258742
C 4.245928 1.754094 0.762626
C 4.740129 1.253275 0.769106
C 4.743803 1.771511 0.255077
C 4.978872 1.001385 0.003964
C 5.016687 1.495824 0.504152
C 5.485130 1.002909 0.506493
C 5.513711 1.504413 0.000042
C 5.247202 1.263119 0.250509
C 5.245490 1.747481 0.732374
C 5.743782 1.237631 0.752666
C 5.732182 1.748832 0.243777
C 0.024748 2.002339 0.015491
C 0.007422 2.493401 0.519666
C 0.502455 1.998652 0.489910
C 0.493796 2.503622 0.015085
C 0.242089 2.258848 0.239384
C 0.248043 2.737096 0.756834
C 0.759504 2.256697 0.762179
C 0.765850 2.751541 0.241923
C 0.998175 2.017856 0.001084
C 0.990888 2.513675 0.488846
C 1.505258 2.013425 0.502472
C 1.498116 2.516017 0.017975
C 1.252588 2.243581 0.246484
C 1.247717 2.761905 0.738826
C 1.758239 2.236668 0.747053
C 1.754627 2.755621 0.267925
C 2.016765 1.995529 0.011210
C 2.018044 2.509027 0.497027
C 2.503505 1.997101 0.510527
C 2.512675 2.520495 0.004149
C 2.240038 2.246657 0.238204
C 2.265985 2.770038 0.745565
C 2.758599 2.236391 0.747471
C 2.754037 2.723949 0.244771
C 2.990106 2.013764 0.006263
C 3.009989 2.484596 0.505908
C 3.515501 2.011811 0.504826
C 3.501297 2.490557 0.005856
C 3.249080 2.264953 0.237540
C 3.245746 2.762157 0.741213
C 3.753937 2.231056 0.763793
C 3.733549 2.738221 0.245989
C 3.983032 1.995803 0.001782
C 4.010714 2.481433 0.486444
C 4.486007 1.996573 0.494563
C 4.517097 2.521776 0.004092
C 4.234350 2.251387 0.234891
C 4.237646 2.755656 0.760959
C 4.735336 2.238849 0.751741
C 4.764980 2.742661 0.255373
C 5.003650 1.987345 0.007635
C 5.010288 2.505442 0.513942
C 5.480058 1.996182 0.500997
C 5.501215 2.472463 0.005866
C 5.261976 2.235752 0.249518
C 5.260153 2.752201 0.759291
C 5.740203 2.259005 0.761466
C 5.737710 2.748015 0.239697
C 0.011896 2.986893 0.002799
C 0.003040 3.500283 0.479932
C 0.497771 2.986220 0.491514
C 0.498620 3.513840 0.000725
C 0.244723 3.255396 0.240948
C 0.264227 3.749169 0.737667
C 0.736289 3.242097 0.755803
C 0.764353 3.754887 0.251723
C 0.975773 2.994512 0.003273
C 0.989043 3.488106 0.492304
C 1.505610 3.001072 0.506104
C 1.516530 3.497842 0.017263
C 1.227783 3.256586 0.244409
C 1.260388 3.742496 0.742826
C 1.744251 3.250457 0.760507
C 1.762994 3.760514 0.238194
C 1.992213 3.011785 0.004616
C 2.007962 3.483390 0.513296
C 2.508529 2.998488 0.490518
C 2.500300 3.500998 0.006303
C 2.236853 3.256802 0.254628
C 2.235064 3.746899 0.747683
C 2.762150 3.233932 0.754660
C 2.771084 3.751630 0.244368
C 2.990309 2.999879 0.002148
C 3.007708 3.484997 0.482626
C 3.517996 2.999636 0.487247
C 3.488897 3.503434 0.017629
C 3.256114 3.249132 0.253476
C 3.246702 3.767614 0.747237
C 3.763514 3.254749 0.750499
C 3.747033 3.756779 0.235932
C 3.980933 2.993663 0.008013
C 3.996482 3.492120 0.499465
C 4.494897 2.991871 0.480809
C 4.499484 3.500466 0.015443
C 4.230901 3.262214 0.237639
C 4.251630 3.734858 0.740032
C 4.763759 3.254798 0.737497
C 4.752118 3.761131 0.232036
C 5.001294 3.009779 0.000757
C 4.980981 3.502289 0.498749
C 5.504991 3.013368 0.503788
C 5.500754 3.488574 0.019231
C 5.235486 3.256993 0.247039
C 5.249555 3.727856 0.747473
C 5.746628 3.242356 0.760585
C 5.749341 3.742886 0.261279
C 0.001574 4.008662 0.015111
C 0.000151 4.488283 0.485107
C 0.511248 4.007934 0.516306
C 0.506788 4.509659 0.011517
C 0.246759 4.248074 0.245643
C 0.239016 4.760300 0.749264
C 0.749154 4.254059 0.761756
C 0.752908 4.733954 0.255440
C 0.999479 4.025463 0.014814
C 0.996439 4.497716 0.508901
C 1.515912 4.012170 0.490902
C 1.474078 4.492066 0.002512
C 1.246195 4.229064 0.255897
C 1.241216 4.771188 0.738419
C 1.736189 4.255371 0.749567
C 1.739444 4.756540 0.268072
C 2.019886 4.015711 0.005033
C 2.000133 4.512566 0.484567
C 2.506071 3.991189 0.515569
C 2.485010 4.515941 0.015015
C 2.254102 4.263623 0.235337
C 2.261806 4.746163 0.751244
C 2.737476 4.254926 0.740900
C 2.750132 4.751305 0.262340
C 3.008331 4.002397 0.004686
C 3.001084 4.487098 0.501809
C 3.499088 3.997783 0.518072
C 3.500551 4.522764 0.003070
C 3.267573 4.244496 0.247341
C 3.251172 4.758597 0.753479
C 3.765583 4.244685 0.755923
C 3.746849 4.747405 0.246117
C 4.000864 3.994935 0.001304
C 4.009719 4.501544 0.503760
C 4.491111 3.981953 0.485318
C 4.509261 4.515041 0.016898
C 4.262735 4.240358 0.260273
C 4.267829 4.736800 0.735442
C 4.755679 4.241026 0.753926
C 4.738589 4.754204 0.263048
C 5.010085 3.984059 0.007933
C 4.997976 4.487738 0.502500
C 5.504821 3.992059 0.516018
C 5.494696 4.494590 0.002114
C 5.244832 4.253582 0.260733
C 5.262269 4.766219 0.740757
C 5.734181 4.254164 0.741282
C 5.745571 4.758210 0.258377
C 0.000109 5.016016 0.022461
C 0.001971 5.486439 0.480927
C 0.500813 4.989601 0.502648
C 0.497713 5.516904 0.001776
C 0.257141 5.244177 0.247448
C 0.246324 5.740622 0.761935
C 0.733546 5.255448 0.743059
C 0.748625 5.745178 0.264316
C 1.014096 4.985154 0.006883
C 1.003582 5.516044 0.503661
C 1.485815 4.994816 0.487018
C 1.516196 5.483278 0.005910
C 1.264361 5.257026 0.249581
C 1.246159 5.725059 0.746387
C 1.756276 5.258245 0.771420
C 1.754906 5.747824 0.254539
C 1.981009 5.005224 0.001013
C 1.992903 5.502013 0.523446
C 2.507857 5.010810 0.514101
C 2.518183 5.491539 0.011940
C 2.247744 5.265289 0.251283
C 2.244785 5.744931 0.750592
C 2.767113 5.256821 0.742306
C 2.734125 5.743439 0.240667
C 3.009105 4.984245 0.000183
C 3.000806 5.507052 0.508412
C 3.500850 4.989892 0.491052
C 3.486486 5.510515 0.014730
C 3.231178 5.243044 0.250650
C 3.273560 5.735426 0.733939
C 3.743040 5.252444 0.757218
C 3.747131 5.736355 0.266188
C 3.978526 5.006871 0.000622
C 3.989014 5.482205 0.508401
C 4.515249 5.002149 0.507918
C 4.491917 5.483189 0.007737
C 4.272620 5.243393 0.254023
C 4.245721 5.736844 0.742802
C 4.743557 5.257466 0.735589
C 4.775607 5.736959 0.255884
C 4.991748 4.996019 0.015700
C 5.009830 5.493428 0.505312
C 5.496642 4.997080 0.483368
C 5.504219 5.484291 0.005302
C 5.242209 5.240919 0.256901
C 5.269340 5.737435 0.748505
C 5.748644 5.242555 0.730699
C 5.747758 5.736433 0.232473
C 0.005487 0.006753 0.998922
C 0.007658 0.490980 1.482580
C 0.493306 0.012982 1.482114
C 0.505366 0.485697 0.990180
C 0.257997 0.229272 1.233712
C 0.233683 0.739532 1.751086
C 0.735322 0.256165 1.763350
C 0.731938 0.756065 1.249027
C 0.984066 0.000214 0.998278
C 1.020654 0.500038 1.502584
C 1.498020 0.009368 1.501919
C 1.490456 0.501128 1.011405
C 1.269235 0.254645 1.253789
C 1.260572 0.742799 1.739659
C 1.738166 0.239066 1.748625
C 1.767597 0.735004 1.248182
C 2.012217 0.002781 0.996199
C 2.012257 0.502472 1.507067
C 2.528503 0.009273 1.497161
C 2.499889 0.481311 0.997128
C 2.250990 0.271293 1.242137
C 2.257604 0.740334 1.770367
C 2.758130 0.260655 1.744228
C 2.735955 0.756628 1.253613
C 2.993662 0.004957 1.027414
C 3.003340 0.484283 1.492103
C 3.485643 0.013175 1.501107
C 3.498010 0.499247 1.002614
C 3.261405 0.260616 1.244812
C 3.241045 0.763920 1.750775
C 3.763749 0.255340 1.761309
C 3.746143 0.758532 1.244686
C 4.024138 0.009707 1.004164
C 4.001920 0.506657 1.505115
C 4.500192 0.005978 1.504977
C 4.487075 0.497006 1.012284
C 4.251542 0.260567 1.261535
C 4.238939 0.731429 1.757549
C 4.762157 0.258566 1.759809
C 4.764495 0.754203 1.258524
C 5.020462 0.002519 0.999173
C 4.993505 0.495312 1.507177
C 5.472292 0.005053 1.509289
C 5.493439 0.516930 1.004425
C 5.240709 0.249174 1.237489
C 5.245898 0.737982 1.743028
C 5.747020 0.246987 1.725421
C 5.746558 0.758042 1.234183
C 0.004229 1.007533 1.005177
C 0.014629 1.507488 1.485335
C 0.494720 0.989678 1.510570
C 0.497650 1.524805 1.006624
C 0.254080 1.235850 1.239023
C 0.267024 1.757163 1.750308
C 0.747399 1.258257 1.757956
C 0.763430 1.763075 1.241620
C 0.994087 0.985943 1.005710
C 0.998101 1.497307 1.515699
C 1.518054 1.011303 1.505266
C 1.486088 1.493431 0.995844
C 1.255566 1.264452 1.246701
C 1.251680 1.733140 1.756261
C 1.736379 1.236364 1.756727
C 1.753948 1.737948 1.258782
C 2.004870 0.987932 0.991840
C 2.001918 1.507986 1.515704
C 2.496255 1.000041 1.485292
C 2.497159 1.513701 1.005505
C 2.268142 1.241583 1.238625
C 2.252474 1.750238 1.733855
C 2.756524 1.256060 1.741851
C 2.768866 1.760421 1.246208
C 3.016197 1.007110 1.002527
C 2.980033 1.513622 1.494054
C 3.518043 1.010330 1.504437
C 3.475814 1.488094 1.000193
C 3.234759 1.236913 1.259217
C 3.250943 1.764659 1.770444
C 3.736368 1.271884 1.740031
C 3.749559 1.747866 1.269854
C 3.994025 0.988151 0.988946
C 3.995185 1.485979 1.510822
C 4.488097 0.990427 1.507866
C 4.493668 1.497563 0.999778
C 4.247167 1.269650 1.238345
C 4.236217 1.760085 1.757289
C 4.744099 1.270946 1.753617
C 4.745432 1.756109 1.246316
C 4.996215 1.012381 0.991958
C 5.002694 1.499174 1.509292
C 5.501698 1.014204 1.488486
C 5.480435 1.499753 0.993228
C 5.258835 1.256650 1.265289
C 5.233916 1.746735 1.752900
C 5.748369 1.276503 1.763358
C 5.740021 1.741596 1.261047
C 0.002215 1.988114 1.015935
C 0.015209 2.504351 1.489168
C 0.496367 2.019910 1.509456
C 0.494374 2.520932 0.993964
C 0.261282 2.240872 1.239961
C 0.243496 2.759528 1.740705
C 0.748533 2.242102 1.766443
C 0.743115 2.736486 1.236089
C 0.993416 1.989153 0.990206
C 1.003034 2.516768 1.488739
C 1.513863 2.005909 1.502156
C 1.496570 2.500424 1.004424
C 1.257185 2.233783 1.251085
C 1.236980 2.758693 1.746690
C 1.747155 2.263273 1.750242
C 1.751174 2.744339 1.239926
C 1.996397 1.993723 0.996723
C 2.004773 2.501175 1.513430
C 2.508181 2.016494 1.509039
C 2.499655 2.523528 0.998236
C 2.238777 2.246108 1.247198
C 2.268639 2.743557 1.759293
C 2.758038 2.266620 1.748812
C 2.741239 2.740164 1.260468
C 2.989288 2.011195 1.007236
C 3.004600 2.518964 1.513706
C 3.515607 2.001346 1.503383
C 3.499461 2.507171 1.003707
C 3.251433 2.238471 1.239645
C 3.262671 2.748085 1.763216
C 3.743538 2.241736 1.750775
C 3.736517 2.745468 1.248137
C 4.006445 1.996326 1.000956
C 3.989082 2.498292 1.488640
C 4.495683 1.996019 1.473822
C 4.505259 2.487205 1.004834
C 4.240269 2.264974 1.252827
C 4.243473 2.737945 1.737231
C 4.747052 2.259507 1.734316
C 4.745905 2.754085 1.257953
C 4.994733 1.990285 1.017727
C 5.014105 2.497220 1.506151
C 5.496858 1.992178 1.488682
C 5.482979 2.492606 0.998004
C 5.248423 2.230935 1.255032
C 5.251425 2.764143 1.765819
C 5.744724 2.252560 1.739190
C 5.747101 2.740275 1.235125
C 0.000598 2.992376 0.984783
C 0.017053 3.488457 1.508769
C 0.505888 3.015524 1.502183
C 0.488250 3.508090 1.013440
C 0.269995 3.257362 1.263102
C 0.253279 3.745680 1.725778
C 0.768235 3.246083 1.766828
C 0.756201 3.729737 1.259405
C 0.992350 2.992123 1.008524
C 0.998195 3.499406 1.506009
C 1.497008 2.985757 1.511449
C 1.491827 3.495707 0.988993
C 1.246535 3.245651 1.242438
C 1.264457 3.753069 1.756917
C 1.735775 3.266662 1.754154
C 1.754616 3.732125 1.249540
C 1.989237 3.001852 1.006859
C 2.000358 3.487933 1.477806
C 2.505464 2.990530 1.493368
C 2.504331 3.492252 1.014464
C 2.236438 3.238766 1.267590
C 2.237870 3.742512 1.741074
C 2.749346 3.240058 1.747146
C 2.746857 3.737969 1.263738
C 2.997596 2.986326 0.995728
C 2.987095 3.494262 1.496565
C 3.495262 2.987197 1.505133
C 3.513664 3.485419 0.986330
C 3.238691 3.244845 1.254449
C 3.258634 3.744125 1.743199
C 3.768617 3.254189 1.738545
C 3.744065 3.734310 1.252854
C 3.984294 2.987333 0.992076
C 4.012538 3.506989 1.506694
C 4.502090 3.014710 1.481873
C 4.500075 3.488461 1.014480
C 4.243013 3.261874 1.254227
C 4.262444 3.742561 1.753060
C 4.757444 3.244331 1.770665
C 4.758236 3.731225 1.264626
C 5.010601 3.009242 0.983422
C 5.011992 3.496245 1.486086
C 5.504082 2.987756 1.493693
C 5.488539 3.489473 0.995356
C 5.273440 3.250635 1.249566
C 5.249905 3.744214 1.753917
C 5.743556 3.246954 1.764666
C 5.746103 3.763391 1.270097
C 0.002963 4.005653 0.994516
C 0.000207 4.520764 1.506869
C 0.493182 3.995860 1.509117
C 0.520451 4.511844 0.997280
C 0.236709 4.256414 1.232462
C 0.264795 4.762755 1.755526
C 0.738217 4.253247 1.750462
C 0.756393 4.765222 1.246075
C 1.003393 4.004833 1.001749
C 0.989339 4.491320 1.506806
C 1.482406 3.992971 1.506078
C 1.504778 4.501676 1.003428
C 1.256327 4.251390 1.261097
C 1.250402 4.770659 1.755914
C 1.742293 4.238454 1.735323
C 1.761737 4.748372 1.259709
C 1.988431 4.014212 1.000785
C 1.997172 4.487162 1.506758
C 2.490570 3.987812 1.508319
C 2.489089 4.503508 1.003416
C 2.231368 4.239863 1.244610
C 2.238998 4.760597 1.760093
C 2.768418 4.254570 1.744719
C 2.742820 4.733637 1.238912
C 3.010722 3.977110 1.000672
C 2.992050 4.502004 1.492910
C 3.504223 4.012905 1.486083
C 3.495190 4.500205 1.007922
C 3.257448 4.265929 1.252807
C 3.233558 4.761005 1.749868
C 3.750857 4.249653 1.744155
C 3.743558 4.736396 1.233768
C 3.996208 3.987466 0.997171
C 4.007316 4.500030 1.494922
C 4.515994 4.018404 1.504433
C 4.498371 4.524189 1.010269
C 4.259564 4.247921 1.230755
C 4.228223 4.744508 1.743548
C 4.745443 4.256328 1.773121
C 4.739360 4.757275 1.254270
C 4.981193 3.989122 1.012662
C 4.996189 4.486010 1.497346
C 5.493525 3.995062 1.487245
C 5.486227 4.510921 0.990647
C 5.252488 4.239953 1.242558
C 5.238626 4.761098 1.745011
C 5.749799 4.251831 1.758521
C 5.740781 4.749485 1.253607
C 0.007995 5.029437 1.004113
C 0.010059 5.485743 1.494357
C 0.494327 5.008920 1.505016
C 0.496679 5.491510 1.006777
C 0.259332 5.246950 1.244949
C 0.271063 5.748352 1.735833
C 0.737869 5.252120 1.739538
C 0.742338 5.743168 1.266855
C 0.988855 5.003337 0.996272
C 0.985965 5.504591 1.512374
C 1.497645 4.985282 1.511306
C 1.486685 5.513352 1.000361
C 1.263450 5.259549 1.254325
C 1.246075 5.728847 1.747225
C 1.753240 5.261724 1.745364
C 1.741564 5.724887 1.241543
C 2.002126 5.018015 0.987478
C 1.999009 5.506310 1.498757
C 2.489618 5.009058 1.504648
C 2.488423 5.513843 1.007185
C 2.248741 5.248679 1.253923
C 2.231847 5.748459 1.739238
C 2.733166 5.242544 1.755826
C 2.760305 5.745065 1.271311
C 2.997783 4.991014 0.998740
C 3.014319 5.506572 1.495899
C 3.478177 4.997964 1.505307
C 3.492443 5.483838 0.991339
C 3.257085 5.247925 1.263393
C 3.263502 5.747012 1.738501
C 3.737369 5.262226 1.765587
C 3.753641 5.746882 1.262732
C 3.999569 5.001476 0.991018
C 3.997360 5.478508 1.492372
C 4.504519 5.002036 1.490520
C 4.498546 5.482967 0.983793
C 4.245589 5.252646 1.254704
C 4.272164 5.748874 1.746221
C 4.731856 5.252723 1.742053
C 4.761593 5.747116 1.234873
C 5.009882 4.987827 0.987595
C 5.002235 5.498279 1.490705
C 5.521499 5.003926 1.512872
C 5.518533 5.487507 0.985780
C 5.257722 5.246689 1.264578
C 5.244653 5.728320 1.739558
C 5.742783 5.270835 1.756866
C 5.725731 5.739906 1.246006
C 0.019612 0.000237 2.018186
C 0.012295 0.515392 2.507552
C 0.486625 0.010861 2.516711
C 0.500976 0.522145 1.988484
C 0.254246 0.254820 2.231288
C 0.250888 0.761307 2.767813
C 0.738126 0.250544 2.742610
C 0.744780 0.730359 2.239584
C 0.999848 0.005601 1.976950
C 1.003525 0.495013 2.521808
C 1.486716 0.004232 2.519801
C 1.488124 0.490957 2.015658
C 1.243601 0.236518 2.255065
C 1.253387 0.753582 2.740460
C 1.759474 0.246581 2.763414
C 1.725321 0.745405 2.253424
C 1.988485 0.001940 2.002224
C 2.014315 0.521303 2.498000
C 2.501317 0.013296 2.493642
C 2.511127 0.490705 2.016724
C 2.253115 0.263843 2.259156
C 2.243688 0.747728 2.754998
C 2.750055 0.264876 2.754264
C 2.750571 0.744875 2.270220
C 2.983649 0.007268 1.993521
C 3.004942 0.491048 2.488570
C 3.505985 0.018954 2.498139
C 3.503786 0.509456 2.018244
C 3.245697 0.275219 2.243834
C 3.259505 0.743457 2.773922
C 3.774452 0.236810 2.753519
C 3.748983 0.757080 2.264414
C 3.996294 0.007552 2.014198
C 4.014014 0.502306 2.504247
C 4.492745 0.009882 2.512563
C 4.512724 0.495824 1.996765
C 4.245629 0.250904 2.232439
C 4.266212 0.748024 2.756711
C 4.747658 0.252577 2.740093
C 4.744509 0.763210 2.234707
C 4.995841 0.017299 2.002850
C 5.017500 0.504456 2.495762
C 5.502351 0.011961 2.480024
C 5.496021 0.507799 1.998052
C 5.241364 0.258263 2.246046
C 5.258179 0.764012 2.748615
C 5.743395 0.231297 2.724212
C 5.749919 0.753958 2.226771
C 0.003706 0.984952 1.996838
C 0.007150 1.489315 2.484735
C 0.510096 0.985578 2.494268
C 0.485518 1.507423 1.985682
C 0.277312 1.250179 2.255254
C 0.248268 1.753664 2.739707
C 0.749338 1.231458 2.752262
C 0.748984 1.738905 2.266321
C 1.011231 0.994806 1.985046
C 1.008451 1.506312 2.502161
C 1.501616 1.009569 2.503896
C 1.489283 1.499041 2.000176
C 1.256372 1.254465 2.253838
C 1.240578 1.746426 2.768029
C 1.751390 1.237039 2.761453
C 1.744582 1.743986 2.267315
C 1.991977 1.012655 2.003285
C 1.986855 1.497205 2.498050
C 2.499120 0.999179 2.496407
C 2.490668 1.494793 1.998665
C 2.247793 1.268456 2.242186
C 2.242412 1.744341 2.742235
C 2.748236 1.242716 2.755116
C 2.770738 1.756488 2.255736
C 2.988132 0.991328 1.987838
C 3.016970 1.500343 2.508253
C 3.515994 1.006727 2.500416
C 3.505511 1.502955 2.011591
C 3.249008 1.238743 2.237611
C 3.247568 1.750663 2.740835
C 3.755120 1.236100 2.757415
C 3.737174 1.749436 2.257040
C 3.991495 1.018071 1.984020
C 3.995175 1.503085 2.521322
C 4.490971 1.001801 2.499879
C 4.483405 1.505625 2.014112
C 4.256921 1.260259 2.262292
C 4.261536 1.730079 2.756314
C 4.763243 1.251843 2.765975
C 4.753978 1.742352 2.254043
C 4.992047 0.984989 1.991856
C 4.995870 1.504072 2.493248
C 5.502905 1.000938 2.512707
C 5.495410 1.497093 1.986563
C 5.261017 1.263108 2.252778
C 5.254070 1.738615 2.760037
C 5.733655 1.251892 2.743476
C 5.748202 1.762394 2.264649
C 0.011132 2.015957 2.010534
C 0.016064 2.491375 2.512995
C 0.515391 1.988387 2.506070
C 0.505604 2.509869 2.005923
C 0.251293 2.252464 2.251190
C 0.242615 2.746862 2.743404
C 0.754123 2.244318 2.745858
C 0.761609 2.727708 2.240504
C 0.984219 1.993181 1.990589
C 1.002429 2.497384 2.499501
C 1.490412 1.981706 2.500723
C 1.512866 2.499801 2.003175
C 1.235068 2.233704 2.257811
C 1.246642 2.737742 2.758849
C 1.748097 2.234976 2.764838
C 1.758397 2.758377 2.265183
C 1.996897 2.000056 2.000711
C 1.995410 2.484078 2.490803
C 2.522371 2.000970 2.491067
C 2.512929 2.491109 2.007398
C 2.255740 2.256966 2.259144
C 2.242698 2.751673 2.768830
C 2.734679 2.234703 2.739248
C 2.756664 2.752373 2.266323
C 2.988913 1.981982 1.995039
C 3.001519 2.511708 2.520279
C 3.507942 2.020175 2.500732
C 3.496931 2.506525 2.024120
C 3.267063 2.253924 2.235473
C 3.252005 2.739598 2.726110
C 3.757463 2.264207 2.759528
C 3.754996 2.741116 2.254255
C 3.984871 2.002166 2.001699
C 3.993103 2.504175 2.508307
C 4.494680 1.996297 2.496263
C 4.504619 2.500277 1.983074
C 4.241845 2.264657 2.249666
C 4.263376 2.755450 2.765402
C 4.733552 2.267683 2.752603
C 4.752579 2.734145 2.264824
C 5.001467 1.991798 1.996302
C 5.009052 2.519834 2.511349
C 5.493967 2.006697 2.509087
C 5.501879 2.519685 2.008939
C 5.260297 2.234724 2.247503
C 5.244786 2.764067 2.766619
C 5.738630 2.260080 2.745828
C 5.747805 2.750835 2.256053
C 0.007179 2.988916 2.007845
C 0.000337 3.501162 2.491439
C 0.498235 2.995764 2.504047
C 0.497150 3.519799 1.993364
C 0.233466 3.237389 2.251819
C 0.246104 3.739610 2.746478
C 0.740676 3.243820 2.767335
C 0.747154 3.747406 2.228208
C 0.997602 2.986387 2.006691
C 0.984827 3.517777 2.493109
C 1.501169 3.005443 2.497655
C 1.488700 3.508206 2.020413
C 1.231250 3.257414 2.249602
C 1.243754 3.754675 2.767774
C 1.748270 3.253200 2.747026
C 1.738258 3.757883 2.239628
C 1.982880 3.003001 2.015041
C 1.988358 3.516512 2.489363
C 2.496788 3.012868 2.507605
C 2.496076 3.515814 1.985466
C 2.268916 3.251716 2.256049
C 2.232564 3.756508 2.737744
C 2.767476 3.247190 2.759327
C 2.736423 3.751087 2.243390
C 2.993548 3.007980 2.016892
C 2.993713 3.497617 2.520547
C 3.494841 2.980856 2.495304
C 3.483284 3.491637 2.013089
C 3.276818 3.240898 2.253977
C 3.248944 3.739985 2.742557
C 3.749369 3.232655 2.740751
C 3.754676 3.748337 2.267612
C 4.015475 3.004590 1.989106
C 4.001177 3.500830 2.496531
C 4.509862 3.013806 2.495157
C 4.485979 3.487474 2.004176
C 4.238808 3.243485 2.246603
C 4.241944 3.750819 2.767760
C 4.756009 3.259098 2.725145
C 4.741430 3.733074 2.237831
C 4.985162 2.990626 2.014654
C 4.991132 3.511818 2.499107
C 5.496695 3.001700 2.485256
C 5.492932 3.508436 1.991268
C 5.232916 3.242634 2.240982
C 5.257584 3.736649 2.752875
C 5.735807 3.238505 2.760451
C 5.741827 3.769085 2.264783
C 0.005254 3.995839 1.982118
C 0.015580 4.487220 2.504941
C 0.517483 3.987127 2.493296
C 0.490555 4.485955 1.992542
C 0.261326 4.237854 2.245854
C 0.255053 4.755007 2.769831
C 0.738634 4.243867 2.724054
C 0.740812 4.747784 2.235073
C 0.995977 4.013987 1.999919
C 1.009022 4.492500 2.505446
C 1.511088 4.000535 2.515578
C 1.507920 4.484001 1.985073
C 1.246794 4.270715 2.245888
C 1.239429 4.743887 2.743497
C 1.740135 4.264053 2.747638
C 1.752696 4.764193 2.254904
C 2.008048 4.013470 2.015261
C 2.000306 4.494438 2.489839
C 2.504670 3.992761 2.494907
C 2.513147 4.504919 1.982892
C 2.255166 4.255519 2.258309
C 2.233925 4.750641 2.752662
C 2.771092 4.245191 2.755709
C 2.750061 4.737462 2.239306
C 3.004746 4.014814 1.995321
C 3.002500 4.493394 2.506511
C 3.504239 4.012274 2.503159
C 3.493313 4.487449 1.998034
C 3.243521 4.255920 2.241873
C 3.244447 4.736855 2.753014
C 3.762410 4.246521 2.753090
C 3.752580 4.750030 2.247473
C 3.998002 4.000476 1.990187
C 4.011621 4.506948 2.503715
C 4.516574 3.998678 2.483165
C 4.501037 4.516944 2.008536
C 4.252910 4.271414 2.249431
C 4.250392 4.745028 2.745218
C 4.743702 4.264503 2.757803
C 4.733898 4.740023 2.261062
C 4.991538 3.992563 2.002562
C 5.019480 4.502830 2.491046
C 5.490256 3.978962 2.499508
C 5.510863 4.520549 2.002528
C 5.263766 4.256509 2.241232
C 5.260654 4.749403 2.735037
C 5.734503 4.245706 2.757783
C 5.745727 4.750991 2.253440
C 0.008154 5.018784 2.015580
C 0.005404 5.485541 2.479608
C 0.494918 5.005027 2.499748
C 0.493861 5.507182 2.002272
C 0.269365 5.254853 2.256301
C 0.247628 5.746895 2.737074
C 0.742749 5.267311 2.742217
C 0.738129 5.747458 2.254900
C 0.998043 5.008167 2.008728
C 0.987468 5.501330 2.489423
C 1.493611 5.014949 2.477640
C 1.482121 5.500405 2.013490
C 1.241364 5.253310 2.227030
C 1.255557 5.733448 2.752439
C 1.741679 5.243671 2.762034
C 1.746540 5.724854 2.260659
C 2.005514 5.014019 1.986671
C 1.992117 5.500563 2.514156
C 2.493772 4.995673 2.493892
C 2.503359 5.518285 2.012447
C 2.268727 5.262478 2.238732
C 2.260079 5.730583 2.761059
C 2.738071 5.257081 2.746450
C 2.730931 5.748807 2.274559
C 2.989761 4.999720 1.988757
C 3.010862 5.492096 2.512865
C 3.513056 5.005719 2.493801
C 3.493540 5.491388 2.010869
C 3.246046 5.260113 2.256952
C 3.235466 5.742641 2.752632
C 3.737455 5.255555 2.762587
C 3.755185 5.747256 2.234852
C 3.977953 5.009846 2.001750
C 3.985718 5.491158 2.505026
C 4.498476 4.994333 2.484219
C 4.502271 5.507452 1.999703
C 4.239038 5.260453 2.255255
C 4.255146 5.729758 2.731584
C 4.741897 5.239637 2.734851
C 4.753667 5.745197 2.277923
C 4.994646 5.000800 2.003152
C 5.001910 5.501427 2.490182
C 5.486701 5.003320 2.496418
C 5.504048 5.497698 2.003793
C 5.260507 5.253060 2.262952
C 5.267117 5.741851 2.741910
C 5.746635 5.248454 2.766964
C 5.726743 5.739428 2.264876
C 0.002021 0.022456 2.996775
C 0.022411 0.477864 3.496567
C 0.493243 0.008550 3.496880
C 0.516010 0.495089 3.007740
C 0.261334 0.227524 3.244381
C 0.262915 0.755215 3.751147
C 0.738286 0.253817 3.729889
C 0.767914 0.746216 3.239613
C 1.013076 0.001025 2.989247
C 1.004849 0.493726 3.496881
C 1.489612 0.004928 3.502760
C 1.514768 0.487932 3.015390
C 1.240293 0.239650 3.259362
C 1.247446 0.743759 3.759905
C 1.764449 0.251423 3.748292
C 1.758741 0.756846 3.249427
C 1.993484 0.014829 3.016348
C 1.988488 0.505242 3.496122
C 2.498729 0.010196 3.520239
C 2.502396 0.494378 3.015150
C 2.267975 0.238121 3.248804
C 2.252515 0.742476 3.764002
C 2.739593 0.254450 3.739348
C 2.761898 0.747148 3.251312
C 3.000251 0.005758 2.995095
C 2.999569 0.497301 3.489285
C 3.494409 0.010254 3.494908
C 3.505959 0.490888 2.986425
C 3.246976 0.255749 3.265310
C 3.233198 0.740295 3.751149
C 3.735022 0.266064 3.748292
C 3.752464 0.744266 3.240917
C 4.016536 0.004079 2.995608
C 3.995172 0.488648 3.508097
C 4.492062 0.016729 3.504453
C 4.517135 0.496244 3.017508
C 4.246600 0.258397 3.231584
C 4.242535 0.757900 3.768895
C 4.770287 0.246616 3.744192
C 4.752615 0.746877 3.245469
C 5.010542 0.014368 2.987445
C 5.004170 0.489422 3.493893
C 5.521707 0.002230 3.516700
C 5.502091 0.481873 2.991417
C 5.239449 0.253710 3.248932
C 5.252444 0.745665 3.734532
C 5.744416 0.263782 3.775540
C 5.747346 0.725447 3.248660
C 0.007925 0.997305 3.006727
C 0.004915 1.501696 3.515505
C 0.516998 1.006368 3.514066
C 0.500228 1.518405 2.994768
C 0.253018 1.268803 3.265408
C 0.264714 1.741185 3.755287
C 0.754906 1.264531 3.746676
C 0.747256 1.769775 3.230662
C 1.012741 1.015432 3.008664
C 0.999508 1.503536 3.516724
C 1.493770 1.008751 3.497637
C 1.512436 1.503262 2.995281
C 1.273420 1.259342 3.259969
C 1.254631 1.736663 3.762161
C 1.737126 1.259518 3.748490
C 1.769835 1.741570 3.241847
C 1.997341 1.012608 3.018881
C 1.995888 1.474281 3.493547
C 2.484311 1.011254 3.506772
C 2.500584 1.510435 3.009551
C 2.261103 1.254772 3.245505
C 2.263619 1.754098 3.752245
C 2.729046 1.257697 3.740274
C 2.754800 1.768466 3.238965
C 3.011251 0.994884 2.983204
C 3.016540 1.510167 3.498314
C 3.507938 1.015168 3.492947
C 3.505814 1.506134 3.010977
C 3.250848 1.261079 3.262128
C 3.235421 1.772072 3.761110
C 3.743987 1.233836 3.760966
C 3.749278 1.751442 3.256294
C 3.998955 1.010251 3.002150
C 3.993254 1.494296 3.512141
C 4.507361 0.988738 3.518657
C 4.498722 1.497666 3.003813
C 4.246394 1.250196 3.267659
C 4.249027 1.753175 3.747087
C 4.743619 1.255719 3.765058
C 4.750802 1.759954 3.266008
C 5.011167 0.998008 3.001113
C 4.998217 1.511554 3.489359
C 5.489458 1.009680 3.509031
C 5.504704 1.499066 2.997140
C 5.229802 1.246991 3.247824
C 5.260444 1.749257 3.766400
C 5.737557 1.237361 3.752129
C 5.733470 1.726563 3.260769
C 0.004019 1.995271 2.983401
C 0.004228 2.490607 3.504574
C 0.490153 2.014552 3.497274
C 0.494999 2.518106 3.008112
C 0.266927 2.257138 3.252298
C 0.241820 2.744073 3.748299
C 0.759778 2.266385 3.745880
C 0.747158 2.734064 3.235695
C 0.991195 2.008656 2.994638
C 1.000534 2.520507 3.502260
C 1.487748 1.998709 3.507888
C 1.493864 2.492679 3.003643
C 1.260576 2.249950 3.262553
C 1.248068 2.761914 3.735950
C 1.749293 2.265321 3.750221
C 1.733161 2.758142 3.239236
C 2.002403 1.992628 3.003795
C 2.001631 2.513712 3.509729
C 2.498382 1.998948 3.499881
C 2.508700 2.498682 3.014494
C 2.257325 2.239702 3.255188
C 2.244001 2.748075 3.753743
C 2.748021 2.257718 3.757236
C 2.753657 2.739263 3.244757
C 3.009021 2.014924 3.000940
C 2.992586 2.493242 3.487514
C 3.488013 2.003117 3.510896
C 3.505160 2.496760 2.990845
C 3.271829 2.242962 3.259781
C 3.243186 2.734767 3.741759
C 3.753953 2.256900 3.763641
C 3.758586 2.763363 3.256976
C 3.995164 2.025683 3.000149
C 4.006815 2.492624 3.482167
C 4.507278 1.988485 3.519321
C 4.485795 2.506111 3.002854
C 4.257682 2.261932 3.258861
C 4.257136 2.762260 3.743814
C 4.745942 2.233364 3.732241
C 4.755815 2.750234 3.271605
C 4.994147 1.999805 3.003752
C 5.007844 2.495313 3.495221
C 5.507044 2.016621 3.491151
C 5.500998 2.504087 3.014004
C 5.249995 2.254504 3.261091
C 5.265886 2.758206 3.754227
C 5.749354 2.255271 3.736156
C 5.749535 2.731020 3.250037
C 0.002088 2.989363 2.986807
C 0.008535 3.496441 3.491426
C 0.488269 3.008046 3.519086
C 0.492750 3.487483 3.007568
C 0.248252 3.261042 3.248546
C 0.235254 3.746919 3.733217
C 0.750928 3.251213 3.763553
C 0.742528 3.739110 3.246717
C 1.000714 2.993401 3.020928
C 0.986215 3.504299 3.505443
C 1.490840 3.002844 3.502658
C 1.477191 3.495550 2.992592
C 1.258876 3.242006 3.255171
C 1.257375 3.763720 3.747603
C 1.745043 3.267864 3.753067
C 1.762186 3.748653 3.259986
C 2.003176 3.007293 3.006050
C 1.986187 3.497383 3.481608
C 2.509112 3.011385 3.508743
C 2.501132 3.505742 2.988180
C 2.262307 3.265750 3.233553
C 2.242506 3.767334 3.761705
C 2.750880 3.251462 3.763423
C 2.760112 3.736333 3.239277
C 3.022064 2.994137 2.998193
C 2.997784 3.517444 3.493153
C 3.512528 2.996301 3.512509
C 3.506834 3.489123 3.010241
C 3.242955 3.236313 3.250955
C 3.257541 3.748246 3.756789
C 3.748438 3.246963 3.738643
C 3.733186 3.739451 3.256767
C 3.992613 3.009835 3.015627
C 3.998637 3.485882 3.497200
C 4.492600 3.008057 3.487216
C 4.485877 3.503253 2.981124
C 4.234954 3.263128 3.247308
C 4.269999 3.744430 3.759021
C 4.738841 3.233279 3.754887
C 4.740978 3.750263 3.252349
C 4.984041 2.980379 3.001064
C 4.989725 3.499910 3.483955
C 5.504196 3.012437 3.493340
C 5.492000 3.485050 2.995235
C 5.251990 3.239011 3.235116
C 5.270562 3.741677 3.743245
C 5.730042 3.244792 3.759094
C 5.735234 3.742871 3.228954
C 0.011838 4.004920 3.002506
C 0.000840 4.498834 3.486811
C 0.496199 4.003129 3.503873
C 0.492495 4.491904 2.992458
C 0.244807 4.264440 3.235378
C 0.246518 4.758180 3.734161
C 0.750051 4.253333 3.741366
C 0.740941 4.759129 3.232165
C 0.995376 3.986126 2.999744
C 1.007024 4.503488 3.514281
C 1.507211 4.012966 3.492762
C 1.504428 4.508151 2.983578
C 1.252946 4.254795 3.248166
C 1.267324 4.735917 3.746664
C 1.746393 4.254332 3.751490
C 1.755664 4.747767 3.245964
C 2.002030 3.981320 3.012214
C 1.998615 4.504348 3.487511
C 2.502810 4.014589 3.502209
C 2.498533 4.486119 2.990915
C 2.227530 4.257920 3.249641
C 2.245441 4.768790 3.756877
C 2.752436 4.254197 3.737522
C 2.742280 4.763916 3.238865
C 3.005852 4.012910 3.005952
C 3.009893 4.488584 3.497359
C 3.500842 3.982272 3.508682
C 3.501983 4.499484 2.990505
C 3.260897 4.248273 3.263613
C 3.265796 4.739554 3.757551
C 3.753743 4.270649 3.759164
C 3.736604 4.739750 3.237049
C 4.002101 4.014710 3.002272
C 4.001072 4.484989 3.480738
C 4.500284 4.002339 3.490745
C 4.487938 4.520441 3.003334
C 4.246221 4.226886 3.248041
C 4.247328 4.738806 3.736507
C 4.769863 4.248886 3.762281
C 4.738643 4.743816 3.243056
C 4.999382 3.987537 3.016833
C 5.012245 4.502273 3.502419
C 5.488326 3.991439 3.502474
C 5.511642 4.485930 3.005163
C 5.245754 4.261439 3.254191
C 5.263050 4.752127 3.763687
C 5.745274 4.255666 3.736218
C 5.730427 4.741709 3.238007
C 0.010297 5.014866 3.005947
C 0.001236 5.507823 3.524238
C 0.496003 4.997899 3.520968
C 0.504580 5.488626 2.998767
C 0.231485 5.260565 3.246380
C 0.257384 5.747832 3.736016
C 0.741018 5.247760 3.771341
C 0.742958 5.737756 3.267307
C 0.993121 4.983506 2.993135
C 1.008675 5.502594 3.506186
C 1.503506 5.010569 3.507172
C 1.510127 5.502209 2.994361
C 1.256174 5.248341 3.261584
C 1.244929 5.733212 3.754759
C 1.752503 5.236890 3.755669
C 1.756424 5.742540 3.241578
C 1.980459 4.999247 3.002895
C 1.986522 5.516106 3.494924
C 2.491818 4.988577 3.502081
C 2.498891 5.484759 3.018244
C 2.238704 5.254719 3.250567
C 2.240933 5.746484 3.771486
C 2.763218 5.251971 3.752370
C 2.739541 5.746356 3.241686
C 2.999477 4.987879 3.004245
C 2.998020 5.499357 3.484918
C 3.492182 5.001214 3.511892
C 3.479495 5.491663 2.996904
C 3.255239 5.235899 3.263559
C 3.260256 5.736187 3.761301
C 3.765197 5.237035 3.751390
C 3.739224 5.724775 3.258028
C 4.011955 4.982372 2.994695
C 3.998176 5.486933 3.484656
C 4.510284 4.999193 3.514013
C 4.506114 5.511383 2.987010
C 4.231629 5.239103 3.247867
C 4.265223 5.747776 3.749362
C 4.769360 5.254072 3.746452
C 4.742796 5.742963 3.256568
C 4.986048 5.010891 2.987027
C 5.006573 5.502465 3.492644
C 5.510717 4.998554 3.487065
C 5.492158 5.510110 3.000377
C 5.231755 5.251022 3.259648
C 5.232006 5.747515 3.751578
C 5.744695 5.240448 3.740295
C 5.736685 5.746080 3.244506
C 0.013441 0.014451 3.982118
C 0.002832 0.511367 4.518500
C 0.501992 0.014273 4.501903
C 0.490301 0.509387 3.996813
C 0.240832 0.234446 4.238834
C 0.256414 0.769611 4.741926
C 0.767137 0.255176 4.755988
C 0.745451 0.750851 4.249701
C 0.987575 0.013179 3.994130
C 1.008382 0.519444 4.508536
C 1.514314 0.011381 4.492316
C 1.501923 0.515100 4.000655
C 1.255436 0.242459 4.260977
C 1.273758 0.756235 4.748964
C 1.750470 0.253896 4.740520
C 1.743981 0.746560 4.252833
C 1.995830 0.013023 4.004509
C 1.999349 0.510906 4.508622
C 2.484070 0.006570 4.478056
C 2.495279 0.490039 3.992063
C 2.255484 0.268202 4.248973
C 2.254955 0.761923 4.739982
C 2.735615 0.238985 4.761797
C 2.748530 0.733497 4.239649
C 3.015802 0.013677 3.985106
C 2.994586 0.501900 4.522218
C 3.500909 0.020777 4.495692
C 3.510997 0.488118 4.000980
C 3.243907 0.238465 4.254004
C 3.237487 0.755951 4.763012
C 3.764966 0.242706 4.740101
C 3.759751 0.747043 4.234495
C 4.013977 0.001034 3.978073
C 3.991385 0.505541 4.505897
C 4.501996 0.007590 4.484934
C 4.499700 0.496289 3.999570
C 4.256308 0.257889 4.245036
C 4.251235 0.757748 4.756172
C 4.749701 0.262517 4.749877
C 4.771621 0.747800 4.241963
C 4.983335 0.012580 4.003559
C 4.983059 0.507002 4.506416
C 5.518339 0.013547 4.505894
C 5.513587 0.508236 3.980574
C 5.255014 0.232003 4.245888
C 5.248580 0.746013 4.762864
C 5.727865 0.243196 4.754388
C 5.732288 0.743138 4.258702
C 0.001490 0.986560 4.007870
C 0.009142 1.511377 4.478589
C 0.510396 0.996103 4.523871
C 0.523205 1.498449 4.010581
C 0.254769 1.233473 4.257472
C 0.241757 1.729878 4.744979
C 0.736775 1.251360 4.749142
C 0.761118 1.759923 4.253534
C 1.007609 1.007048 3.982850
C 0.989340 1.505155 4.481088
C 1.492638 0.986187 4.492690
C 1.490539 1.485576 4.019013
C 1.237514 1.241914 4.238350
C 1.240793 1.729433 4.739500
C 1.733171 1.251394 4.744540
C 1.749221 1.757251 4.242270
C 2.006692 1.013188 4.011701
C 1.973926 1.497312 4.500591
C 2.508940 1.009909 4.508718
C 2.516653 1.492618 3.988441
C 2.265769 1.240786 4.249569
C 2.233600 1.739177 4.758657
C 2.749357 1.252979 4.746359
C 2.770313 1.756986 4.255141
C 2.986010 1.014953 3.993691
C 2.988166 1.490000 4.499916
C 3.500511 0.982586 4.490073
C 3.497519 1.521867 3.992850
C 3.258184 1.244573 4.252120
C 3.252569 1.745585 4.745989
C 3.745114 1.247282 4.749130
C 3.744764 1.764027 4.232491
C 3.987046 0.993393 3.994811
C 3.985799 1.493572 4.503406
C 4.500503 0.994706 4.477758
C 4.492859 1.510786 3.986125
C 4.237391 1.245243 4.258693
C 4.240213 1.746722 4.741782
C 4.760064 1.250523 4.739677
C 4.767302 1.750549 4.258708
C 4.987573 0.997902 3.997926
C 4.982666 1.497099 4.497563
C 5.506626 0.997435 4.482523
C 5.518906 1.513605 3.991800
C 5.253288 1.251225 4.271891
C 5.255685 1.759424 4.769985
C 5.748286 1.260699 4.760496
C 5.731990 1.730874 4.242086
C 0.004747 1.965720 3.992845
C 0.008323 2.499613 4.490564
C 0.484841 2.000090 4.505269
C 0.491308 2.483084 3.999636
C 0.238393 2.238085 4.247797
C 0.252669 2.744595 4.739852
C 0.758499 2.253122 4.752025
C 0.757312 2.750601 4.252500
C 0.987974 2.000263 4.003326
C 0.989019 2.490309 4.503061
C 1.485332 2.000317 4.495188
C 1.501643 2.499820 3.992189
C 1.239327 2.260263 4.257770
C 1.229078 2.744208 4.747961
C 1.750717 2.254765 4.759334
C 1.753091 2.753992 4.227110
C 2.007914 2.008409 4.008769
C 1.984620 2.507262 4.509688
C 2.512642 2.002554 4.495904
C 2.482140 2.501671 4.013259
C 2.241628 2.248996 4.253367
C 2.253887 2.739577 4.747573
C 2.759423 2.252764 4.741382
C 2.732347 2.746680 4.257297
C 3.010898 1.998678 4.018439
C 2.983625 2.499639 4.499130
C 3.509112 1.986871 4.496259
C 3.510343 2.500563 3.988562
C 3.260559 2.257547 4.248668
C 3.259630 2.751205 4.753819
C 3.756939 2.257086 4.765290
C 3.736654 2.759906 4.263622
C 4.004021 1.981649 3.988538
C 4.000081 2.517080 4.511648
C 4.502278 1.989085 4.511041
C 4.497683 2.503421 3.992190
C 4.253371 2.239287 4.245953
C 4.245151 2.734272 4.752333
C 4.739145 2.262300 4.759175
C 4.765966 2.753492 4.244755
C 4.988604 1.985866 4.007691
C 4.998783 2.515675 4.503177
C 5.504690 2.011878 4.498779
C 5.503529 2.486071 3.993596
C 5.256480 2.246540 4.274742
C 5.251393 2.760655 4.759645
C 5.743984 2.246963 4.740643
C 5.742565 2.721442 4.263723
C 0.007701 2.988132 3.994162
C 0.012960 3.507229 4.492191
C 0.492412 3.014596 4.506855
C 0.484360 3.502810 4.013014
C 0.249654 3.248055 4.256737
C 0.237240 3.756099 4.738796
C 0.751968 3.246770 4.738561
C 0.752808 3.764865 4.239259
C 1.006569 2.990427 4.006674
C 0.991286 3.489593 4.491719
C 1.501312 3.009137 4.510191
C 1.493988 3.500706 3.999482
C 1.255457 3.261738 4.243928
C 1.242402 3.743132 4.768973
C 1.734915 3.260865 4.748031
C 1.754188 3.751206 4.249191
C 2.013556 2.993477 4.004293
C 2.008532 3.507612 4.507975
C 2.487168 3.010526 4.488164
C 2.500292 3.489464 3.991952
C 2.250022 3.250825 4.228828
C 2.253233 3.728317 4.754019
C 2.756778 3.254899 4.760035
C 2.751175 3.752395 4.258762
C 2.997703 3.011175 4.003251
C 2.989558 3.496954 4.493406
C 3.491418 2.999813 4.492840
C 3.519873 3.505988 4.002140
C 3.247725 3.247459 4.229657
C 3.265040 3.740844 4.763727
C 3.759848 3.246734 4.732158
C 3.760652 3.769432 4.254351
C 4.014841 3.003377 3.992066
C 4.008076 3.516200 4.493521
C 4.502690 3.018096 4.503050
C 4.490157 3.507480 4.016364
C 4.236407 3.243646 4.242410
C 4.227929 3.751239 4.748989
C 4.737998 3.262623 4.759667
C 4.748698 3.753350 4.236115
C 5.009795 3.010639 4.001025
C 5.000344 3.508059 4.480858
C 5.507295 2.990280 4.492608
C 5.506065 3.501695 3.993989
C 5.248344 3.233655 4.250462
C 5.236809 3.757716 4.730004
C 5.746436 3.251738 4.762461
C 5.744593 3.767070 4.249328
C 0.001831 3.982301 3.987915
C 0.003432 4.486749 4.480542
C 0.501449 3.997131 4.517034
C 0.506918 4.497775 3.982363
C 0.256356 4.247451 4.239215
C 0.265026 4.735519 4.752587
C 0.755481 4.255452 4.749698
C 0.754913 4.745124 4.240665
C 1.021284 3.996889 4.018068
C 1.011475 4.491165 4.489589
C 1.494595 4.011752 4.507979
C 1.506844 4.483421 4.011859
C 1.256678 4.246816 4.241103
C 1.264922 4.742257 4.759113
C 1.728596 4.256298 4.759827
C 1.762604 4.755237 4.259191
C 1.989913 3.982907 3.999577
C 2.012845 4.499794 4.493640
C 2.517107 4.010563 4.498572
C 2.504323 4.497276 4.013539
C 2.237108 4.250335 4.256719
C 2.265627 4.745293 4.766294
C 2.746435 4.254949 4.761032
C 2.761673 4.739966 4.250192
C 3.005546 4.013569 3.991250
C 3.006772 4.507928 4.515615
C 3.513260 4.015678 4.502136
C 3.514327 4.501261 4.003508
C 3.269129 4.255209 4.251769
C 3.264832 4.745352 4.736721
C 3.757682 4.260473 4.762884
C 3.760855 4.746582 4.253783
C 3.998068 4.015305 3.987395
C 3.982327 4.487997 4.501157
C 4.517531 3.996277 4.500278
C 4.496607 4.514751 3.992734
C 4.254743 4.241430 4.233872
C 4.263703 4.765985 4.741764
C 4.742884 4.259471 4.733340
C 4.752218 4.750470 4.256819
C 5.010835 3.993926 3.991433
C 5.008313 4.489443 4.488935
C 5.487639 4.012457 4.508070
C 5.483892 4.487360 3.999474
C 5.245682 4.244862 4.242550
C 5.253534 4.738951 4.743488
C 5.739815 4.259135 4.724877
C 5.732462 4.768329 4.246947
C 0.012867 5.015941 4.011836
C 0.012277 5.498962 4.484226
C 0.495843 4.998175 4.499836
C 0.502893 5.517545 3.985665
C 0.260929 5.245252 4.260160
C 0.263897 5.748492 4.752098
C 0.751881 5.254353 4.736484
C 0.764209 5.737748 4.237428
C 1.012984 5.003039 4.001380
C 1.015398 5.498248 4.487768
C 1.481121 4.978320 4.497400
C 1.496749 5.484104 3.984627
C 1.256278 5.248587 4.236514
C 1.241483 5.735239 4.743674
C 1.734169 5.258302 4.756701
C 1.762758 5.748619 4.242987
C 2.006944 5.008344 4.013810
C 1.978810 5.489826 4.507112
C 2.513156 4.990888 4.489323
C 2.509652 5.486120 4.000597
C 2.243759 5.260692 4.269816
C 2.249914 5.744962 4.773482
C 2.768802 5.244337 4.743063
C 2.736893 5.733473 4.245628
C 3.007051 5.009135 4.015215
C 2.990153 5.482009 4.478436
C 3.485298 4.995343 4.500145
C 3.517020 5.500484 4.012761
C 3.260120 5.262134 4.235331
C 3.255668 5.743483 4.769331
C 3.744625 5.249051 4.739163
C 3.769641 5.735009 4.244501
C 3.995370 5.004620 4.008616
C 3.998573 5.497616 4.512464
C 4.499117 5.003194 4.496125
C 4.497355 5.512689 4.012915
C 4.246539 5.246963 4.254363
C 4.235249 5.747175 4.756923
C 4.751858 5.250965 4.747239
C 4.745744 5.742435 4.263672
C 4.998920 5.005699 3.999449
C 5.004224 5.492666 4.508714
C 5.484074 4.996349 4.496520
C 5.491004 5.490597 3.985994
C 5.241322 5.245613 4.264244
C 5.270169 5.742036 4.745043
C 5.742678 5.244993 4.758868
C 5.743304 5.745711 4.241574
C 0.007794 0.019698 4.983628
C 0.005582 0.492301 5.514812
C 0.476231 0.012313 5.501351
C 0.507688 0.479916 5.007419
C 0.247295 0.236484 5.249960
C 0.264587 0.738381 5.735501
C 0.738270 0.247211 5.748438
C 0.771825 0.750247 5.253484
C 1.019231 0.003149 4.987617
C 1.000944 0.503390 5.495071
C 1.503404 0.008578 5.497186
C 1.513742 0.519925 4.995801
C 1.242475 0.247563 5.240049
C 1.261343 0.765865 5.736865
C 1.765085 0.251700 5.740738
C 1.757943 0.747802 5.250307
C 2.019413 0.004700 5.008298
C 1.994828 0.486400 5.491167
C 2.473164 0.009009 5.508851
C 2.507672 0.494604 4.991490
C 2.246771 0.246597 5.261046
C 2.263119 0.741474 5.744242
C 2.735736 0.243284 5.742922
C 2.755775 0.735790 5.235737
C 2.996851 0.013692 4.993062
C 2.986036 0.495966 5.513283
C 3.485307 0.005191 5.504723
C 3.513314 0.500055 4.979860
C 3.269303 0.241408 5.233306
C 3.260773 0.732389 5.749457
C 3.759538 0.244284 5.736073
C 3.753212 0.749763 5.243814
C 4.007784 0.009379 5.007565
C 4.001781 0.482717 5.488027
C 4.484742 0.000976 5.504779
C 4.503076 0.523781 5.003046
C 4.259840 0.250136 5.254388
C 4.260954 0.737600 5.725498
C 4.768085 0.262444 5.747190
C 4.751830 0.757048 5.241455
C 5.013095 0.012197 5.019409
C 4.988927 0.511857 5.504134
C 5.498192 0.008429 5.515054
C 5.508459 0.496121 4.983939
C 5.267482 0.256123 5.228433
C 5.244699 0.752270 5.723853
C 5.740245 0.252736 5.740455
C 5.733139 0.733275 5.246993
C 0.018360 0.983869 4.991460
C 0.004950 1.510147 5.482158
C 0.486750 0.998847 5.510843
C 0.500187 1.492096 5.005556
C 0.243139 1.260503 5.248951
C 0.249456 1.749156 5.747916
C 0.770006 1.251134 5.748647
C 0.735780 1.738235 5.246071
C 1.005307 1.003648 4.999273
C 1.008747 1.490945 5.496450
C 1.503460 1.000613 5.497221
C 1.497370 1.514126 5.010596
C 1.244700 1.236117 5.257501
C 1.250931 1.722061 5.744800
C 1.747828 1.254228 5.731826
C 1.735520 1.754687 5.256303
C 1.996049 0.998635 5.013891
C 2.015882 1.499641 5.508614
C 2.498858 1.008732 5.521403
C 2.486328 1.503182 4.994432
C 2.222875 1.249509 5.250694
C 2.270993 1.742187 5.745947
C 2.763577 1.228738 5.737831
C 2.749271 1.745115 5.269211
C 2.984429 1.002952 5.016480
C 3.004981 1.509363 5.487009
C 3.507623 1.011708 5.509819
C 3.493833 1.503212 5.001430
C 3.238711 1.244604 5.271315
C 3.265546 1.767652 5.748549
C 3.757025 1.243898 5.742035
C 3.770874 1.750893 5.257313
C 4.005588 1.017808 5.001062
C 4.020152 1.491198 5.484797
C 4.479538 0.996298 5.495205
C 4.508124 1.486508 4.999499
C 4.264017 1.247572 5.253753
C 4.256357 1.759452 5.740843
C 4.727050 1.242018 5.738406
C 4.749929 1.741997 5.237196
C 5.003242 1.011971 4.993422
C 4.999017 1.487368 5.513580
C 5.507234 1.004139 5.498359
C 5.508001 1.484198 5.009281
C 5.262832 1.243038 5.251514
C 5.267036 1.738415 5.749910
C 5.742297 1.266653 5.745640
C 5.746612 1.744956 5.266991
C 0.011349 1.996174 5.013417
C 0.001329 2.503952 5.520335
C 0.506589 1.992366 5.496001
C 0.489876 2.501290 5.007588
C 0.249661 2.260696 5.259743
C 0.244353 2.736690 5.720761
C 0.734778 2.259736 5.733177
C 0.758081 2.739622 5.232699
C 1.012252 2.001736 5.000984
C 1.014210 2.495551 5.494101
C 1.515336 2.002761 5.496179
C 1.493902 2.505562 4.977205
C 1.271837 2.255415 5.261310
C 1.253268 2.774759 5.747302
C 1.763343 2.233630 5.749329
C 1.769680 2.754649 5.244470
C 2.002330 2.007655 4.983643
C 2.011388 2.514734 5.493320
C 2.492087 2.011568 5.506065
C 2.492372 2.507928 4.998663
C 2.240116 2.248171 5.240566
C 2.235493 2.746142 5.747938
C 2.756735 2.247420 5.732644
C 2.760056 2.740245 5.238444
C 3.021726 1.988855 5.003120
C 2.991294 2.499600 5.498992
C 3.501973 2.015629 5.496065
C 3.506324 2.501561 5.000454
C 3.233729 2.242460 5.254104
C 3.239178 2.759530 5.737749
C 3.764528 2.262857 5.735951
C 3.749119 2.769708 5.260151
C 4.004875 2.008043 5.001804
C 4.019753 2.508597 5.497172
C 4.516906 1.987151 5.493688
C 4.489362 2.491567 4.998673
C 4.266790 2.247468 5.266365
C 4.267980 2.741129 5.732591
C 4.757309 2.239034 5.732643
C 4.755247 2.730597 5.253617
C 5.006557 1.999157 4.986720
C 5.009873 2.505985 5.483191
C 5.521960 1.994426 5.499346
C 5.522375 2.499651 5.004178
C 5.248048 2.237884 5.238608
C 5.268553 2.740038 5.749541
C 5.727291 2.238293 5.741550
C 5.739615 2.749956 5.253893
C 0.005668 3.000303 5.017487
C 0.011705 3.478011 5.500447
C 0.497189 3.000214 5.514901
C 0.507403 3.489024 5.010793
C 0.257351 3.236567 5.252961
C 0.237836 3.730365 5.748742
C 0.734637 3.253928 5.744667
C 0.759323 3.762178 5.260473
C 0.987112 2.998166 4.986279
C 1.004207 3.501022 5.501363
C 1.504950 2.979382 5.491782
C 1.505648 3.482206 5.013102
C 1.239993 3.240008 5.265262
C 1.268734 3.761462 5.739951
C 1.746736 3.256408 5.743149
C 1.748153 3.757114 5.262145
C 1.996810 3.010596 5.020828
C 1.999325 3.522567 5.494810
C 2.489960 3.011620 5.515825
C 2.506137 3.484520 5.005049
C 2.247518 3.256821 5.232753
C 2.252813 3.738345 5.722411
C 2.757830 3.262548 5.742045
C 2.742862 3.751547 5.247336
C 2.998175 3.006505 5.014294
C 3.007770 3.516147 5.505988
C 3.492972 2.987133 5.504196
C 3.518358 3.502723 5.009335
C 3.256468 3.257929 5.254760
C 3.278026 3.757107 5.747958
C 3.762376 3.249187 5.746195
C 3.761136 3.753766 5.252637
C 3.993547 2.996415 5.005342
C 3.999059 3.519770 5.512269
C 4.489215 2.995489 5.520778
C 4.501117 3.504838 5.010028
C 4.255158 3.246250 5.265357
C 4.254538 3.756572 5.740491
C 4.750004 3.252076 5.730917
C 4.738918 3.774695 5.256899
C 5.007816 3.002429 5.000992
C 5.005847 3.519851 5.491577
C 5.501535 2.976217 5.503945
C 5.513087 3.510082 4.996644
C 5.238870 3.246260 5.241577
C 5.223422 3.742981 5.746961
C 5.747597 3.245593 5.733343
C 5.745279 3.753354 5.268336
C 0.007016 4.027960 4.987687
C 0.010339 4.493536 5.514371
C 0.500772 3.994470 5.494751
C 0.492055 4.517714 5.008055
C 0.262643 4.238409 5.253132
C 0.259747 4.752838 5.748146
C 0.754969 4.264795 5.748216
C 0.736399 4.743967 5.261458
C 0.997420 3.991124 4.983297
C 1.013978 4.517366 5.507557
C 1.486826 3.994496 5.487008
C 1.522994 4.500216 4.993221
C 1.242370 4.243857 5.252115
C 1.229002 4.767317 5.745780
C 1.768487 4.256085 5.735717
C 1.753890 4.764066 5.247492
C 1.987032 3.985661 5.005346
C 1.985745 4.504825 5.487835
C 2.511464 3.989134 5.516381
C 2.491880 4.491251 4.980980
C 2.237317 4.244988 5.261266
C 2.253775 4.753677 5.746862
C 2.759773 4.264259 5.731927
C 2.769966 4.760954 5.264458
C 2.996858 4.010031 4.984988
C 3.008441 4.508317 5.511975
C 3.481974 3.996881 5.493768
C 3.501181 4.513685 5.002568
C 3.262579 4.249820 5.259483
C 3.248889 4.756507 5.743521
C 3.733426 4.243094 5.747422
C 3.750943 4.768775 5.246712
C 3.989034 3.988144 5.004193
C 3.999805 4.496264 5.517975
C 4.513273 4.001731 5.509822
C 4.488136 4.491158 4.993424
C 4.257033 4.237008 5.257170
C 4.236366 4.743183 5.735437
C 4.751776 4.249646 5.731220
C 4.757238 4.727869 5.235319
C 4.989504 3.989622 5.008343
C 4.991187 4.509765 5.492519
C 5.518403 4.009085 5.499885
C 5.495249 4.499733 5.009515
C 5.244919 4.265010 5.237780
C 5.252532 4.768716 5.742345
C 5.745767 4.282401 5.737319
C 5.747046 4.727779 5.245548
C 0.000536 4.974344 5.002080
C 0.019631 5.504549 5.497613
C 0.494726 5.002117 5.520139
C 0.485481 5.491020 4.993602
C 0.249651 5.238627 5.240042
C 0.257789 5.730632 5.744503
C 0.745823 5.226786 5.742401
C 0.743295 5.734045 5.263455
C 0.979187 4.995292 5.000047
C 0.997607 5.508403 5.488070
C 1.486521 4.996728 5.508025
C 1.509214 5.513653 4.996795
C 1.239023 5.250559 5.238767
C 1.248960 5.748120 5.749678
C 1.729067 5.252642 5.747376
C 1.768729 5.747467 5.252631
C 2.004366 5.000151 4.997155
C 2.003614 5.505985 5.519977
C 2.495646 5.007932 5.496864
C 2.502046 5.496536 4.990834
C 2.258259 5.233221 5.239656
C 2.272066 5.744685 5.747243
C 2.729184 5.251092 5.749692
C 2.741387 5.744828 5.247124
C 3.010572 4.997742 4.999956
C 3.003536 5.506793 5.515880
C 3.511443 5.009665 5.484869
C 3.502222 5.507117 5.017573
C 3.252477 5.254022 5.240743
C 3.267360 5.722760 5.744388
C 3.743072 5.250585 5.747350
C 3.750347 5.744393 5.263601
C 3.992061 5.012097 4.996143
C 3.984913 5.490643 5.486292
C 4.508311 4.974511 5.494247
C 4.506898 5.512975 5.007647
C 4.241081 5.254256 5.260800
C 4.245616 5.723541 5.745085
C 4.739053 5.246234 5.724139
C 4.746552 5.739496 5.257921
C 4.990686 4.995553 4.979976
C 5.003235 5.511779 5.505314
C 5.523764 4.999202 5.488917
C 5.496027 5.507448 4.999200
C 5.226709 5.239978 5.243647
C 5.254405 5.749424 5.723252
C 5.733146 5.248944 5.743793
C 5.743292 5.744099 5.258195
1728
Frame 3/10
C 0.034436 0.001079 0.020624
C 0.027767 0.486337 0.496148
C 0.531828 0.035726 0.497423
C 0.502892 0.490988 0.033124
C 0.273488 0.244585 0.254163
C 0.243448 0.749732 0.729389
C 0.733954 0.231025 0.764762
C 0.760359 0.786035 0.251503
C 0.996386 0.020653 0.023489
C 0.993126 0.524038 0.489478
C 1.512649 0.023862 0.510439
C 1.532188 0.480978 0.004049
C 1.215379 0.259277 0.246693
C 1.248195 0.742235 0.749271
C 1.764672 0.269778 0.708055
C 1.735680 0.739119 0.215519
C 2.022570 0.008414 0.002552
C 1.969771 0.523511 0.499000
C 2.539711 0.008721 0.521144
C 2.537404 0.486245 0.007903
C 2.266989 0.209814 0.251702
C 2.242067 0.737553 0.791918
C 2.777740 0.231232 0.747650
C 2.775321 0.736494 0.272433
C 2.976365 0.020098 0.014967
C 3.012916 0.511780 0.507078
C 3.524999 0.025359 0.483699
C 3.538870 0.515710 0.006816
C 3.276728 0.252326 0.257533
C 3.236184 0.756310 0.713094
C 3.718606 0.239673 0.736739
C 3.767023 0.753847 0.238956
C 4.033350 0.001894 0.030480
C 4.017205 0.527376 0.506997
C 4.497161 0.027874 0.468634
C 4.495864 0.495653 0.009489
C 4.224471 0.244066 0.280899
C 4.233207 0.757515 0.752387
C 4.752511 0.250713 0.787541
C 4.742878 0.748447 0.231462
C 4.955989 0.031032 0.014217
C 4.989484 0.492236 0.456479
C 5.468196 0.026987 0.529681
C 5.533203 0.501052 0.005211
C 5.250865 0.247389 0.210478
C 5.235870 0.732909 0.764062
C 5.736793 0.255788 0.750565
C 5.709395 0.736268 0.241437
C 0.004318 0.987636 0.028289
C 0.001638 1.488816 0.520076
C 0.492203 0.973242 0.476464
C 0.495490 1.493991 0.011909
C 0.250344 1.222830 0.250961
C 0.218984 1.753326 0.778317
C 0.762221 1.281194 0.750984
C 0.751832 1.719630 0.225898
C 1.006001 0.960094 0.022352
C 1.010303 1.526995 0.500769
C 1.484562 0.990052 0.498774
C 1.488202 1.473696 0.009764
C 1.255456 1.224840 0.241369
C 1.243634 1.749079 0.765075
C 1.760801 1.223631 0.734469
C 1.747519 1.738898 0.207528
C 1.995602 1.007401 0.000331
C 1.997708 1.516576 0.483641
C 2.505135 1.006908 0.536025
C 2.457585 1.510791 0.002824
C 2.251540 1.228849 0.223177
C 2.217704 1.731387 0.748039
C 2.733626 1.247923 0.712866
C 2.778970 1.730507 0.228746
C 2.972395 1.017655 0.039762
C 2.995870 1.478167 0.528191
C 3.499693 1.001096 0.477179
C 3.512409 1.549750 0.010696
C 3.222820 1.231684 0.234631
C 3.256692 1.724961 0.784372
C 3.743045 1.244922 0.730387
C 3.766685 1.736667 0.227217
C 4.017204 0.974871 0.001387
C 4.038674 1.504036 0.511132
C 4.520198 0.986540 0.475403
C 4.540331 1.467583 0.007447
C 4.273670 1.247988 0.267485
C 4.241855 1.758187 0.775252
C 4.730258 1.256549 0.788212
C 4.737607 1.793022 0.260153
C 4.957744 1.002770 0.007928
C 5.033373 1.491647 0.508303
C 5.470260 1.005817 0.512987
C 5.527421 1.508826 0.000085
C 5.244404 1.276238 0.251018
C 5.240981 1.744963 0.714748
C 5.737564 1.225261 0.755332
C 5.714364 1.747665 0.237555
C 0.049496 2.004677 0.030983
C 0.014845 2.486802 0.539333
C 0.504911 1.997303 0.479820
C 0.487593 2.507243 0.030170
C 0.234178 2.267695 0.228769
C 0.246086 2.724191 0.763668
C 0.769009 2.263395 0.774359
C 0.781699 2.753083 0.233847
C 0.996351 2.035712 0.002168
C 0.981775 2.527350 0.477692
C 1.510516 2.026850 0.504944
C 1.496233 2.532033 0.035951
C 1.255176 2.237162 0.242969
C 1.245433 2.773811 0.727652
C 1.766479 2.223336 0.744106
C 1.759255 2.761242 0.285851
C 2.033530 1.991058 0.022421
C 2.036087 2.518054 0.494054
C 2.507009 1.994202 0.521055
C 2.525351 2.540990 0.008298
C 2.230077 2.243314 0.226409
C 2.281969 2.790075 0.741130
C 2.767197 2.222782 0.744942
C 2.758074 2.697898 0.239541
C 2.980213 2.027529 0.012527
C 3.019979 2.469191 0.511815
C 3.531002 2.023623 0.509651
C 3.502594 2.481114 0.011713
C 3.248161 2.279906 0.225080
C 3.241493 2.774314 0.732426
C 3.757874 2.212113 0.777587
C 3.717098 2.726443 0.241977
C 3.966064 1.991606 0.003565
C 4.021427 2.462866 0.472888
C 4.472014 1.993146 0.489127
C 4.534193 2.543552 0.008185
C 4.218700 2.252774 0.219782
C 4.225292 2.761312 0.771918
C 4.720672 2.227697 0.753481
C 4.779960 2.735323 0.260746
C 5.007300 1.974690 0.015269
C 5.020577 2.510883 0.527885
C 5.460116 1.992364 0.501993
C 5.502429 2.444927 0.011733
C 5.273951 2.221503 0.249035
C 5.270306 2.754402 0.768581
C 5.730406 2.268011 0.772933
C 5.725420 2.746030 0.229394
C 0.023792 2.973786 0.005599
C 0.006080 3.500566 0.459864
C 0.495542 2.972441 0.483028
C 0.497240 3.527680 0.001450
C 0.239446 3.260792 0.231895
C 0.278453 3.748337 0.725334
C 0.722578 3.234193 0.761606
C 0.778706 3.759774 0.253446
C 0.951546 2.989024 0.006546
C 0.978086 3.476212 0.484608
C 1.511220 3.002144 0.512208
C 1.533061 3.495685 0.034526
C 1.205567 3.263172 0.238818
C 1.270775 3.734991 0.735653
C 1.738501 3.250913 0.771015
C 1.775988 3.771029 0.226387
C 1.984425 3.023570 0.009232
C 2.015923 3.466780 0.526591
C 2.517057 2.996976 0.481036
C 2.500600 3.501997 0.012605
C 2.223706 3.263605 0.259256
C 2.220128 3.743799 0.745366
C 2.774300 3.217863 0.759320
C 2.792167 3.753259 0.238736
C 2.980618 2.999759 0.004295
C 3.015416 3.469994 0.465253
C 3.535992 2.999272 0.474494
C 3.477793 3.506867 0.035258
C 3.262229 3.248263 0.256952
C 3.243404 3.785228 0.744475
C 3.777028 3.259497 0.750998
C 3.744065 3.763559 0.221864
C 3.961867 2.987326 0.016026
C 3.992964 3.484240 0.498929
C 4.489795 2.983743 0.461619
C 4.498968 3.500932 0.030886
C 4.211802 3.274428 0.225278
C 4.253261 3.719716 0.730065
C 4.777517 3.259596 0.724994
C 4.754237 3.772262 0.214073
C 5.002589 3.019558 0.001514
C 4.961962 3.504578 0.497498
C 5.509982 3.026735 0.507576
C 5.501508 3.477149 0.038463
C 5.220973 3.263986 0.244079
C 5.249110 3.705712 0.744946
C 5.743255 3.234712 0.771170
C 5.748682 3.735772 0.272557
C 0.003149 4.017324 0.030223
C 0.000302 4.476567 0.470213
C 0.522496 4.015868 0.532613
C 0.513577 4.519318 0.023033
C 0.243518 4.246148 0.241286
C 0.228031 4.770600 0.748528
C 0.748307 4.258118 0.773511
C 0.755816 4.717908 0.260880
C 0.998957 4.050925 0.029628
C 0.992878 4.495432 0.517802
C 1.531823 4.024340 0.481804
C 1.448157 4.484132 0.005023
C 1.242390 4.208129 0.261793
C 1.232432 4.792377 0.726837
C 1.722379 4.260741 0.749133
C 1.728889 4.763080 0.286145
C 2.039772 4.031422 0.010066
C 2.000267 4.525132 0.469133
C 2.512142 3.982378 0.531138
C 2.470021 4.531882 0.030030
C 2.258204 4.277245 0.220674
C 2.273611 4.742326 0.752488
C 2.724952 4.259851 0.731800
C 2.750265 4.752611 0.274680
C 3.016663 4.004794 0.009373
C 3.002167 4.474196 0.503619
C 3.498175 3.995567 0.536144
C 3.501101 4.545529 0.006139
C 3.285146 4.238993 0.244683
C 3.252344 4.767195 0.756958
C 3.781166 4.239370 0.761847
C 3.743698 4.744810 0.242234
C 4.001729 3.989869 0.002609
C 4.019438 4.503088 0.507519
C 4.482223 3.963906 0.470636
C 4.518521 4.530082 0.033797
C 4.275470 4.230716 0.270546
C 4.285659 4.723601 0.720884
C 4.761357 4.232053 0.757853
C 4.727179 4.758408 0.276096
C 5.020169 3.968118 0.015866
C 4.995951 4.475477 0.505000
C 5.509642 3.984118 0.532036
C 5.489392 4.489179 0.004228
C 5.239665 4.257165 0.271465
C 5.274538 4.782438 0.731515
C 5.718362 4.258328 0.732564
C 5.741142 4.766420 0.266753
C 0.000217 5.032032 0.044923
C 0.003942 5.472877 0.461854
C 0.501626 4.979202 0.505297
C 0.495426 5.533807 0.003552
C 0.264282 5.238354 0.244897
C 0.242648 5.731245 0.773870
C 0.717093 5.260895 0.736118
C 0.747250 5.740356 0.278631
C 1.028193 4.970307 0.013767
C 1.007164 5.532088 0.507323
C 1.471630 4.989632 0.474036
C 1.532393 5.466555 0.011820
C 1.278722 5.264051 0.249161
C 1.242319 5.700118 0.742774
C 1.762552 5.266490 0.792841
C 1.759811 5.745648 0.259079
C 1.962018 5.010447 0.002027
C 1.985805 5.504026 0.546892
C 2.515714 5.021621 0.528202
C 2.536366 5.483078 0.023879
C 2.245488 5.280578 0.252567
C 2.239569 5.739863 0.751183
C 2.784227 5.263641 0.734612
C 2.718251 5.736878 0.231334
C 3.018209 4.968490 0.000367
C 3.001612 5.514105 0.516825
C 3.501700 4.979783 0.482104
C 3.472972 5.521031 0.029460
C 3.212357 5.236088 0.251299
C 3.297121 5.720852 0.717877
C 3.736079 5.254888 0.764436
C 3.744263 5.722710 0.282375
C 3.957052 5.013741 0.001243
C 3.978028 5.464410 0.516802
C 4.530497 5.004299 0.515837
C 4.483834 5.466378 0.015473
C 4.295239 5.236786 0.258046
C 4.241442 5.723688 0.735604
C 4.737114 5.264933 0.721179
C 4.801213 5.723917 0.261767
C 4.983497 4.992038 0.031400
C 5.019660 5.486855 0.510624
C 5.493283 4.994160 0.466737
C 5.508437 5.468582 0.010605
C 5.234418 5.231838 0.263803
C 5.288681 5.724869 0.747009
C 5.747289 5.235110 0.711399
C 5.745516 5.722865 0.214946
C 0.010974 0.013505 0.997844
C 0.015317 0.481961 1.465161
C 0.486613 0.025964 1.464228
C 0.510732 0.471394 0.980359
C 0.265994 0.208543 1.217424
C 0.217366 0.729064 1.752172
C 0.720643 0.262329 1.776700
C 0.713876 0.762129 1.248054
C 0.968132 0.000428 0.996555
C 1.041307 0.500076 1.505169
C 1.496040 0.018736 1.503838
C 1.480912 0.502255 1.022810
C 1.288470 0.259291 1.257579
C 1.271143 0.735597 1.729317
C 1.726333 0.228133 1.747250
C 1.785194 0.720009 1.246364
C 2.024434 0.005561 0.992398
C 2.024514 0.504944 1.514133
C 2.557007 0.018545 1.494323
C 2.499779 0.462622 0.994256
C 2.251980 0.292587 1.234275
C 2.265209 0.730668 1.790735
C 2.766259 0.271310 1.738455
C 2.721909 0.763257 1.257226
C 2.987324 0.009914 1.054829
C 3.006680 0.468566 1.484205
C 3.471286 0.026350 1.502215
C 3.496021 0.498493 1.005229
C 3.272810 0.271233 1.239624
C 3.232089 0.777840 1.751551
C 3.777498 0.260681 1.772618
C 3.742285 0.767064 1.239371
C 4.048276 0.019415 1.008329
C 4.003839 0.513314 1.510229
C 4.500383 0.011955 1.509953
C 4.474150 0.494011 1.024569
C 4.253084 0.271133 1.273070
C 4.227877 0.712858 1.765097
C 4.774314 0.267131 1.769618
C 4.778990 0.758406 1.267049
C 5.040924 0.005038 0.998346
C 4.987010 0.490625 1.514353
C 5.444584 0.010105 1.518579
C 5.486878 0.533860 1.008850
C 5.231417 0.248348 1.224978
C 5.241795 0.725964 1.736055
C 5.744039 0.243973 1.700843
C 5.743116 0.766084 1.218365
C 0.008458 1.015065 1.010355
C 0.029257 1.514976 1.470671
C 0.489439 0.979357 1.521140
C 0.495299 1.549610 1.013248
C 0.258160 1.221700 1.228047
C 0.284048 1.764325 1.750615
C 0.744799 1.266514 1.765911
C 0.776861 1.776149 1.233239
C 0.988174 0.971886 1.011419
C 0.996202 1.494615 1.531397
C 1.536107 1.022606 1.510533
C 1.472176 1.486861 0.991687
C 1.261133 1.278904 1.243403
C 1.253359 1.716279 1.762521
C 1.722759 1.222728 1.763453
C 1.757897 1.725896 1.267564
C 2.009740 0.975865 0.983679
C 2.003836 1.515973 1.531409
C 2.492509 1.000082 1.470584
C 2.494318 1.527403 1.011010
C 2.286285 1.233167 1.227249
C 2.254947 1.750475 1.717710
C 2.763048 1.262120 1.733702
C 2.787733 1.770841 1.242415
C 3.032395 1.014220 1.005054
C 2.960066 1.527243 1.488107
C 3.536087 1.020661 1.508873
C 3.451628 1.476188 1.000386
C 3.219519 1.223826 1.268434
C 3.251887 1.779317 1.790887
C 3.722737 1.293767 1.730063
C 3.749118 1.745733 1.289709
C 3.988050 0.976301 0.977892
C 3.990369 1.471957 1.521643
C 4.476195 0.980853 1.515732
C 4.487337 1.495125 0.999556
C 4.244333 1.289300 1.226689
C 4.222434 1.770169 1.764578
C 4.738198 1.291892 1.757234
C 4.740865 1.762218 1.242633
C 4.992431 1.024761 0.983916
C 5.005388 1.498348 1.518584
C 5.503397 1.028407 1.476972
C 5.460870 1.499505 0.986455
C 5.267670 1.263300 1.280578
C 5.217833 1.743471 1.755801
C 5.746738 1.303006 1.776715
C 5.730043 1.733192 1.272095
C 0.004430 1.976228 1.031870
C 0.030418 2.508701 1.478336
C 0.492733 2.039819 1.518912
C 0.488749 2.541864 0.987928
C 0.272563 2.231745 1.229923
C 0.236991 2.769055 1.731409
C 0.747065 2.234203 1.782886
C 0.736229 2.722971 1.222177
C 0.986833 1.978305 0.980412
C 1.006068 2.533536 1.477477
C 1.527726 2.011819 1.504311
C 1.493140 2.500848 1.008848
C 1.264370 2.217566 1.252170
C 1.223960 2.767385 1.743380
C 1.744311 2.276546 1.750483
C 1.752347 2.738678 1.229852
C 1.992794 1.987446 0.993446
C 2.009546 2.502350 1.526859
C 2.516363 2.032988 1.518077
C 2.499309 2.547055 0.996473
C 2.227554 2.242217 1.244396
C 2.287278 2.737114 1.768585
C 2.766077 2.283239 1.747623
C 2.732478 2.730328 1.270935
C 2.978576 2.022390 1.014472
C 3.009201 2.537927 1.527412
C 3.531213 2.002691 1.506767
C 3.498922 2.514341 1.007415
C 3.252866 2.226941 1.229290
C 3.275342 2.746169 1.776431
C 3.737076 2.233471 1.751551
C 3.723034 2.740935 1.246275
C 4.012890 1.992652 1.001912
C 3.978163 2.496583 1.477279
C 4.491366 1.992038 1.447643
C 4.510518 2.474410 1.009668
C 4.230537 2.279948 1.255655
C 4.236946 2.725891 1.724461
C 4.744104 2.269013 1.718633
C 4.741811 2.758171 1.265905
C 4.989465 1.980569 1.035453
C 5.028210 2.494441 1.512302
C 5.493716 1.984357 1.477364
C 5.465957 2.485211 0.996008
C 5.246847 2.211869 1.260064
C 5.252849 2.778286 1.781637
C 5.739448 2.255119 1.728380
C 5.744202 2.730551 1.220251
C 0.001195 2.984753 0.969566
C 0.034105 3.476914 1.517538
C 0.511777 3.031049 1.504366
C 0.476499 3.516179 1.026880
C 0.289990 3.264723 1.276204
C 0.256558 3.741361 1.701556
C 0.786469 3.242167 1.783657
C 0.762402 3.709474 1.268810
C 0.984700 2.984247 1.017049
C 0.996390 3.498813 1.512019
C 1.494016 2.971514 1.522899
C 1.483655 3.491414 0.977985
C 1.243070 3.241302 1.234877
C 1.278913 3.756139 1.763835
C 1.721550 3.283324 1.758307
C 1.759233 3.714251 1.249080
C 1.978473 3.003703 1.013719
C 2.000716 3.475866 1.455613
C 2.510928 2.981061 1.486737
C 2.508662 3.484503 1.028928
C 2.222876 3.227531 1.285180
C 2.225740 3.735024 1.732148
C 2.748693 3.230116 1.744293
C 2.743714 3.725938 1.277476
C 2.995192 2.972652 0.991456
C 2.974190 3.488524 1.493129
C 3.490525 2.974393 1.510266
C 3.527328 3.470838 0.972660
C 3.227382 3.239691 1.258898
C 3.267267 3.738249 1.736398
C 3.787234 3.258378 1.727089
C 3.738130 3.718621 1.255708
C 3.968588 2.974667 0.984152
C 4.025076 3.513978 1.513387
C 4.504179 3.029421 1.463746
C 4.500150 3.476921 1.028961
C 4.236027 3.273748 1.258454
C 4.274887 3.735123 1.756121
C 4.764887 3.238663 1.791329
C 4.766473 3.712449 1.279253
C 5.021202 3.018483 0.966843
C 5.023983 3.492490 1.472172
C 5.508165 2.975512 1.487387
C 5.477078 3.478947 0.990711
C 5.296880 3.251270 1.249132
C 5.249811 3.738428 1.757834
C 5.737112 3.243907 1.779333
C 5.742206 3.776782 1.290195
C 0.005926 4.011307 0.989031
C 0.000414 4.541528 1.513738
C 0.486365 3.991720 1.518235
C 0.540901 4.523688 0.994561
C 0.223418 4.262828 1.214924
C 0.279590 4.775510 1.761052
C 0.726434 4.256494 1.750925
C 0.762786 4.780444 1.242150
C 1.006786 4.009665 1.003498
C 0.978677 4.482641 1.513613
C 1.464811 3.985942 1.512155
C 1.509556 4.503352 1.006855
C 1.262654 4.252779 1.272195
C 1.250805 4.791319 1.761828
C 1.734585 4.226908 1.720647
C 1.773474 4.746744 1.269419
C 1.976863 4.028423 1.001571
C 1.994343 4.474324 1.513516
C 2.481141 3.975624 1.516637
C 2.478178 4.507017 1.006832
C 2.212736 4.229726 1.239220
C 2.227996 4.771194 1.770186
C 2.786836 4.259140 1.739439
C 2.735640 4.717274 1.227823
C 3.021445 3.954220 1.001345
C 2.984101 4.504008 1.485819
C 3.508447 4.025811 1.472165
C 3.490381 4.500410 1.015845
C 3.264896 4.281857 1.255615
C 3.217117 4.772010 1.749736
C 3.751714 4.249306 1.738310
C 3.737115 4.722792 1.217536
C 3.992417 3.974932 0.994342
C 4.014633 4.500061 1.489845
C 4.531987 4.036808 1.508867
C 4.496742 4.548378 1.020538
C 4.269127 4.245841 1.211511
C 4.206446 4.739017 1.737096
C 4.740886 4.262656 1.796242
C 4.728719 4.764549 1.258541
C 4.962387 3.978245 1.025323
C 4.992377 4.472019 1.494693
C 5.487050 3.990124 1.474489
C 5.472453 4.521842 0.981295
C 5.254976 4.229906 1.235117
C 5.227251 4.772196 1.740021
C 5.749599 4.253663 1.767041
C 5.731562 4.748971 1.257215
C 0.015989 5.058874 1.008226
C 0.020117 5.471485 1.488714
C 0.488654 5.017841 1.510032
C 0.493358 5.483020 1.013555
C 0.268664 5.243900 1.239898
C 0.292126 5.746703 1.721666
C 0.725738 5.254240 1.729075
C 0.734676 5.736337 1.283711
C 0.977710 5.006675 0.992544
C 0.971931 5.509182 1.524748
C 1.495290 4.970565 1.522612
C 1.473371 5.526705 1.000721
C 1.276900 5.269097 1.258650
C 1.242151 5.707693 1.744450
C 1.756480 5.273448 1.740727
C 1.733128 5.699775 1.233087
C 2.004251 5.036030 0.974956
C 1.998019 5.512619 1.497514
C 2.479236 5.018117 1.509295
C 2.476846 5.527686 1.014371
C 2.247481 5.247358 1.257846
C 2.213695 5.746917 1.728476
C 2.716333 5.235088 1.761652
C 2.770610 5.740130 1.292623
C 2.995566 4.982028 0.997479
C 3.028638 5.513145 1.491798
C 3.456354 4.995927 1.510615
C 3.484886 5.467676 0.982679
C 3.264170 5.245850 1.276786
C 3.277003 5.744024 1.727001
C 3.724739 5.274452 1.781174
C 3.757281 5.743764 1.275463
C 3.999137 5.002952 0.982036
C 3.994719 5.457015 1.484743
C 4.509038 5.004071 1.481039
C 4.497092 5.465935 0.967585
C 4.241178 5.255291 1.259408
C 4.294328 5.747747 1.742441
C 4.713713 5.255447 1.734105
C 4.773187 5.744233 1.219747
C 5.019764 4.975654 0.975189
C 5.004469 5.496558 1.481409
C 5.542998 5.007852 1.525743
C 5.537065 5.475015 0.971559
C 5.265444 5.243377 1.279157
C 5.239306 5.706639 1.729116
C 5.735566 5.291670 1.763732
C 5.701462 5.729811 1.242012
C 0.039223 0.000473 2.036373
C 0.024590 0.530784 2.515105
C 0.473251 0.021721 2.533422
C 0.501952 0.544289 1.976967
C 0.258492 0.259641 2.212575
C 0.251777 0.772613 2.785625
C 0.726251 0.251088 2.735219
C 0.739559 0.710718 2.229168
C 0.999697 0.011202 1.953900
C 1.007050 0.490026 2.543615
C 1.473432 0.008464 2.539603
C 1.476248 0.481915 2.031317
C 1.237201 0.223036 2.260131
C 1.256774 0.757165 2.730919
C 1.768948 0.243163 2.776829
C 1.700641 0.740809 2.256848
C 1.976969 0.003879 2.004447
C 2.028630 0.542605 2.496001
C 2.502634 0.026593 2.487283
C 2.522254 0.481410 2.033448
C 2.256229 0.277686 2.268313
C 2.237376 0.745457 2.759996
C 2.750110 0.279752 2.758528
C 2.751141 0.739750 2.290440
C 2.967297 0.014535 1.987041
C 3.009884 0.482096 2.477141
C 3.511970 0.037907 2.496277
C 3.507571 0.518912 2.036488
C 3.241394 0.300438 2.237668
C 3.269010 0.736915 2.797844
C 3.798904 0.223621 2.757038
C 3.747966 0.764160 2.278828
C 3.992588 0.015103 2.028396
C 4.028027 0.504613 2.508493
C 4.485490 0.019764 2.525126
C 4.525448 0.491647 1.993531
C 4.241257 0.251807 2.214877
C 4.282424 0.746049 2.763423
C 4.745315 0.255153 2.730186
C 4.739019 0.776421 2.219413
C 4.991681 0.034599 2.005700
C 5.034999 0.508912 2.491524
C 5.504702 0.023921 2.460049
C 5.492043 0.515599 1.996103
C 5.232728 0.266525 2.242093
C 5.266359 0.778023 2.747229
C 5.736790 0.212594 2.698423
C 5.749838 0.757917 2.203543
C 0.007413 0.969903 1.993675
C 0.014300 1.478630 2.469470
C 0.520191 0.971155 2.488535
C 0.471036 1.514845 1.971364
C 0.304624 1.250358 2.260508
C 0.246535 1.757328 2.729414
C 0.748677 1.212916 2.754523
C 0.747968 1.727809 2.282642
C 1.022462 0.989611 1.970093
C 1.016902 1.512623 2.504321
C 1.503233 1.019138 2.507793
C 1.478566 1.498081 2.000353
C 1.262743 1.258931 2.257676
C 1.231155 1.742853 2.786057
C 1.752780 1.224077 2.772906
C 1.739165 1.737973 2.284630
C 1.983955 1.025311 2.006571
C 1.973710 1.494410 2.496100
C 2.498241 0.998358 2.492815
C 2.481336 1.489587 1.997330
C 2.245586 1.286912 2.234372
C 2.234823 1.738682 2.734470
C 2.746472 1.235433 2.760232
C 2.791476 1.762975 2.261472
C 2.976265 0.982655 1.975675
C 3.033940 1.500686 2.516506
C 3.531988 1.013455 2.500833
C 3.511022 1.505910 2.023181
C 3.248015 1.227485 2.225222
C 3.245136 1.751327 2.731671
C 3.760240 1.222200 2.764830
C 3.724348 1.748872 2.264079
C 3.982991 1.036142 1.968040
C 3.990350 1.506171 2.542643
C 4.481942 1.003602 2.499759
C 4.466810 1.511250 2.028225
C 4.263841 1.270518 2.274585
C 4.273072 1.710157 2.762628
C 4.776485 1.253685 2.781950
C 4.757956 1.734704 2.258086
C 4.984093 0.969979 1.983712
C 4.991741 1.508143 2.486497
C 5.505810 1.001875 2.525414
C 5.490821 1.494186 1.973125
C 5.272035 1.276216 2.255556
C 5.258139 1.727230 2.770073
C 5.717310 1.253784 2.736951
C 5.746404 1.774787 2.279298
C 0.022263 2.031914 2.021068
C 0.032127 2.482750 2.525990
C 0.530783 1.976775 2.512140
C 0.511208 2.519738 2.011845
C 0.252585 2.254929 2.252380
C 0.235231 2.743723 2.736808
C 0.758245 2.238636 2.741716
C 0.773217 2.705417 2.231009
C 0.968438 1.986362 1.981179
C 1.004858 2.494767 2.499001
C 1.480824 1.963412 2.501446
C 1.525731 2.499602 2.006350
C 1.220136 2.217408 2.265621
C 1.243283 2.725485 2.767698
C 1.746194 2.219951 2.779675
C 1.766795 2.766753 2.280365
C 1.993793 2.000112 2.001423
C 1.990819 2.468157 2.481605
C 2.544742 2.001939 2.482133
C 2.525858 2.482218 2.014796
C 2.261481 2.263933 2.268287
C 2.235396 2.753347 2.787659
C 2.719357 2.219406 2.728497
C 2.763329 2.754746 2.282647
C 2.977825 1.963965 1.990078
C 3.003037 2.523416 2.540559
C 3.515885 2.040349 2.501464
C 3.493862 2.513049 2.048240
C 3.284125 2.257849 2.220946
C 3.254010 2.729195 2.702219
C 3.764926 2.278414 2.769057
C 3.759992 2.732231 2.258510
C 3.969741 2.004333 2.003399
C 3.986206 2.508350 2.516614
C 4.489359 1.992594 2.492525
C 4.509238 2.500555 1.966148
C 4.233690 2.279314 2.249332
C 4.276752 2.760900 2.780803
C 4.717103 2.285366 2.755205
C 4.755159 2.718291 2.279649
C 5.002935 1.983595 1.992604
C 5.018103 2.539667 2.522698
C 5.487934 2.013395 2.518175
C 5.503758 2.539370 2.017877
C 5.270594 2.219447 2.245007
C 5.239572 2.778134 2.783239
C 5.727260 2.270161 2.741656
C 5.745609 2.751671 2.262107
C 0.014357 2.977831 2.015689
C 0.000674 3.502324 2.482879
C 0.496469 2.991527 2.508094
C 0.494300 3.539598 1.986729
C 0.216932 3.224779 2.253637
C 0.242208 3.729220 2.742956
C 0.731351 3.237639 2.784671
C 0.744308 3.744811 2.206416
C 0.995204 2.972774 2.013383
C 0.969655 3.535555 2.486219
C 1.502339 3.010885 2.495311
C 1.477400 3.516411 2.040827
C 1.212500 3.264828 2.249203
C 1.237508 3.759350 2.785547
C 1.746540 3.256401 2.744052
C 1.726516 3.765766 2.229257
C 1.965761 3.006002 2.030083
C 1.976716 3.533024 2.478726
C 2.493576 3.025736 2.515209
C 2.492153 3.531628 1.970932
C 2.287831 3.253431 2.262098
C 2.215129 3.763016 2.725488
C 2.784952 3.244379 2.768654
C 2.722846 3.752175 2.236780
C 2.987097 3.015960 2.033785
C 2.987426 3.495233 2.541094
C 3.489681 2.961712 2.490609
C 3.466568 3.483274 2.026179
C 3.303636 3.231796 2.257953
C 3.247889 3.729971 2.735114
C 3.748739 3.215311 2.731501
C 3.759351 3.746675 2.285224
C 4.030950 3.009180 1.978212
C 4.002354 3.501659 2.493062
C 4.519724 3.027611 2.490313
C 4.471957 3.474947 2.008352
C 4.227616 3.236969 2.243205
C 4.233888 3.751639 2.785520
C 4.762018 3.268195 2.700289
C 4.732860 3.716147 2.225662
C 4.970324 2.981251 2.029309
C 4.982264 3.523637 2.498213
C 5.493390 3.003400 2.470513
C 5.485865 3.516872 1.982536
C 5.215832 3.235267 2.231963
C 5.265168 3.723299 2.755750
C 5.721615 3.227009 2.770903
C 5.733655 3.788170 2.279567
C 0.010507 3.991678 1.964237
C 0.031159 4.474440 2.509881
C 0.534965 3.974254 2.486593
C 0.481109 4.471910 1.985083
C 0.272652 4.225708 2.241708
C 0.260106 4.760013 2.789662
C 0.727267 4.237734 2.698108
C 0.731624 4.745568 2.220146
C 0.991953 4.027974 1.999838
C 1.018044 4.485000 2.510892
C 1.522176 4.001070 2.531156
C 1.515840 4.468001 1.970147
C 1.243587 4.291430 2.241777
C 1.228858 4.737775 2.736994
C 1.730269 4.278106 2.745276
C 1.755392 4.778385 2.259807
C 2.016096 4.026940 2.030521
C 2.000612 4.488876 2.479677
C 2.509341 3.985523 2.489815
C 2.526294 4.509838 1.965784
C 2.260332 4.261038 2.266618
C 2.217849 4.751282 2.755324
C 2.792184 4.240382 2.761418
C 2.750123 4.724925 2.228612
C 3.009493 4.029629 1.990643
C 3.005001 4.486787 2.513022
C 3.508478 4.024548 2.506319
C 3.486626 4.474899 1.996067
C 3.237042 4.261840 2.233746
C 3.238893 4.723709 2.756027
C 3.774819 4.243042 2.756181
C 3.755159 4.750061 2.244947
C 3.996004 4.000952 1.980374
C 4.023242 4.513895 2.507429
C 4.533148 3.997357 2.466329
C 4.502073 4.533888 2.017072
C 4.255819 4.292828 2.248863
C 4.250783 4.740056 2.740436
C 4.737403 4.279006 2.765606
C 4.717797 4.730046 2.272124
C 4.983077 3.985127 2.005125
C 5.038960 4.505660 2.482092
C 5.480512 3.957924 2.499015
C 5.521726 4.541097 2.005055
C 5.277532 4.263018 2.232465
C 5.271308 4.748807 2.720075
C 5.719006 4.241412 2.765566
C 5.741455 4.751982 2.256879
C 0.016309 5.037568 2.031161
C 0.010808 5.471081 2.459216
C 0.489836 5.010054 2.499496
C 0.487723 5.514365 2.004544
C 0.288730 5.259705 2.262603
C 0.245255 5.743791 2.724148
C 0.735497 5.284623 2.734434
C 0.726258 5.744916 2.259799
C 0.996086 5.016335 2.017456
C 0.974937 5.502660 2.478847
C 1.487222 5.029898 2.455281
C 1.464241 5.500811 2.026980
C 1.232729 5.256621 2.204060
C 1.261114 5.716896 2.754878
C 1.733359 5.237342 2.774068
C 1.743080 5.699708 2.271318
C 2.011028 5.028038 1.973341
C 1.984234 5.501126 2.528312
C 2.487543 4.991345 2.487784
C 2.506718 5.536569 2.024894
C 2.287454 5.274957 2.227465
C 2.270158 5.711166 2.772117
C 2.726142 5.264161 2.742900
C 2.711862 5.747615 2.299118
C 2.979522 4.999441 1.977513
C 3.021724 5.484192 2.525730
C 3.526112 5.011438 2.487602
C 3.487079 5.482776 2.021739
C 3.242091 5.270226 2.263904
C 3.220931 5.735282 2.755263
C 3.724909 5.261110 2.775174
C 3.760369 5.744511 2.219705
C 3.955906 5.019692 2.003500
C 3.971436 5.482316 2.510052
C 4.496952 4.988667 2.468438
C 4.504543 5.514905 1.999405
C 4.228076 5.270905 2.260510
C 4.260292 5.709517 2.713168
C 4.733794 5.229275 2.719702
C 4.757335 5.740394 2.305847
C 4.989291 5.001600 2.006304
C 5.003819 5.502853 2.480365
C 5.473402 5.006640 2.492836
C 5.508096 5.495396 2.007586
C 5.271013 5.256120 2.275904
C 5.284233 5.733702 2.733820
C 5.743269 5.246907 2.783928
C 5.703487 5.728856 2.279753
C 0.004041 0.044911 2.993551
C 0.044823 0.455728 3.493135
C 0.486487 0.017100 3.493761
C 0.532020 0.490178 3.015481
C 0.272668 0.205048 3.238763
C 0.275830 0.760430 3.752295
C 0.726572 0.257635 3.709778
C 0.785828 0.742432 3.229225
C 1.026153 0.002050 2.978495
C 1.009697 0.487453 3.493762
C 1.479225 0.009856 3.505521
C 1.529536 0.475864 3.030780
C 1.230585 0.229301 3.268724
C 1.244893 0.737518 3.769810
C 1.778898 0.252846 3.746583
C 1.767482 0.763692 3.248854
C 1.986968 0.029659 3.032695
C 1.976977 0.510485 3.492245
C 2.497458 0.020393 3.540478
C 2.504792 0.488756 3.030300
C 2.285950 0.226242 3.247607
C 2.255030 0.734951 3.778003
C 2.729187 0.258901 3.728696
C 2.773795 0.744295 3.252624
C 3.000502 0.011516 2.990191
C 2.999137 0.494603 3.478570
C 3.488819 0.020509 3.489815
C 3.511917 0.481775 2.972851
C 3.243952 0.261498 3.280619
C 3.216395 0.730589 3.752298
C 3.720043 0.282128 3.746584
C 3.754928 0.738533 3.231833
C 4.033072 0.008158 2.991215
C 3.990343 0.477297 3.516194
C 4.484125 0.033457 3.508906
C 4.534271 0.492487 3.035016
C 4.243199 0.266794 3.213168
C 4.235069 0.765800 3.787790
C 4.790575 0.243233 3.738384
C 4.755231 0.743754 3.240938
C 5.021084 0.028737 2.974889
C 5.008341 0.478844 3.487786
C 5.543413 0.004459 3.533399
C 5.504182 0.463746 2.982833
C 5.228898 0.257419 3.247864
C 5.254889 0.741331 3.719064
C 5.738831 0.277564 3.801080
C 5.744693 0.700895 3.247319
C 0.015849 0.994611 3.013454
C 0.009830 1.503393 3.531010
C 0.533996 1.012737 3.528132
C 0.500456 1.536811 2.989536
C 0.256035 1.287606 3.280815
C 0.279429 1.732370 3.760573
C 0.759812 1.279061 3.743353
C 0.744513 1.789551 3.211324
C 1.025483 1.030863 3.017328
C 0.999016 1.507073 3.533448
C 1.487539 1.017503 3.495273
C 1.524872 1.506523 2.990562
C 1.296839 1.268685 3.269939
C 1.259262 1.723326 3.774321
C 1.724251 1.269037 3.746979
C 1.789670 1.733139 3.233693
C 1.994682 1.025216 3.037762
C 1.991776 1.448563 3.487094
C 2.468621 1.022507 3.513544
C 2.501168 1.520871 3.019103
C 2.272205 1.259544 3.241009
C 2.277237 1.758195 3.754489
C 2.708093 1.265393 3.730548
C 2.759600 1.786932 3.227929
C 3.022503 0.989768 2.966409
C 3.033081 1.520334 3.496629
C 3.515876 1.030335 3.485894
C 3.511629 1.512268 3.021954
C 3.251696 1.272159 3.274256
C 3.220843 1.794144 3.772220
C 3.737974 1.217672 3.771932
C 3.748556 1.752884 3.262587
C 3.997910 1.020502 3.004301
C 3.986508 1.488592 3.524281
C 4.514723 0.977476 3.537314
C 4.497444 1.495332 3.007627
C 4.242787 1.250392 3.285318
C 4.248053 1.756350 3.744174
C 4.737237 1.261439 3.780117
C 4.751603 1.769908 3.282015
C 5.022335 0.996015 3.002225
C 4.996435 1.523108 3.478719
C 5.478917 1.019360 3.518063
C 5.509408 1.498132 2.994279
C 5.209604 1.243982 3.245647
C 5.270888 1.748514 3.782801
C 5.725114 1.224723 3.754258
C 5.716940 1.703127 3.271538
C 0.008038 1.990541 2.966802
C 0.008456 2.481215 3.509148
C 0.480307 2.029103 3.494548
C 0.489999 2.536211 3.016224
C 0.283854 2.264276 3.254596
C 0.233639 2.738146 3.746598
C 0.769556 2.282771 3.741760
C 0.744315 2.718128 3.221390
C 0.982390 2.017311 2.989275
C 1.001067 2.541014 3.504521
C 1.475495 1.997417 3.515776
C 1.487728 2.485357 3.007286
C 1.271152 2.249900 3.275107
C 1.246136 2.773828 3.721899
C 1.748585 2.280642 3.750441
C 1.716322 2.766285 3.228472
C 2.004805 1.985256 3.007589
C 2.003262 2.527423 3.519459
C 2.496765 1.997897 3.499762
C 2.517400 2.497364 3.028988
C 2.264650 2.229404 3.260376
C 2.238002 2.746151 3.757486
C 2.746043 2.265437 3.764473
C 2.757314 2.728525 3.239514
C 3.018042 2.029848 3.001881
C 2.985172 2.486485 3.475029
C 3.476027 2.006233 3.521793
C 3.510320 2.493521 2.981689
C 3.293658 2.235924 3.269562
C 3.236372 2.719534 3.733518
C 3.757906 2.263800 3.777282
C 3.767171 2.776727 3.263953
C 3.990328 2.051366 3.000297
C 4.013631 2.485248 3.464334
C 4.514557 1.976970 3.538642
C 4.471589 2.512223 3.005707
C 4.265364 2.273865 3.267723
C 4.264273 2.774520 3.737628
C 4.741884 2.216729 3.714482
C 4.761630 2.750469 3.293209
C 4.988294 1.999610 3.007503
C 5.015689 2.490625 3.490442
C 5.514088 2.033242 3.482301
C 5.501995 2.508173 3.028008
C 5.249990 2.259009 3.272181
C 5.281773 2.766413 3.758454
C 5.748708 2.260541 3.722312
C 5.749071 2.712041 3.250074
C 0.004175 2.978726 2.973613
C 0.017070 3.492882 3.482852
C 0.476537 3.016092 3.538173
C 0.485500 3.474966 3.015136
C 0.246505 3.272084 3.247092
C 0.220509 3.743838 3.716435
C 0.751856 3.252425 3.777106
C 0.735056 3.728221 3.243433
C 1.001428 2.986803 3.041855
C 0.972431 3.508597 3.510887
C 1.481680 3.005689 3.505316
C 1.454383 3.491100 2.985183
C 1.267753 3.234012 3.260341
C 1.264750 3.777439 3.745205
C 1.740087 3.285727 3.756134
C 1.774373 3.747306 3.269972
C 2.006352 3.014586 3.012099
C 1.972374 3.494765 3.463216
C 2.518223 3.022771 3.517485
C 2.502265 3.511484 2.976360
C 2.274614 3.281500 3.217105
C 2.235012 3.784668 3.773411
C 2.751760 3.252923 3.776847
C 2.770223 3.722667 3.228554
C 3.044127 2.988275 2.996386
C 2.995568 3.534888 3.486305
C 3.525057 2.992602 3.525019
C 3.513668 3.478245 3.020482
C 3.235910 3.222626 3.251909
C 3.265082 3.746492 3.763579
C 3.746876 3.243926 3.727287
C 3.716372 3.728902 3.263534
C 3.985227 3.019670 3.031253
C 3.997275 3.471765 3.494400
C 4.485199 3.016113 3.474433
C 4.471754 3.506506 2.962248
C 4.219909 3.276256 3.244617
C 4.289998 3.738859 3.768043
C 4.727682 3.216557 3.759774
C 4.731957 3.750527 3.254697
C 4.968082 2.960758 3.002128
C 4.979450 3.499820 3.467911
C 5.508393 3.024875 3.486680
C 5.484000 3.470100 2.990471
C 5.253980 3.228023 3.220232
C 5.291125 3.733354 3.736490
C 5.710084 3.239583 3.768188
C 5.720468 3.735741 3.207909
C 0.023675 4.009840 3.005012
C 0.001681 4.497668 3.473622
C 0.492399 4.006258 3.507746
C 0.484991 4.483809 2.984915
C 0.239615 4.278880 3.220755
C 0.243037 4.766361 3.718322
C 0.750102 4.256666 3.732731
C 0.731882 4.768257 3.214331
C 0.990753 3.972252 2.999488
C 1.014048 4.506977 3.528562
C 1.514421 4.025931 3.485525
C 1.508856 4.516301 2.967156
C 1.255891 4.259590 3.246331
C 1.284647 4.721834 3.743328
C 1.742786 4.258664 3.752979
C 1.761327 4.745534 3.241928
C 2.004059 3.962641 3.024427
C 1.997231 4.508696 3.475021
C 2.505619 4.029177 3.504417
C 2.497066 4.472239 2.981830
C 2.205061 4.265840 3.249281
C 2.240881 4.787579 3.763755
C 2.754872 4.258393 3.725045
C 2.734561 4.777832 3.227729
C 3.011704 4.025820 3.011905
C 3.019787 4.477168 3.494719
C 3.501683 3.964545 3.517364
C 3.503967 4.498968 2.981011
C 3.271795 4.246546 3.277226
C 3.281593 4.729107 3.765103
C 3.757485 4.291298 3.768328
C 3.723209 4.729499 3.224098
C 4.004202 4.029420 3.004544
C 4.002144 4.469977 3.461475
C 4.500568 4.004679 3.481489
C 4.475877 4.540882 3.006668
C 4.242442 4.203772 3.246082
C 4.244657 4.727611 3.723013
C 4.789725 4.247772 3.774561
C 4.727287 4.737633 3.236111
C 4.998764 3.975074 3.033665
C 5.024489 4.504545 3.504838
C 5.476652 3.982877 3.504949
C 5.523283 4.471861 3.010326
C 5.241508 4.272878 3.258383
C 5.276100 4.754254 3.777374
C 5.740548 4.261332 3.722437
C 5.710855 4.733417 3.226014
C 0.020594 5.029732 3.011893
C 0.002471 5.515645 3.548477
C 0.492007 4.995798 3.541936
C 0.509159 5.477252 2.997533
C 0.212969 5.271130 3.242759
C 0.264768 5.745665 3.722032
C 0.732036 5.245519 3.792682
C 0.735915 5.725511 3.284613
C 0.986242 4.967013 2.986270
C 1.017350 5.505189 3.512372
C 1.507013 5.021138 3.514345
C 1.520254 5.504418 2.988722
C 1.262347 5.246683 3.273167
C 1.239859 5.716424 3.759518
C 1.755007 5.223780 3.761337
C 1.762848 5.735080 3.233155
C 1.960917 4.998493 3.005790
C 1.973045 5.532211 3.489848
C 2.483636 4.977154 3.504162
C 2.497782 5.469518 3.036488
C 2.227409 5.259438 3.251134
C 2.231865 5.742967 3.792972
C 2.776436 5.253941 3.754739
C 2.729081 5.742712 3.233373
C 2.998954 4.975759 3.008490
C 2.996040 5.498714 3.469836
C 3.484365 5.002427 3.523784
C 3.458989 5.483327 2.993809
C 3.260479 5.221798 3.277117
C 3.270513 5.722375 3.772602
C 3.780393 5.224069 3.752780
C 3.728448 5.699549 3.266056
C 4.023911 4.964744 2.989391
C 3.996352 5.473865 3.469312
C 4.520568 4.998387 3.528026
C 4.512228 5.522766 2.974019
C 4.213259 5.228205 3.245734
C 4.280446 5.745551 3.748724
C 4.788721 5.258145 3.742904
C 4.735591 5.735926 3.263135
C 4.972096 5.021783 2.974054
C 5.013145 5.504929 3.485287
C 5.521434 4.997108 3.474131
C 5.484317 5.520220 3.000753
C 5.213511 5.252043 3.269295
C 5.214013 5.745031 3.753155
C 5.739390 5.230895 3.730589
C 5.723371 5.742159 3.239011
C 0.026883 0.028903 3.964236
C 0.005664 0.522733 4.537001
C 0.503983 0.028546 4.503805
C 0.480601 0.518774 3.993626
C 0.231664 0.218891 4.227667
C 0.262828 0.789222 4.733851
C 0.784273 0.260352 4.761975
C 0.740901 0.751702 4.249402
C 0.975150 0.026359 3.988261
C 1.016764 0.538887 4.517072
C 1.528628 0.022762 4.484632
C 1.503846 0.530200 4.001310
C 1.260873 0.234919 4.271954
C 1.297515 0.762470 4.747928
C 1.750940 0.257792 4.731041
C 1.737962 0.743119 4.255666
C 1.991660 0.026046 4.009018
C 1.998697 0.521811 4.517244
C 2.468141 0.013140 4.456111
C 2.490558 0.480079 3.984127
C 2.260968 0.286403 4.247946
C 2.259910 0.773847 4.729964
C 2.721229 0.227970 4.773593
C 2.747061 0.716993 4.229298
C 3.031605 0.027354 3.970211
C 2.989172 0.503800 4.544437
C 3.501819 0.041555 4.491384
C 3.521994 0.476237 4.001959
C 3.237814 0.226929 4.258008
C 3.224974 0.761902 4.776024
C 3.779933 0.235411 4.730203
C 3.769502 0.744086 4.218990
C 4.027953 0.002068 3.956145
C 3.982770 0.511082 4.511794
C 4.503992 0.015179 4.469867
C 4.499399 0.492577 3.999141
C 4.262617 0.265777 4.240071
C 4.252470 0.765496 4.762343
C 4.749401 0.275033 4.749754
C 4.793242 0.745599 4.233926
C 4.966670 0.025160 4.007119
C 4.966119 0.514003 4.512833
C 5.536678 0.027093 4.511788
C 5.527174 0.516471 3.961148
C 5.260027 0.214007 4.241775
C 5.247160 0.742027 4.775728
C 5.705731 0.236393 4.758776
C 5.714576 0.736275 4.267405
C 0.002980 0.973120 4.015740
C 0.018284 1.522755 4.457178
C 0.520792 0.992205 4.547742
C 0.546410 1.496899 4.021162
C 0.259538 1.216946 4.264943
C 0.233514 1.709756 4.739958
C 0.723549 1.252720 4.748283
C 0.772235 1.769846 4.257067
C 1.015218 1.014097 3.965699
C 0.978681 1.510309 4.462176
C 1.485276 0.972374 4.485381
C 1.481079 1.471153 4.038026
C 1.225028 1.233827 4.226700
C 1.231586 1.708865 4.729000
C 1.716341 1.252789 4.739081
C 1.748441 1.764503 4.234539
C 2.013384 1.026377 4.023401
C 1.947852 1.494624 4.501182
C 2.517880 1.019817 4.517437
C 2.533306 1.485236 3.976883
C 2.281538 1.231571 4.249137
C 2.217200 1.728354 4.767315
C 2.748714 1.255958 4.742718
C 2.790625 1.763972 4.260282
C 2.972020 1.029906 3.987382
C 2.976331 1.479999 4.499833
C 3.501022 0.965172 4.480146
C 3.495039 1.543735 3.985700
C 3.266369 1.239145 4.254241
C 3.255137 1.741171 4.741977
C 3.740228 1.244564 4.748261
C 3.739529 1.778055 4.214982
C 3.974091 0.986786 3.989623
C 3.971597 1.487145 4.506811
C 4.501006 0.989412 4.455515
C 4.485718 1.521571 3.972250
C 4.224782 1.240485 4.267386
C 4.230425 1.743445 4.733565
C 4.770128 1.251047 4.729354
C 4.784605 1.751098 4.267417
C 4.975147 0.995805 3.995852
C 4.965333 1.494198 4.495126
C 5.513252 0.994871 4.465045
C 5.537812 1.527211 3.983600
C 5.256576 1.252450 4.293782
C 5.261370 1.768848 4.789969
C 5.746573 1.271397 4.770992
C 5.713981 1.711748 4.234171
C 0.009494 1.931441 3.985689
C 0.016646 2.499227 4.481128
C 0.469681 2.000180 4.510537
C 0.482616 2.466168 3.999271
C 0.226786 2.226171 4.245594
C 0.255338 2.739189 4.729705
C 0.766998 2.256244 4.754050
C 0.764625 2.751203 4.255000
C 0.975948 2.000526 4.006653
C 0.978039 2.480619 4.506123
C 1.470664 2.000633 4.490376
C 1.503287 2.499640 3.984379
C 1.228653 2.270526 4.265539
C 1.208155 2.738416 4.745922
C 1.751435 2.259530 4.768668
C 1.756181 2.757984 4.204220
C 2.015828 2.016819 4.017538
C 1.969240 2.514524 4.519375
C 2.525283 2.005107 4.491809
C 2.464280 2.503343 4.026517
C 2.233257 2.247991 4.256734
C 2.257774 2.729154 4.745146
C 2.768846 2.255528 4.732765
C 2.714694 2.743360 4.264595
C 3.021795 1.997355 4.036878
C 2.967250 2.499277 4.498259
C 3.518225 1.973742 4.492519
C 3.520686 2.501126 3.977123
C 3.271118 2.265095 4.247336
C 3.269261 2.752409 4.757637
C 3.763878 2.264172 4.780579
C 3.723308 2.769813 4.277244
C 4.008043 1.963299 3.977076
C 4.000162 2.534161 4.523296
C 4.504556 1.978170 4.522082
C 4.495366 2.506843 3.984379
C 4.256742 2.228575 4.241907
C 4.240302 2.718544 4.754665
C 4.728290 2.274600 4.768350
C 4.781933 2.756984 4.239510
C 4.977209 1.971732 4.015381
C 4.997567 2.531349 4.506354
C 5.509380 2.023756 4.497558
C 5.507058 2.472142 3.987192
C 5.262960 2.243079 4.299484
C 5.252785 2.771310 4.769289
C 5.737968 2.243927 4.731286
C 5.735130 2.692885 4.277447
C 0.015403 2.976263 3.988324
C 0.025920 3.514458 4.484383
C 0.484824 3.029193 4.513710
C 0.468720 3.505619 4.026028
C 0.249308 3.246109 4.263474
C 0.224479 3.762198 4.727591
C 0.753935 3.243541 4.727122
C 0.755617 3.779730 4.228517
C 1.013137 2.980853 4.013348
C 0.982573 3.479185 4.483437
C 1.502624 3.018274 4.520382
C 1.487976 3.501413 3.998963
C 1.260915 3.273476 4.237857
C 1.234803 3.736265 4.787946
C 1.719831 3.271731 4.746061
C 1.758376 3.752411 4.248383
C 2.027113 2.986955 4.008586
C 2.017064 3.515225 4.515950
C 2.474336 3.021051 4.476328
C 2.500583 3.478928 3.983903
C 2.250045 3.251650 4.207656
C 2.256466 3.706635 4.758038
C 2.763555 3.259799 4.770071
C 2.752349 3.754791 4.267523
C 2.995407 3.022350 4.006502
C 2.979116 3.493908 4.486811
C 3.482836 2.999627 4.485681
C 3.539746 3.511976 4.004279
C 3.245450 3.244917 4.209313
C 3.280080 3.731688 4.777455
C 3.769697 3.243468 4.714316
C 3.771303 3.788864 4.258702
C 4.029681 3.006753 3.984133
C 4.016153 3.532399 4.487043
C 4.505380 3.036193 4.506100
C 4.480314 3.514960 4.032728
C 4.222813 3.237293 4.234819
C 4.205858 3.752478 4.747977
C 4.725997 3.275246 4.769334
C 4.747395 3.756700 4.222229
C 5.019589 3.021278 4.002050
C 5.000689 3.516117 4.461717
C 5.514591 2.980559 4.485215
C 5.512130 3.503391 3.987979
C 5.246687 3.217311 4.250924
C 5.223617 3.765432 4.710008
C 5.742872 3.253475 4.774922
C 5.739187 3.784141 4.248657
C 0.003661 3.964602 3.975830
C 0.006863 4.473498 4.461084
C 0.502898 3.994262 4.534069
C 0.513837 4.495549 3.964726
C 0.262713 4.244902 4.228430
C 0.280052 4.721039 4.755175
C 0.760963 4.260904 4.749396
C 0.759826 4.740247 4.231330
C 1.042569 3.993779 4.036137
C 1.022949 4.482330 4.479178
C 1.489190 4.023504 4.515958
C 1.513688 4.466841 4.023717
C 1.263355 4.243631 4.232207
C 1.279844 4.734515 4.768226
C 1.707192 4.262595 4.769654
C 1.775209 4.760474 4.268382
C 1.979826 3.965814 3.999153
C 2.025689 4.499589 4.487279
C 2.534214 4.021126 4.497145
C 2.508646 4.494551 4.027078
C 2.224215 4.250670 4.263438
C 2.281254 4.740586 4.782588
C 2.742871 4.259899 4.772065
C 2.773346 4.729933 4.250383
C 3.011092 4.027137 3.982501
C 3.013543 4.515856 4.531230
C 3.526520 4.031355 4.504272
C 3.528653 4.502522 4.007015
C 3.288258 4.260419 4.253537
C 3.279665 4.740704 4.723443
C 3.765363 4.270947 4.775767
C 3.771709 4.743163 4.257566
C 3.996136 4.030610 3.974790
C 3.964655 4.475994 4.502314
C 4.535063 3.992553 4.500555
C 4.493213 4.529502 3.985468
C 4.259486 4.232860 4.217744
C 4.277407 4.781970 4.733529
C 4.735767 4.268943 4.716681
C 4.754435 4.750940 4.263637
C 5.021669 3.987853 3.982865
C 5.016627 4.478887 4.477870
C 5.475278 4.024913 4.516141
C 5.467783 4.474719 3.998947
C 5.241363 4.239725 4.235099
C 5.257069 4.727902 4.736976
C 5.729630 4.268269 4.699754
C 5.714923 4.786658 4.243895
C 0.025733 5.031882 4.023671
C 0.024553 5.497924 4.468452
C 0.491686 4.996349 4.499672
C 0.505786 5.535089 3.971331
C 0.271859 5.240503 4.270320
C 0.277794 5.746985 4.754197
C 0.753762 5.258706 4.722969
C 0.778417 5.725495 4.224855
C 1.025967 5.006077 4.002760
C 1.030795 5.496497 4.475537
C 1.462242 4.956639 4.494799
C 1.493498 5.468207 3.969254
C 1.262556 5.247173 4.223029
C 1.232965 5.720479 4.737347
C 1.718337 5.266603 4.763403
C 1.775517 5.747239 4.235974
C 2.013888 5.016689 4.027621
C 1.957621 5.479652 4.514224
C 2.526312 4.981775 4.478647
C 2.519303 5.472239 4.001195
C 2.237518 5.271383 4.289633
C 2.249827 5.739923 4.796963
C 2.787603 5.238674 4.736127
C 2.723787 5.716946 4.241257
C 3.014102 5.018271 4.030431
C 2.980306 5.464018 4.456873
C 3.470596 4.990686 4.500289
C 3.534040 5.500968 4.025523
C 3.270241 5.274267 4.220662
C 3.261335 5.736966 4.788661
C 3.739251 5.248102 4.728326
C 3.789281 5.720017 4.239002
C 3.990739 5.009240 4.017232
C 3.997147 5.495231 4.524928
C 4.498234 5.006389 4.492250
C 4.494710 5.525378 4.025831
C 4.243078 5.243925 4.258725
C 4.220499 5.744350 4.763846
C 4.753715 5.251929 4.744478
C 4.741488 5.734871 4.277343
C 4.997840 5.011398 3.998899
C 5.008448 5.485331 4.517429
C 5.468147 4.992699 4.493041
C 5.482009 5.481195 3.971988
C 5.232644 5.241225 4.278488
C 5.290338 5.734072 4.740085
C 5.735356 5.239986 4.767736
C 5.736609 5.741423 4.233149
C 0.015588 0.039397 4.967256
C 0.011164 0.484601 5.529623
C 0.452463 0.024626 5.502702
C 0.515376 0.459832 5.014837
C 0.244589 0.222967 5.249921
C 0.279173 0.726763 5.721001
C 0.726540 0.244422 5.746877
C 0.793650 0.750494 5.256968
C 1.038461 0.006298 4.975234
C 1.001887 0.506780 5.490142
C 1.506808 0.017155 5.494372
C 1.527484 0.539851 4.991601
C 1.234949 0.245125 5.230098
C 1.272686 0.781730 5.723730
C 1.780170 0.253400 5.731477
C 1.765886 0.745604 5.250614
C 2.038826 0.009400 5.016595
C 1.989657 0.472800 5.482333
C 2.446328 0.018017 5.517703
C 2.515344 0.489208 4.982979
C 2.243542 0.243193 5.272093
C 2.276239 0.732949 5.738484
C 2.721472 0.236568 5.735845
C 2.761551 0.721580 5.221475
C 2.993702 0.027384 4.986124
C 2.972073 0.491933 5.526567
C 3.470614 0.010381 5.509446
C 3.526629 0.500110 4.959720
C 3.288607 0.232816 5.216613
C 3.271547 0.714777 5.748914
C 3.769076 0.238567 5.722146
C 3.756424 0.749526 5.237627
C 4.015568 0.018758 5.015130
C 4.003562 0.465435 5.476054
C 4.469485 0.001951 5.509557
C 4.506152 0.547562 5.006092
C 4.269680 0.250272 5.258777
C 4.271907 0.725201 5.700997
C 4.786169 0.274888 5.744380
C 4.753660 0.764097 5.232910
C 5.026189 0.024394 5.038819
C 4.977854 0.523713 5.508267
C 5.496384 0.016859 5.530109
C 5.516919 0.492243 4.967878
C 5.284964 0.262245 5.206865
C 5.239397 0.754541 5.697706
C 5.730491 0.255473 5.730910
C 5.716278 0.716551 5.243986
C 0.036720 0.967737 4.982920
C 0.009900 1.520295 5.464317
C 0.473499 0.997694 5.521687
C 0.500374 1.484192 5.011111
C 0.236278 1.271007 5.247903
C 0.248913 1.748312 5.745832
C 0.790012 1.252267 5.747293
C 0.721560 1.726470 5.242143
C 1.010614 1.007296 4.998547
C 1.017494 1.481890 5.492900
C 1.506920 1.001227 5.494443
C 1.494739 1.528251 5.021192
C 1.239399 1.222235 5.265003
C 1.251862 1.694123 5.739599
C 1.745656 1.258455 5.713651
C 1.721039 1.759374 5.262607
C 1.992099 0.997270 5.027781
C 2.031763 1.499281 5.517227
C 2.497715 1.017464 5.542807
C 2.472656 1.506364 4.988864
C 2.195751 1.249017 5.251388
C 2.291986 1.734374 5.741893
C 2.777154 1.207477 5.725663
C 2.748543 1.740230 5.288421
C 2.968858 1.005905 5.032959
C 3.009962 1.518727 5.474018
C 3.515246 1.023416 5.519638
C 3.487667 1.506425 5.002860
C 3.227422 1.239208 5.292629
C 3.281091 1.785303 5.747098
C 3.764049 1.237795 5.734070
C 3.791747 1.751786 5.264627
C 4.011176 1.035615 5.002125
C 4.040305 1.482396 5.469594
C 4.459075 0.992596 5.490410
C 4.516247 1.473016 4.998997
C 4.278034 1.245143 5.257506
C 4.262715 1.768904 5.731686
C 4.704100 1.234036 5.726812
C 4.749857 1.733994 5.224393
C 5.006483 1.023942 4.986843
C 4.998033 1.474736 5.527160
C 5.514467 1.008279 5.496718
C 5.516001 1.468395 5.018561
C 5.275664 1.236076 5.253028
C 5.284072 1.726829 5.749820
C 5.734594 1.283306 5.741280
C 5.743224 1.739912 5.283982
C 0.022699 1.992348 5.026835
C 0.002658 2.507904 5.540671
C 0.513178 1.984732 5.492003
C 0.479752 2.502580 5.015176
C 0.249321 2.271391 5.269486
C 0.238706 2.723380 5.691521
C 0.719555 2.269471 5.716353
C 0.766161 2.729243 5.215398
C 1.024504 2.003473 5.001967
C 1.028420 2.491101 5.488201
C 1.530673 2.005522 5.492358
C 1.487805 2.511124 4.954411
C 1.293674 2.260830 5.272620
C 1.256537 2.799519 5.744603
C 1.776686 2.217259 5.748658
C 1.789361 2.759297 5.238940
C 2.004660 2.015310 4.967287
C 2.022776 2.529469 5.486640
C 2.484174 2.023137 5.512130
C 2.484743 2.515856 4.997327
C 2.230233 2.246342 5.231132
C 2.220987 2.742284 5.745876
C 2.763469 2.244841 5.715288
C 2.770112 2.730491 5.226888
C 3.043451 1.977710 5.006241
C 2.982588 2.499200 5.497985
C 3.503946 2.031258 5.492130
C 3.512647 2.503122 5.000907
C 3.217459 2.234920 5.258209
C 3.228356 2.769059 5.725498
C 3.779055 2.275714 5.721902
C 3.748237 2.789416 5.270302
C 4.009751 2.016086 5.003607
C 4.039506 2.517194 5.494344
C 4.533811 1.974302 5.487375
C 4.478723 2.483133 4.997347
C 4.283580 2.244937 5.282730
C 4.285961 2.732258 5.715182
C 4.764619 2.228069 5.715286
C 4.760494 2.711194 5.257234
C 5.013113 1.998315 4.973440
C 5.019745 2.511970 5.466382
C 5.543920 1.988853 5.498693
C 5.544749 2.499301 5.008356
C 5.246097 2.225768 5.227217
C 5.287106 2.730077 5.749083
C 5.704583 2.226587 5.733100
C 5.729231 2.749911 5.257787
C 0.011337 3.000606 5.034975
C 0.023409 3.456021 5.500893
C 0.494377 3.000429 5.529802
C 0.514806 3.478049 5.021585
C 0.264703 3.223134 5.255922
C 0.225671 3.710729 5.747484
C 0.719275 3.257856 5.739333
C 0.768645 3.774356 5.270946
C 0.974223 2.996331 4.972557
C 1.008414 3.502044 5.502725
C 1.509900 2.958763 5.483564
C 1.511295 3.464412 5.026204
C 1.229986 3.230015 5.280525
C 1.287469 3.772923 5.729902
C 1.743472 3.262816 5.736297
C 1.746306 3.764228 5.274291
C 1.993621 3.021193 5.041656
C 1.998651 3.545135 5.489619
C 2.479919 3.023241 5.531649
C 2.512275 3.469039 5.010099
C 2.245036 3.263641 5.215506
C 2.255625 3.726690 5.694822
C 2.765660 3.275095 5.734089
C 2.735724 3.753095 5.244671
C 2.996350 3.013010 5.028589
C 3.015541 3.532293 5.511976
C 3.485944 2.974265 5.508391
C 3.536716 3.505446 5.018671
C 3.262936 3.265858 5.259520
C 3.306051 3.764215 5.745916
C 3.774751 3.248374 5.742391
C 3.772272 3.757531 5.255275
C 3.987093 2.992829 5.010683
C 3.998118 3.539541 5.524537
C 4.478430 2.990978 5.541555
C 4.502234 3.509676 5.020057
C 4.260316 3.242500 5.280714
C 4.259077 3.763143 5.730983
C 4.750009 3.254153 5.711835
C 4.727837 3.799389 5.263798
C 5.015632 3.004858 5.001984
C 5.011694 3.539703 5.483155
C 5.503070 2.952435 5.507890
C 5.526174 3.520163 4.993287
C 5.227739 3.242520 5.233154
C 5.196845 3.735962 5.743922
C 5.745194 3.241185 5.716685
C 5.740558 3.756708 5.286673
C 0.014032 4.055919 4.975373
C 0.020679 4.487073 5.528742
C 0.501544 3.988941 5.489502
C 0.484109 4.535428 5.016109
C 0.275286 4.226819 5.256265
C 0.269493 4.755675 5.746291
C 0.759938 4.279591 5.746432
C 0.722797 4.737933 5.272915
C 0.994840 3.982248 4.966593
C 1.027956 4.534731 5.515113
C 1.473653 3.988992 5.474015
C 1.545987 4.500431 4.986442
C 1.234740 4.237714 5.254230
C 1.208004 4.784634 5.741559
C 1.786975 4.262169 5.721435
C 1.757780 4.778131 5.244984
C 1.974065 3.971322 5.010692
C 1.971491 4.509651 5.475670
C 2.522927 3.978269 5.532762
C 2.483759 4.482503 4.961959
C 2.224633 4.239976 5.272531
C 2.257550 4.757354 5.743724
C 2.769547 4.278519 5.713854
C 2.789932 4.771907 5.278916
C 2.993715 4.020061 4.969975
C 3.016883 4.516634 5.523950
C 3.463947 3.993763 5.487536
C 3.502363 4.527369 5.005136
C 3.275157 4.249640 5.268966
C 3.247779 4.763013 5.737042
C 3.716852 4.236188 5.744843
C 3.751887 4.787550 5.243425
C 3.978069 3.976288 5.008385
C 3.999610 4.492527 5.535950
C 4.526546 4.003461 5.519644
C 4.476273 4.482317 4.986848
C 4.264067 4.224016 5.264340
C 4.222731 4.736367 5.720873
C 4.753552 4.249291 5.712439
C 4.764475 4.705737 5.220638
C 4.979008 3.979244 5.016686
C 4.982373 4.519531 5.485039
C 5.536806 4.018171 5.499771
C 5.490497 4.499467 5.019030
C 5.239837 4.280019 5.225561
C 5.255064 4.787432 5.734691
C 5.741534 4.314802 5.724637
C 5.744093 4.705559 5.241096
C 0.001072 4.948687 5.004161
C 0.039261 5.509097 5.495227
C 0.489452 5.004235 5.540277
C 0.470961 5.482039 4.987204
C 0.249303 5.227254 5.230084
C 0.265577 5.711264 5.739005
C 0.741647 5.203571 5.734802
C 0.736591 5.718091 5.276909
C 0.958375 4.990583 5.000093
C 0.995214 5.516807 5.476140
C 1.473043 4.993455 5.516051
C 1.518428 5.527306 4.993590
C 1.228045 5.251119 5.227534
C 1.247919 5.746241 5.749356
C 1.708134 5.255283 5.744751
C 1.787458 5.744933 5.255262
C 2.008732 5.000302 4.994310
C 2.007228 5.511971 5.539953
C 2.491292 5.015865 5.493728
C 2.504092 5.493071 4.981669
C 2.266517 5.216443 5.229313
C 2.294132 5.739370 5.744486
C 2.708368 5.252183 5.749384
C 2.732774 5.739655 5.244249
C 3.021144 4.995483 4.999913
C 3.007071 5.513586 5.531760
C 3.522885 5.019331 5.469738
C 3.504443 5.514234 5.035147
C 3.254953 5.258044 5.231487
C 3.284719 5.695521 5.738776
C 3.736144 5.251171 5.744701
C 3.750694 5.738785 5.277202
C 3.984122 5.024194 4.992286
C 3.969827 5.481285 5.472585
C 4.516622 4.949022 5.488494
C 4.513796 5.525951 5.015294
C 4.232163 5.258512 5.271600
C 4.241233 5.697081 5.740170
C 4.728107 5.242469 5.698278
C 4.743104 5.728992 5.265842
C 4.981372 4.991106 4.959952
C 5.006470 5.523558 5.510629
C 5.547527 4.998405 5.477834
C 5.492053 5.514896 4.998401
C 5.203418 5.229957 5.237293
C 5.258811 5.748847 5.696503
C 5.716293 5.247887 5.737586
C 5.736583 5.738198 5.266391
1728
Frame 4/10
C 0.051653 0.001619 0.030935
C 0.041651 0.479505 0.494222
C 0.547742 0.053589 0.496135
C 0.504338 0.486481 0.049686
C 0.285233 0.241878 0.256244
C 0.240172 0.749598 0.719084
C 0.725931 0.221537 0.772143
C 0.765538 0.804053 0.252254
C 0.994579 0.030979 0.035234
C 0.989688 0.536057 0.484217
C 1.518974 0.035793 0.515659
C 1.548282 0.471467 0.006074
C 1.198068 0.263915 0.245040
C 1.247292 0.738352 0.748907
C 1.772007 0.279667 0.687083
C 1.728520 0.733678 0.198278
C 2.033855 0.012621 0.003827
C 1.954656 0.535267 0.498500
C 2.559567 0.013082 0.531716
C 2.556106 0.479367 0.011854
C 2.275483 0.189722 0.252553
C 2.238101 0.731330 0.812877
C 2.791610 0.221847 0.746475
C 2.787981 0.729741 0.283649
C 2.964547 0.030147 0.022450
C 3.019374 0.517669 0.510617
C 3.537499 0.038039 0.475549
C 3.558305 0.523566 0.010224
C 3.290092 0.253490 0.261300
C 3.229276 0.759465 0.694642
C 3.702908 0.234510 0.730108
C 3.775534 0.755771 0.233434
C 4.050025 0.002842 0.045719
C 4.025807 0.541064 0.510495
C 4.495742 0.041811 0.452951
C 4.493797 0.493480 0.014234
C 4.211707 0.241099 0.296349
C 4.224810 0.761272 0.753580
C 4.753766 0.251070 0.806312
C 4.739317 0.747670 0.222193
C 4.933983 0.046547 0.021326
C 4.984225 0.488355 0.434719
C 5.452294 0.040481 0.544521
C 5.549804 0.501578 0.007817
C 5.251297 0.246084 0.190718
C 5.228805 0.724363 0.771093
C 5.730190 0.258682 0.750847
C 5.689093 0.729402 0.237155
C 0.006477 0.981454 0.042434
C 0.002458 1.483224 0.530114
C 0.488304 0.959863 0.464696
C 0.493234 1.490987 0.017864
C 0.250516 1.209245 0.251442
C 0.203477 1.754989 0.792475
C 0.768332 1.296792 0.751477
C 0.752747 1.704445 0.213847
C 1.009002 0.940141 0.033528
C 1.015454 1.540493 0.501154
C 1.476843 0.985078 0.498161
C 1.482303 1.460543 0.014646
C 1.258183 1.212260 0.237053
C 1.240452 1.748618 0.772613
C 1.766201 1.210447 0.726704
C 1.746278 1.733347 0.186293
C 1.993403 1.011101 0.000497
C 1.996563 1.524864 0.475462
C 2.507702 1.010363 0.554038
C 2.436377 1.516186 0.004236
C 2.252310 1.218274 0.209765
C 2.201555 1.722080 0.747059
C 2.725440 1.246884 0.694298
C 2.793455 1.720760 0.218119
C 2.958593 1.026483 0.059644
C 2.993806 1.467251 0.542286
C 3.499539 1.001643 0.465768
C 3.518613 1.574625 0.016044
C 3.209230 1.222526 0.226947
C 3.260038 1.712441 0.801559
C 3.739567 1.242383 0.720581
C 3.775028 1.730000 0.215826
C 4.025806 0.962307 0.002080
C 4.058011 1.506054 0.516699
C 4.530298 0.979809 0.463105
C 4.560497 1.451375 0.011171
C 4.285504 1.246982 0.276227
C 4.237783 1.762281 0.787878
C 4.720386 1.259824 0.807318
C 4.731410 1.814533 0.265230
C 4.936617 1.004156 0.011891
C 5.050060 1.487471 0.512455
C 5.455390 1.008726 0.519480
C 5.541132 1.513239 0.000127
C 5.241606 1.289357 0.251526
C 5.236471 1.742444 0.697122
C 5.731345 1.212892 0.757998
C 5.696546 1.746497 0.231332
C 0.074245 2.007016 0.046474
C 0.022267 2.480203 0.558999
C 0.507366 1.995955 0.469730
C 0.481389 2.510865 0.045254
C 0.226267 2.276543 0.218153
C 0.244130 2.711287 0.770502
C 0.778513 2.270092 0.786538
C 0.797549 2.754624 0.225770
C 0.994526 2.053568 0.003252
C 0.972663 2.541025 0.466539
C 1.515774 2.040276 0.507416
C 1.494349 2.548050 0.053926
C 1.257763 2.230743 0.239453
C 1.243150 2.785716 0.716478
C 1.774718 2.210003 0.741159
C 1.763882 2.766863 0.303776
C 2.050295 1.986587 0.033631
C 2.054131 2.527082 0.491081
C 2.510514 1.991303 0.531582
C 2.538026 2.561485 0.012447
C 2.220115 2.239970 0.214613
C 2.297954 2.810113 0.736695
C 2.775796 2.209172 0.742413
C 2.762110 2.671846 0.234312
C 2.970319 2.041293 0.018790
C 3.029968 2.453787 0.517723
C 3.546503 2.035434 0.514477
C 3.503892 2.471671 0.017569
C 3.247241 2.294859 0.212620
C 3.237239 2.786471 0.723638
C 3.761811 2.193169 0.791380
C 3.700647 2.714664 0.237966
C 3.949096 1.987410 0.005347
C 4.032141 2.444300 0.459332
C 4.458021 1.989720 0.483690
C 4.551290 2.565328 0.012277
C 4.203050 2.254161 0.204673
C 4.212938 2.766967 0.782877
C 4.706008 2.216546 0.755222
C 4.794941 2.727984 0.266119
C 5.010950 1.962035 0.022904
C 5.030865 2.516325 0.541827
C 5.440174 1.988546 0.502990
C 5.503644 2.417390 0.017599
C 5.285927 2.207255 0.248553
C 5.280459 2.756603 0.777872
C 5.720609 2.277016 0.784399
C 5.713130 2.744046 0.219090
C 0.035689 2.960679 0.008398
C 0.009119 3.500850 0.439797
C 0.493312 2.958661 0.474542
C 0.495861 3.541520 0.002175
C 0.234169 3.266188 0.222843
C 0.292680 3.747506 0.713002
C 0.708867 3.226290 0.767409
C 0.793059 3.764662 0.255169
C 0.927318 2.983537 0.009819
C 0.967128 3.464318 0.476912
C 1.516830 3.003217 0.518312
C 1.549591 3.493527 0.051789
C 1.183350 3.269757 0.233227
C 1.281163 3.727487 0.728479
C 1.732752 3.251370 0.781522
C 1.788982 3.781543 0.214581
C 1.976638 3.035355 0.013849
C 2.023885 3.450170 0.539887
C 2.525586 2.995463 0.471554
C 2.500899 3.502995 0.018908
C 2.210559 3.270407 0.263885
C 2.205191 3.740698 0.743050
C 2.786450 3.201795 0.763980
C 2.813251 3.754889 0.233104
C 2.970927 2.999638 0.006443
C 3.023123 3.454990 0.447879
C 3.553988 2.998908 0.461742
C 3.466690 3.510301 0.052887
C 3.268343 3.247395 0.260427
C 3.240105 3.802841 0.741712
C 3.790543 3.264246 0.751496
C 3.741098 3.770338 0.207796
C 3.942800 2.980990 0.024039
C 3.989446 3.476360 0.498394
C 4.484692 2.975614 0.442428
C 4.498453 3.501398 0.046330
C 4.192703 3.286642 0.212917
C 4.254891 3.704574 0.720097
C 4.791276 3.264394 0.712491
C 4.756355 3.783393 0.196109
C 5.003883 3.029336 0.002271
C 4.942942 3.506867 0.496248
C 5.514973 3.040103 0.511365
C 5.502262 3.465723 0.057694
C 5.206459 3.270978 0.241118
C 5.248664 3.683567 0.742420
C 5.739883 3.227069 0.781755
C 5.748023 3.728657 0.283836
C 0.004723 4.025986 0.045334
C 0.000454 4.464850 0.455320
C 0.533744 4.023802 0.548919
C 0.520365 4.528977 0.034550
C 0.240276 4.244222 0.236928
C 0.217047 4.780900 0.747792
C 0.747461 4.262177 0.785267
C 0.758724 4.701861 0.266320
C 0.998436 4.076388 0.044442
C 0.989317 4.493148 0.526703
C 1.547735 4.036511 0.472706
C 1.422235 4.476198 0.007535
C 1.238584 4.187193 0.267690
C 1.223648 4.813565 0.715256
C 1.708568 4.266112 0.748700
C 1.718333 4.769620 0.304217
C 2.059658 4.047133 0.015099
C 2.000400 4.537698 0.453700
C 2.518213 3.973567 0.546707
C 2.455031 4.547823 0.045045
C 2.262306 4.290868 0.206011
C 2.285417 4.738488 0.753732
C 2.712427 4.264777 0.722700
C 2.750397 4.753916 0.287020
C 3.024994 4.007191 0.014059
C 3.003251 4.461293 0.505428
C 3.497263 3.993350 0.554215
C 3.501652 4.568293 0.009209
C 3.302719 4.233489 0.242024
C 3.253516 4.775792 0.760437
C 3.796748 4.234054 0.767770
C 3.740548 4.742214 0.238351
C 4.002593 3.984804 0.003913
C 4.029157 4.504632 0.511279
C 4.473334 3.945859 0.455954
C 4.527782 4.545123 0.050695
C 4.288205 4.221074 0.280819
C 4.303488 4.710401 0.706326
C 4.767036 4.223079 0.761779
C 4.715768 4.762612 0.289143
C 5.030254 3.952177 0.023800
C 4.993927 4.463215 0.507500
C 5.514464 3.976178 0.548054
C 5.484088 4.483769 0.006342
C 5.234497 4.260747 0.282198
C 5.286807 4.798658 0.722272
C 5.702543 4.262492 0.723846
C 5.736714 4.774630 0.275130
C 0.000326 5.048048 0.067384
C 0.005914 5.459316 0.442781
C 0.502439 4.968802 0.507945
C 0.493139 5.550711 0.005327
C 0.271423 5.232531 0.242345
C 0.238972 5.721867 0.785806
C 0.700639 5.266343 0.729177
C 0.745876 5.735534 0.292947
C 1.042289 4.955461 0.020650
C 1.010745 5.548131 0.510984
C 1.457446 4.984447 0.461054
C 1.548589 5.449833 0.017731
C 1.293083 5.271077 0.248742
C 1.238478 5.675177 0.739161
C 1.768828 5.274734 0.814261
C 1.764717 5.743472 0.263618
C 1.943026 5.015671 0.003040
C 1.978708 5.506039 0.570337
C 2.523570 5.032431 0.542304
C 2.554548 5.474618 0.035819
C 2.243232 5.295867 0.253850
C 2.234354 5.734794 0.751775
C 2.801340 5.270462 0.726918
C 2.702376 5.730317 0.222002
C 3.027314 4.952734 0.000550
C 3.002417 5.521157 0.525237
C 3.502550 4.969675 0.473156
C 3.459458 5.531546 0.044190
C 3.193535 5.229132 0.251949
C 3.320681 5.706278 0.701816
C 3.729119 5.257332 0.771654
C 3.741394 5.709065 0.298563
C 3.935578 5.020612 0.001865
C 3.967041 5.446614 0.525202
C 4.545746 5.006448 0.523755
C 4.475751 5.449567 0.023210
C 4.317859 5.230180 0.262068
C 4.237163 5.710532 0.728407
C 4.730672 5.272399 0.706768
C 4.826820 5.710876 0.267651
C 4.975245 4.988058 0.047101
C 5.029490 5.480283 0.515936
C 5.489925 4.991239 0.450105
C 5.512656 5.452873 0.015907
C 5.226628 5.222757 0.270704
C 5.308021 5.712304 0.745514
C 5.745933 5.227665 0.692098
C 5.743274 5.709298 0.197419
C 0.016461 0.020258 0.996766
C 0.022975 0.472941 1.447741
C 0.479919 0.038946 1.446342
C 0.516099 0.457091 0.970539
C 0.273992 0.187815 1.201137
C 0.201050 0.718596 1.753258
C 0.705965 0.268494 1.790050
C 0.695814 0.768194 1.247081
C 0.952199 0.000642 0.994833
C 1.061961 0.500114 1.507753
C 1.494060 0.028104 1.505757
C 1.471368 0.503383 1.034215
C 1.307705 0.263936 1.261368
C 1.281715 0.728396 1.718976
C 1.714499 0.217199 1.745875
C 1.802791 0.705013 1.244546
C 2.036651 0.008342 0.988597
C 2.036771 0.507416 1.521200
C 2.585510 0.027818 1.491484
C 2.499668 0.443932 0.991384
C 2.252969 0.313880 1.226412
C 2.272813 0.721002 1.811102
C 2.774389 0.281966 1.732683
C 2.707864 0.769885 1.260838
C 2.980986 0.014870 1.082243
C 3.010020 0.452849 1.476308
C 3.456929 0.039525 1.503322
C 3.494031 0.497740 1.007843
C 3.284215 0.281849 1.234436
C 3.223134 0.791760 1.752326
C 3.791246 0.266021 1.783928
C 3.738428 0.775595 1.234057
C 4.072414 0.029122 1.012493
C 4.005759 0.519971 1.515344
C 4.500575 0.017933 1.514930
C 4.461225 0.491017 1.036853
C 4.254626 0.281700 1.284604
C 4.216816 0.694287 1.772646
C 4.786471 0.275697 1.779427
C 4.793485 0.762609 1.275573
C 5.061386 0.007557 0.997519
C 4.980515 0.485937 1.521530
C 5.416877 0.015158 1.527868
C 5.480316 0.550790 1.013275
C 5.222126 0.247522 1.212467
C 5.237693 0.713946 1.729083
C 5.741059 0.240960 1.676264
C 5.739674 0.774126 1.202548
C 0.012688 1.022598 1.015532
C 0.043886 1.522463 1.456006
C 0.484159 0.969035 1.531709
C 0.492949 1.574415 1.019872
C 0.262240 1.207550 1.217070
C 0.301072 1.771488 1.750923
C 0.742198 1.274772 1.773867
C 0.790291 1.789224 1.224859
C 0.982261 0.957829 1.017129
C 0.994304 1.491922 1.547096
C 1.554161 1.033909 1.515799
C 1.458264 1.480292 0.987531
C 1.266699 1.293357 1.240104
C 1.255039 1.699419 1.768782
C 1.709138 1.209093 1.770180
C 1.761845 1.713844 1.276345
C 2.014610 0.963797 0.975519
C 2.005754 1.523959 1.547113
C 2.488764 1.000123 1.455875
C 2.491477 1.541104 1.016515
C 2.304427 1.224750 1.215874
C 2.257421 1.750713 1.701565
C 2.769572 1.268180 1.725554
C 2.806599 1.781262 1.238623
C 3.048592 1.021331 1.007581
C 2.940099 1.540865 1.482161
C 3.554130 1.030991 1.513310
C 3.427442 1.464282 1.000579
C 3.204278 1.210739 1.277651
C 3.252830 1.793976 1.811331
C 3.709105 1.315651 1.720094
C 3.748677 1.743599 1.309563
C 3.982075 0.964452 0.966837
C 3.985554 1.457936 1.532465
C 4.464292 0.971280 1.523598
C 4.481005 1.492688 0.999333
C 4.241500 1.308951 1.215034
C 4.208650 1.780254 1.771868
C 4.732297 1.312838 1.760851
C 4.736297 1.768327 1.238949
C 4.988646 1.037142 0.975874
C 5.008083 1.497522 1.527876
C 5.505095 1.042611 1.465458
C 5.441305 1.499258 0.979683
C 5.276506 1.269951 1.295867
C 5.201749 1.740206 1.758701
C 5.745108 1.329509 1.790073
C 5.720064 1.724788 1.283142
C 0.006645 1.964341 1.047806
C 0.045627 2.513052 1.467504
C 0.489100 2.059729 1.528367
C 0.483123 2.562796 0.981892
C 0.283845 2.222617 1.219884
C 0.230487 2.778583 1.722114
C 0.745598 2.226305 1.799330
C 0.729344 2.709457 1.208266
C 0.980249 1.967458 0.970618
C 1.009103 2.550305 1.466216
C 1.541589 2.017728 1.506467
C 1.489709 2.501272 1.013272
C 1.271554 2.201349 1.253255
C 1.210940 2.776078 1.740070
C 1.741466 2.289819 1.750725
C 1.753521 2.733017 1.219778
C 1.989191 1.981169 0.990169
C 2.014319 2.503525 1.540289
C 2.524544 2.049482 1.527116
C 2.498964 2.570583 0.994709
C 2.216332 2.238325 1.241595
C 2.305917 2.730670 1.777878
C 2.774115 2.299859 1.746435
C 2.723717 2.720492 1.281403
C 2.967863 2.033585 1.021708
C 3.013801 2.556891 1.541119
C 3.546820 2.004037 1.510150
C 3.498382 2.521512 1.011122
C 3.254299 2.215412 1.218935
C 3.288013 2.744254 1.789647
C 3.730614 2.225207 1.752326
C 3.709551 2.736403 1.244412
C 4.019335 1.988978 1.002868
C 3.967245 2.494875 1.465919
C 4.487049 1.988057 1.421465
C 4.515777 2.461614 1.014501
C 4.220806 2.294921 1.258482
C 4.230418 2.713836 1.711692
C 4.741157 2.278520 1.702949
C 4.737716 2.762256 1.273858
C 4.984198 1.970854 1.053180
C 5.042315 2.491661 1.518453
C 5.490574 1.976535 1.466046
C 5.448936 2.477817 0.994011
C 5.245270 2.192804 1.265096
C 5.254274 2.792429 1.797456
C 5.734173 2.257679 1.717570
C 5.741303 2.720826 1.205376
C 0.001793 2.977129 0.954348
C 0.051158 3.465371 1.526307
C 0.517665 3.046573 1.506549
C 0.464749 3.524269 1.040320
C 0.309985 3.272085 1.289306
C 0.259838 3.737041 1.677334
C 0.804704 3.238250 1.800485
C 0.768603 3.689211 1.278214
C 0.977050 2.976370 1.025573
C 0.994585 3.498219 1.518028
C 1.491024 2.957270 1.534348
C 1.475482 3.487122 0.966978
C 1.239605 3.236953 1.227315
C 1.293370 3.759208 1.770752
C 1.707325 3.299986 1.762461
C 1.763849 3.696376 1.248620
C 1.967710 3.005555 1.020578
C 2.001074 3.463799 1.433419
C 2.516392 2.971591 1.480105
C 2.512993 3.476755 1.043392
C 2.209314 3.216297 1.302770
C 2.213611 3.727536 1.723222
C 2.748039 3.220174 1.741439
C 2.740572 3.713906 1.291214
C 2.992788 2.958978 0.987184
C 2.961285 3.482787 1.489694
C 3.485787 2.961590 1.515399
C 3.540991 3.456256 0.958990
C 3.216073 3.234536 1.263346
C 3.275901 3.732374 1.729596
C 3.805851 3.262567 1.715634
C 3.732195 3.702931 1.258562
C 3.952883 2.962000 0.976228
C 4.037614 3.520967 1.520081
C 4.506269 3.044131 1.445619
C 4.500225 3.465382 1.043441
C 4.229040 3.285623 1.262681
C 4.287331 3.727684 1.759181
C 4.772331 3.232994 1.811994
C 4.774709 3.693674 1.293879
C 5.031803 3.027725 0.950265
C 5.035975 3.488736 1.458257
C 5.512247 2.963268 1.481080
C 5.465617 3.468420 0.986067
C 5.320321 3.251905 1.248698
C 5.249716 3.732642 1.761751
C 5.730668 3.240861 1.793999
C 5.738309 3.790174 1.310292
C 0.008889 4.016960 0.983547
C 0.000621 4.562292 1.520607
C 0.479547 3.987580 1.527352
C 0.561352 4.535532 0.991841
C 0.210127 4.269242 1.197386
C 0.294385 4.788265 1.766578
C 0.714651 4.259740 1.751387
C 0.769180 4.795665 1.238225
C 1.010179 4.014498 1.005246
C 0.968016 4.473961 1.520419
C 1.447217 3.978913 1.518233
C 1.514334 4.505028 1.010283
C 1.268982 4.254169 1.283292
C 1.251207 4.811978 1.767742
C 1.726878 4.215363 1.705970
C 1.785211 4.745116 1.279128
C 1.965294 4.042635 1.002356
C 1.991515 4.461486 1.520274
C 2.471711 3.963435 1.524956
C 2.467267 4.510525 1.010248
C 2.194104 4.219589 1.233830
C 2.216995 4.781791 1.780279
C 2.805253 4.263710 1.734158
C 2.728460 4.700911 1.216735
C 3.032167 3.931330 1.002017
C 2.976151 4.506013 1.478729
C 3.512670 4.038716 1.458248
C 3.485571 4.500616 1.023767
C 3.272343 4.297786 1.258422
C 3.200675 4.783016 1.749605
C 3.752571 4.248959 1.732464
C 3.730673 4.709188 1.201304
C 3.988625 3.962398 0.991512
C 4.021949 4.500091 1.484767
C 4.547981 4.055213 1.513300
C 4.495114 4.572568 1.030807
C 4.278691 4.243762 1.192266
C 4.184669 4.733525 1.730645
C 4.736329 4.268984 1.819363
C 4.718079 4.771824 1.262811
C 4.943580 3.967367 1.037985
C 4.988566 4.458029 1.492039
C 5.480575 3.985186 1.461734
C 5.458680 4.532763 0.971942
C 5.257463 4.219859 1.227675
C 5.215877 4.783295 1.735032
C 5.749398 4.255494 1.775562
C 5.722342 4.748456 1.260822
C 0.023984 5.088311 1.012340
C 0.030176 5.457228 1.483071
C 0.482982 5.026761 1.515047
C 0.490037 5.474530 1.020332
C 0.277996 5.240850 1.234847
C 0.313189 5.745055 1.707499
C 0.713607 5.256361 1.718613
C 0.727014 5.729505 1.300566
C 0.966564 5.010012 0.988815
C 0.957896 5.513774 1.537122
C 1.492935 4.955847 1.533919
C 1.460056 5.540057 1.001082
C 1.290350 5.278646 1.262976
C 1.238226 5.686540 1.741675
C 1.759720 5.285171 1.736091
C 1.724692 5.674662 1.224630
C 2.006377 5.054044 0.962434
C 1.997028 5.518929 1.496271
C 2.468854 5.027175 1.513943
C 2.465270 5.541529 1.021556
C 2.246222 5.246037 1.261768
C 2.195542 5.745376 1.717713
C 2.699499 5.227633 1.767478
C 2.780915 5.735194 1.313934
C 2.993350 4.973042 0.996219
C 3.042958 5.519717 1.487697
C 3.434531 4.993891 1.515922
C 3.477328 5.451515 0.974018
C 3.271255 5.243775 1.290178
C 3.290505 5.741035 1.715502
C 3.712108 5.286678 1.796761
C 3.760922 5.740646 1.288195
C 3.998706 5.004427 0.973054
C 3.992079 5.435523 1.477115
C 4.513557 5.006107 1.471559
C 4.495638 5.448902 0.951378
C 4.236767 5.257937 1.264112
C 4.316492 5.746621 1.738662
C 4.695569 5.258170 1.726158
C 4.784780 5.741349 1.204620
C 5.029647 4.963482 0.962784
C 5.006704 5.494837 1.472114
C 5.564497 5.011777 1.538615
C 5.555598 5.462522 0.957339
C 5.273165 5.240066 1.293735
C 5.233959 5.684959 1.718673
C 5.728349 5.312506 1.770598
C 5.677193 5.719717 1.238018
C 0.058835 0.000710 2.054559
C 0.036885 0.546176 2.522657
C 0.459876 0.032582 2.550134
C 0.502928 0.566434 1.965451
C 0.262738 0.264461 2.193863
C 0.252665 0.783920 2.803438
C 0.714377 0.251633 2.727829
C 0.734339 0.691077 2.218751
C 0.999545 0.016803 1.930850
C 1.010574 0.485039 2.565423
C 1.460148 0.012696 2.559404
C 1.464372 0.472872 2.046975
C 1.230802 0.209554 2.265196
C 1.260161 0.760747 2.721379
C 1.778422 0.239744 2.790243
C 1.675962 0.736214 2.260272
C 1.965454 0.005819 2.006671
C 2.042945 0.563908 2.494001
C 2.503951 0.039889 2.480925
C 2.533381 0.472115 2.050172
C 2.259344 0.291529 2.277469
C 2.231064 0.743185 2.764993
C 2.750165 0.294629 2.762791
C 2.751712 0.734625 2.310661
C 2.950946 0.021803 1.980562
C 3.014826 0.473144 2.465711
C 3.517955 0.056861 2.494416
C 3.511357 0.528368 2.054732
C 3.237090 0.325657 2.231502
C 3.278515 0.730372 2.821766
C 3.823356 0.210431 2.760556
C 3.746948 0.771240 2.293242
C 3.988882 0.022655 2.042594
C 4.042041 0.506919 2.512740
C 4.478235 0.029646 2.537689
C 4.538172 0.487471 1.990296
C 4.236886 0.252711 2.197316
C 4.298636 0.744073 2.770134
C 4.742973 0.257730 2.720279
C 4.733528 0.789631 2.204120
C 4.987522 0.051898 2.008550
C 5.052499 0.513368 2.487285
C 5.507054 0.035882 2.440073
C 5.488064 0.523398 1.994155
C 5.224092 0.274788 2.238139
C 5.274538 0.792035 2.745844
C 5.730185 0.193891 2.672635
C 5.749757 0.761875 2.180314
C 0.011119 0.954855 1.990513
C 0.021450 1.467945 2.454205
C 0.530287 0.956733 2.482803
C 0.456553 1.522268 1.957046
C 0.331936 1.250536 2.265762
C 0.244803 1.760993 2.719121
C 0.748015 1.194374 2.756785
C 0.746952 1.716714 2.298963
C 1.033693 0.984417 1.955139
C 1.025352 1.518935 2.506482
C 1.504849 1.028707 2.511689
C 1.467849 1.497122 2.000529
C 1.269115 1.263396 2.261514
C 1.221733 1.739279 2.804086
C 1.754170 1.211116 2.784359
C 1.733747 1.731959 2.301945
C 1.975932 1.037966 2.009856
C 1.960565 1.491616 2.494150
C 2.497361 0.997537 2.489222
C 2.472004 1.484380 1.995995
C 2.243379 1.305368 2.226558
C 2.227235 1.733022 2.726705
C 2.744708 1.228149 2.765347
C 2.812214 1.769463 2.267209
C 2.964397 0.973983 1.963513
C 3.050910 1.501030 2.524759
C 3.547982 1.020182 2.501249
C 3.516533 1.508865 2.034772
C 3.247023 1.216228 2.212832
C 3.242704 1.751990 2.722506
C 3.765360 1.208300 2.772245
C 3.711522 1.748308 2.271119
C 3.974486 1.054212 1.952060
C 3.985526 1.509256 2.563965
C 4.472913 1.005403 2.499638
C 4.450215 1.516875 2.042337
C 4.270762 1.280778 2.286877
C 4.284608 1.690236 2.768942
C 4.789728 1.255528 2.797925
C 4.761934 1.727056 2.262128
C 4.976140 0.954968 1.975567
C 4.987611 1.512215 2.479745
C 5.508715 1.002813 2.538121
C 5.486231 1.491280 1.959688
C 5.283052 1.289324 2.258334
C 5.262209 1.715845 2.780110
C 5.700964 1.255677 2.730427
C 5.744606 1.787181 2.293947
C 0.033395 2.047872 2.031603
C 0.048191 2.474125 2.538985
C 0.546174 1.965162 2.518210
C 0.516812 2.529607 2.017768
C 0.253878 2.257393 2.253571
C 0.227846 2.740585 2.730213
C 0.762368 2.232954 2.737574
C 0.784826 2.683125 2.221513
C 0.952658 1.979543 1.971768
C 1.007288 2.492151 2.498502
C 1.471235 1.945118 2.502169
C 1.538597 2.499403 2.009525
C 1.205205 2.201111 2.273432
C 1.239925 2.713227 2.776547
C 1.744291 2.204927 2.794513
C 1.775192 2.775130 2.295548
C 1.990690 2.000168 2.002134
C 1.986229 2.452235 2.472408
C 2.567113 2.002909 2.473200
C 2.538787 2.473327 2.022193
C 2.267221 2.270899 2.277431
C 2.228094 2.755020 2.806489
C 2.704036 2.204109 2.717745
C 2.769993 2.757119 2.298970
C 2.966738 1.945947 1.985117
C 3.004556 2.535124 2.560838
C 3.523827 2.060524 2.502196
C 3.490793 2.519574 2.072359
C 3.301188 2.261773 2.206420
C 3.256015 2.718793 2.678329
C 3.772390 2.292622 2.778585
C 3.764987 2.723347 2.262764
C 3.954612 2.006499 2.005098
C 3.979308 2.512525 2.524921
C 4.484039 1.988890 2.488788
C 4.513856 2.500832 1.949222
C 4.225536 2.293971 2.248998
C 4.290129 2.766351 2.796205
C 4.700655 2.303050 2.757808
C 4.757738 2.702436 2.294473
C 5.004402 1.975393 1.988905
C 5.027155 2.559501 2.534047
C 5.481901 2.020092 2.527262
C 5.505637 2.559055 2.026816
C 5.280891 2.204171 2.242510
C 5.234358 2.792202 2.799858
C 5.715889 2.280241 2.737484
C 5.743414 2.752506 2.268160
C 0.021536 2.966747 2.023534
C 0.001011 3.503485 2.474318
C 0.494704 2.987291 2.512141
C 0.491450 3.559396 1.980093
C 0.200398 3.212168 2.255456
C 0.238312 3.718830 2.739434
C 0.722027 3.231459 2.802006
C 0.741462 3.742217 2.184624
C 0.992807 2.959161 2.020074
C 0.954482 3.553332 2.479328
C 1.503508 3.016328 2.492966
C 1.466100 3.524617 2.061240
C 1.193750 3.272242 2.248805
C 1.231262 3.764025 2.803321
C 1.744810 3.259601 2.741078
C 1.714774 3.773648 2.218885
C 1.948641 3.009004 2.045124
C 1.965074 3.549535 2.468090
C 2.490364 3.038604 2.522814
C 2.488229 3.547442 1.956398
C 2.306747 3.255147 2.268147
C 2.197693 3.769524 2.713233
C 2.802428 3.241569 2.777981
C 2.709270 3.753262 2.230169
C 2.980645 3.023940 2.050677
C 2.981139 3.492850 2.561641
C 3.484522 2.942568 2.485913
C 3.449853 3.474911 2.039268
C 3.330454 3.222694 2.261930
C 3.246833 3.719956 2.727672
C 3.748108 3.197966 2.722252
C 3.764027 3.745012 2.302837
C 4.046424 3.013771 1.967319
C 4.003531 3.502489 2.489594
C 4.529586 3.041417 2.485470
C 4.457936 3.462421 2.012528
C 4.216424 3.230454 2.239808
C 4.225832 3.752458 2.803280
C 4.768027 3.277293 2.675434
C 4.724290 3.699221 2.213493
C 4.955486 2.971877 2.043963
C 4.973396 3.535455 2.497320
C 5.490085 3.005100 2.455769
C 5.478797 3.525307 1.973803
C 5.198749 3.227901 2.222945
C 5.272752 3.709948 2.758624
C 5.707422 3.215514 2.781354
C 5.725482 3.807255 2.294350
C 0.015761 3.987517 1.946355
C 0.046739 4.461660 2.514822
C 0.552448 3.961381 2.479889
C 0.471664 4.457865 1.977625
C 0.283978 4.213562 2.237563
C 0.265159 4.765020 2.809493
C 0.715901 4.231600 2.672162
C 0.722436 4.743352 2.205220
C 0.987930 4.041961 1.999757
C 1.027066 4.477500 2.516338
C 1.533264 4.001605 2.546735
C 1.523760 4.452002 1.955220
C 1.240381 4.312145 2.237665
C 1.218288 4.731662 2.730491
C 1.720404 4.292159 2.742914
C 1.758088 4.792578 2.264711
C 2.024144 4.040409 2.045782
C 2.000917 4.483314 2.469516
C 2.514011 3.978284 2.484722
C 2.539441 4.514758 1.948676
C 2.265498 4.266557 2.274926
C 2.201774 4.751923 2.757986
C 2.813275 4.235574 2.767127
C 2.750184 4.712387 2.217918
C 3.014239 4.044443 1.985964
C 3.007501 4.480181 2.519533
C 3.512718 4.036822 2.509478
C 3.479940 4.462348 1.994101
C 3.230564 4.267760 2.225620
C 3.233340 4.710564 2.759041
C 3.787229 4.239563 2.759271
C 3.757739 4.750091 2.242420
C 3.994006 4.001428 1.970561
C 4.034863 4.520843 2.511144
C 4.549722 3.996035 2.449494
C 4.503110 4.550832 2.025608
C 4.258729 4.314242 2.248294
C 4.251175 4.735084 2.735655
C 4.731105 4.293509 2.773409
C 4.701695 4.720069 2.283187
C 4.974615 3.977690 2.007687
C 5.058440 4.508490 2.473138
C 5.470768 3.936886 2.498523
C 5.532590 4.561646 2.007583
C 5.291298 4.269527 2.223697
C 5.281963 4.748210 2.705112
C 5.703509 4.237119 2.773350
C 5.737182 4.752973 2.260319
C 0.024463 5.056351 2.046741
C 0.016212 5.456622 2.438824
C 0.484755 5.015080 2.499244
C 0.481584 5.521547 2.006816
C 0.308096 5.264558 2.268904
C 0.242883 5.740686 2.711222
C 0.728246 5.301934 2.726650
C 0.714387 5.742374 2.264699
C 0.994129 5.024502 2.026184
C 0.962405 5.503989 2.468270
C 1.480832 5.044847 2.432921
C 1.446362 5.501216 2.040470
C 1.224093 5.259931 2.181091
C 1.266671 5.700344 2.757317
C 1.725038 5.231013 2.786103
C 1.739620 5.674562 2.281977
C 2.016543 5.042056 1.960012
C 1.976351 5.501690 2.542469
C 2.481315 4.987018 2.481677
C 2.510077 5.554854 2.037341
C 2.306180 5.287435 2.216197
C 2.280237 5.691749 2.783176
C 2.714212 5.271242 2.739350
C 2.692794 5.746422 2.323677
C 2.969282 4.999161 1.966270
C 3.032586 5.476288 2.538596
C 3.539168 5.017157 2.481403
C 3.480619 5.474164 2.032608
C 3.238137 5.280338 2.270856
C 3.206397 5.727924 2.757895
C 3.712364 5.266665 2.787762
C 3.765554 5.741767 2.204557
C 3.933859 5.029538 2.005251
C 3.957155 5.473474 2.515078
C 4.495428 4.983000 2.452656
C 4.506814 5.522357 1.999108
C 4.217113 5.281358 2.265766
C 4.265438 5.689275 2.694752
C 4.725691 5.218912 2.704552
C 4.761002 5.735590 2.333770
C 4.983937 5.002400 2.009455
C 5.005729 5.504280 2.470547
C 5.460103 5.009961 2.489253
C 5.512144 5.493094 2.011379
C 5.281520 5.259180 2.288855
C 5.301350 5.725553 2.725730
C 5.739904 5.245361 2.800892
C 5.680230 5.718284 2.294629
C 0.006062 0.067367 2.990326
C 0.067234 0.433592 3.489702
C 0.479730 0.025650 3.490641
C 0.548030 0.485268 3.023221
C 0.284002 0.182572 3.233144
C 0.288744 0.765646 3.753442
C 0.714858 0.261452 3.689668
C 0.803742 0.738649 3.218838
C 1.039229 0.003075 2.967742
C 1.014546 0.481179 3.490643
C 1.468837 0.014784 3.508281
C 1.544305 0.463796 3.046170
C 1.220878 0.218951 3.278086
C 1.242339 0.731277 3.779716
C 1.793346 0.254269 3.744875
C 1.776223 0.770538 3.248281
C 1.980451 0.044488 3.049043
C 1.965465 0.515727 3.488367
C 2.496187 0.030589 3.560717
C 2.507187 0.483133 3.045450
C 2.303926 0.214364 3.246411
C 2.257546 0.727427 3.792005
C 2.718780 0.263351 3.718045
C 2.785693 0.741443 3.253936
C 3.000753 0.017273 2.985286
C 2.998706 0.491904 3.467855
C 3.483228 0.030763 3.484723
C 3.517876 0.472663 2.959276
C 3.240928 0.267246 3.295929
C 3.199593 0.720884 3.753447
C 3.705065 0.298192 3.744876
C 3.757391 0.732799 3.222750
C 4.049607 0.012236 2.986823
C 3.985515 0.465945 3.524291
C 4.476187 0.050186 3.513360
C 4.551406 0.488731 3.052524
C 4.239799 0.275191 3.194752
C 4.227604 0.773700 3.806685
C 4.810862 0.239849 3.732577
C 4.757846 0.740630 3.236406
C 5.031626 0.043105 2.962334
C 5.012511 0.468266 3.481679
C 5.565120 0.006689 3.550099
C 5.506273 0.445619 2.974250
C 5.218347 0.261129 3.246796
C 5.257333 0.736996 3.703596
C 5.733247 0.291345 3.826620
C 5.742039 0.676342 3.245979
C 0.023774 0.991916 3.020181
C 0.014746 1.505089 3.546516
C 0.550995 1.019105 3.542199
C 0.500684 1.555216 2.984304
C 0.259053 1.306408 3.296223
C 0.294143 1.723556 3.765860
C 0.764718 1.293592 3.740029
C 0.741769 1.809326 3.191986
C 1.038224 1.046295 3.025992
C 0.998524 1.510609 3.550171
C 1.481309 1.026254 3.492910
C 1.537308 1.509785 2.985843
C 1.320259 1.278027 3.279908
C 1.263893 1.709989 3.786482
C 1.711377 1.278555 3.745469
C 1.809504 1.724709 3.225540
C 1.992023 1.037824 3.056644
C 1.987664 1.422844 3.480641
C 2.452932 1.033761 3.520316
C 2.501752 1.531306 3.028654
C 2.283308 1.264316 3.236514
C 2.290856 1.762293 3.756734
C 2.687139 1.273090 3.720822
C 2.764401 1.805398 3.216894
C 3.033754 0.984651 2.949613
C 3.049621 1.530500 3.494943
C 3.523813 1.045503 3.478840
C 3.517443 1.518402 3.032931
C 3.252543 1.283238 3.286383
C 3.206264 1.816216 3.783329
C 3.731961 1.201507 3.782899
C 3.747834 1.754326 3.268881
C 3.996865 1.030753 3.006451
C 3.979761 1.482888 3.536422
C 4.522084 0.966213 3.555971
C 4.496166 1.492997 3.011440
C 4.239181 1.250589 3.302977
C 4.247080 1.759525 3.741262
C 4.730856 1.267158 3.795175
C 4.752405 1.779862 3.298023
C 5.033502 0.994023 3.003338
C 4.994652 1.534662 3.468078
C 5.468375 1.029039 3.527094
C 5.514111 1.497198 2.991419
C 5.189406 1.240973 3.243471
C 5.281332 1.747770 3.799201
C 5.712671 1.212084 3.756388
C 5.700411 1.679690 3.282307
C 0.012058 1.985812 2.950203
C 0.012684 2.471822 3.513722
C 0.470460 2.043655 3.491822
C 0.484998 2.554317 3.024336
C 0.300781 2.271415 3.256894
C 0.225459 2.732218 3.744898
C 0.779334 2.299156 3.737640
C 0.741473 2.702192 3.207085
C 0.973586 2.025967 2.983913
C 1.001601 2.561521 3.506781
C 1.463243 1.996126 3.523664
C 1.481592 2.478036 3.010929
C 1.281728 2.249849 3.287660
C 1.244204 2.785742 3.707849
C 1.747878 2.295963 3.750662
C 1.699482 2.774427 3.217708
C 2.007208 1.977884 3.011384
C 2.004893 2.541135 3.529188
C 2.495147 1.996845 3.499642
C 2.526100 2.496046 3.043482
C 2.271976 2.219106 3.265564
C 2.232004 2.744226 3.761229
C 2.744064 2.273155 3.771709
C 2.760971 2.717788 3.234272
C 3.027063 2.044772 3.002821
C 2.977758 2.479727 3.462543
C 3.464040 2.009350 3.532689
C 3.515480 2.490281 2.972534
C 3.315486 2.228885 3.279343
C 3.229558 2.704302 3.725277
C 3.761859 2.270700 3.790923
C 3.775757 2.790090 3.270929
C 3.985493 2.077050 3.000446
C 4.020446 2.477872 3.446501
C 4.521835 1.965455 3.557963
C 4.457384 2.518334 3.008561
C 4.273047 2.285797 3.276584
C 4.271409 2.786780 3.731442
C 4.737826 2.200093 3.696722
C 4.767444 2.750703 3.314814
C 4.982442 1.999415 3.011255
C 5.023533 2.485938 3.485664
C 5.521132 2.049863 3.473452
C 5.502993 2.512260 3.042012
C 5.249984 2.263513 3.283272
C 5.297659 2.774619 3.762681
C 5.748063 2.265812 3.708468
C 5.748606 2.693061 3.250112
C 0.006263 2.968089 2.960420
C 0.025605 3.489323 3.474277
C 0.464806 3.024138 3.557259
C 0.478250 3.462449 3.022704
C 0.244757 3.283126 3.245637
C 0.205763 3.740757 3.699652
C 0.752784 3.253638 3.790659
C 0.727584 3.717331 3.240150
C 1.002142 2.980204 3.062783
C 0.958646 3.512896 3.516330
C 1.472520 3.008533 3.507973
C 1.431574 3.486649 2.977775
C 1.276629 3.226019 3.265512
C 1.272125 3.791159 3.742808
C 1.735130 3.303591 3.759201
C 1.786559 3.745959 3.279958
C 2.009528 3.021879 3.018149
C 1.958562 3.492148 3.444824
C 2.527335 3.034156 3.526228
C 2.503397 3.517227 2.964540
C 2.286920 3.297250 3.200658
C 2.227518 3.802002 3.785116
C 2.752640 3.254385 3.790270
C 2.780335 3.709000 3.217832
C 3.066191 2.982412 2.994579
C 2.993351 3.552332 3.479458
C 3.537585 2.988903 3.537528
C 3.520502 3.467368 3.030723
C 3.228865 3.208939 3.252864
C 3.272623 3.744738 3.770368
C 3.745313 3.240889 3.715930
C 3.699558 3.718353 3.270301
C 3.977840 3.029506 3.046880
C 3.995912 3.457647 3.491600
C 4.477799 3.024170 3.461649
C 4.457630 3.509758 2.943372
C 4.204863 3.289384 3.241925
C 4.309996 3.733289 3.777064
C 4.716523 3.199836 3.764661
C 4.722935 3.750790 3.257046
C 4.952123 2.941137 3.003192
C 4.969175 3.499731 3.451866
C 5.512589 3.037312 3.480019
C 5.476000 3.455150 2.985706
C 5.255969 3.217034 3.205349
C 5.311687 3.725031 3.729735
C 5.690126 3.234375 3.777282
C 5.705702 3.728612 3.186863
C 0.035513 4.014760 3.007518
C 0.002521 4.496501 3.460433
C 0.488598 4.009387 3.511619
C 0.477486 4.475713 2.977373
C 0.234422 4.293320 3.206133
C 0.239555 4.774541 3.702483
C 0.750153 4.260000 3.724097
C 0.722823 4.777386 3.196496
C 0.986129 3.958378 2.999232
C 1.021072 4.510465 3.542843
C 1.521632 4.038897 3.478287
C 1.513284 4.524452 2.950733
C 1.258837 4.264386 3.244497
C 1.301971 4.707750 3.739991
C 1.739179 4.262995 3.754469
C 1.766991 4.743300 3.237891
C 2.006089 3.943961 3.036641
C 1.995846 4.513043 3.462532
C 2.508429 4.043766 3.506626
C 2.495599 4.458358 2.972745
C 2.182591 4.273759 3.248922
C 2.236322 4.806369 3.770632
C 2.757308 4.262590 3.712567
C 2.726841 4.791748 3.216594
C 3.017555 4.038730 3.017857
C 3.029680 4.465753 3.492078
C 3.502525 3.946817 3.526046
C 3.505950 4.498453 2.971516
C 3.282692 4.244818 3.290840
C 3.297389 4.718661 3.772654
C 3.761228 4.311948 3.777492
C 3.709813 4.719249 3.211147
C 4.006304 4.044130 3.006817
C 4.003216 4.454966 3.442213
C 4.500852 4.007018 3.472234
C 4.463815 4.561323 3.010002
C 4.238662 4.180659 3.244123
C 4.241985 4.716417 3.709520
C 4.809588 4.246658 3.786842
C 4.715930 4.731449 3.229167
C 4.998147 3.962611 3.050498
C 5.036734 4.506818 3.507257
C 5.464978 3.974316 3.507423
C 5.534925 4.457791 3.015489
C 5.237262 4.284317 3.262574
C 5.289149 4.756380 3.791062
C 5.735823 4.266998 3.708655
C 5.691282 4.725126 3.214020
C 0.030892 5.044598 3.017840
C 0.003707 5.523468 3.572715
C 0.488010 4.993698 3.562904
C 0.513739 5.465879 2.996300
C 0.194454 5.281695 3.239139
C 0.272151 5.743497 3.708049
C 0.723055 5.243279 3.814023
C 0.728873 5.713267 3.301920
C 0.979363 4.950519 2.979405
C 1.026026 5.507783 3.518558
C 1.510519 5.031707 3.521517
C 1.530380 5.506628 2.983084
C 1.268521 5.245024 3.284751
C 1.234788 5.699636 3.764277
C 1.757510 5.210670 3.767006
C 1.769272 5.727620 3.224733
C 1.941376 4.997740 3.008684
C 1.959567 5.548317 3.484773
C 2.475454 4.965731 3.506244
C 2.496674 5.454278 3.054732
C 2.216113 5.264156 3.251701
C 2.222798 5.739451 3.814457
C 2.789654 5.255912 3.757109
C 2.718622 5.739068 3.225059
C 2.998431 4.963638 3.012734
C 2.994060 5.498070 3.454754
C 3.476547 5.003641 3.535676
C 3.438484 5.474990 2.990713
C 3.265718 5.207697 3.290676
C 3.280769 5.708562 3.783903
C 3.795590 5.211104 3.754170
C 3.717672 5.674324 3.274084
C 4.035866 4.947117 2.984086
C 3.994527 5.460798 3.453968
C 4.530852 4.997580 3.542039
C 4.518341 5.534149 2.961029
C 4.194888 5.217308 3.243601
C 4.295669 5.743327 3.748086
C 4.808081 5.262217 3.739355
C 4.728387 5.728890 3.269703
C 4.958143 5.032674 2.961081
C 5.019718 5.507394 3.477931
C 5.532151 4.995662 3.461196
C 5.476475 5.530329 3.001130
C 5.195266 5.253065 3.278943
C 5.196019 5.742546 3.754733
C 5.734085 5.221343 3.720884
C 5.710056 5.738239 3.233517
C 0.040324 0.043354 3.946354
C 0.008496 0.534100 4.555501
C 0.505975 0.042818 4.505708
C 0.470902 0.528160 3.990439
C 0.222496 0.203337 4.216501
C 0.269242 0.808833 4.725777
C 0.801410 0.265528 4.767963
C 0.736352 0.752553 4.249103
C 0.962724 0.039538 3.982391
C 1.025146 0.558331 4.525608
C 1.542943 0.034143 4.476948
C 1.505768 0.545300 4.001965
C 1.266309 0.227378 4.282930
C 1.321273 0.768704 4.746893
C 1.751410 0.261687 4.721561
C 1.731943 0.739679 4.258499
C 1.987490 0.039068 4.013527
C 1.998046 0.532717 4.525866
C 2.452211 0.019710 4.434167
C 2.485837 0.470118 3.976190
C 2.266452 0.304605 4.246919
C 2.264866 0.785770 4.719947
C 2.706844 0.216955 4.785390
C 2.745591 0.700490 4.218947
C 3.047407 0.041031 3.955317
C 2.983757 0.505700 4.566655
C 3.502728 0.062332 4.487076
C 3.532991 0.464355 4.002939
C 3.231721 0.215394 4.262013
C 3.212460 0.767853 4.789036
C 3.794899 0.228117 4.720304
C 3.779253 0.741129 4.203485
C 4.041930 0.003102 3.934218
C 3.974155 0.516623 4.517691
C 4.505989 0.022769 4.454801
C 4.499099 0.488866 3.998711
C 4.268925 0.273666 4.235107
C 4.253705 0.773243 4.768515
C 4.749102 0.287550 4.749631
C 4.814863 0.743399 4.225889
C 4.950006 0.037740 4.010678
C 4.949178 0.521005 4.519249
C 5.555017 0.040640 4.517682
C 5.540761 0.524707 3.941722
C 5.265041 0.196010 4.237663
C 5.245740 0.738040 4.788592
C 5.683596 0.229589 4.763164
C 5.696864 0.729413 4.276107
C 0.004470 0.959680 4.023611
C 0.027425 1.534132 4.435766
C 0.531188 0.988308 4.571614
C 0.569615 1.495348 4.031744
C 0.264307 1.200419 4.272415
C 0.225270 1.689634 4.734938
C 0.710324 1.254081 4.747425
C 0.783353 1.779769 4.260601
C 1.022827 1.021145 3.948549
C 0.968021 1.515464 4.443264
C 1.477914 0.958560 4.478071
C 1.471618 1.456729 4.057040
C 1.212541 1.225741 4.215050
C 1.222379 1.688298 4.718501
C 1.699512 1.254183 4.733621
C 1.747662 1.771754 4.226809
C 2.020077 1.039565 4.035102
C 1.921777 1.491936 4.501773
C 2.526820 1.029726 4.526155
C 2.549960 1.477854 3.965324
C 2.297307 1.222357 4.248706
C 2.200801 1.717530 4.775972
C 2.748071 1.258938 4.739077
C 2.810938 1.770957 4.265423
C 2.958029 1.044859 3.981072
C 2.964497 1.469999 4.499749
C 3.501532 0.947758 4.470218
C 3.492558 1.565602 3.978550
C 3.274553 1.233718 4.256361
C 3.257706 1.736756 4.737966
C 3.735341 1.241845 4.747391
C 3.734293 1.792082 4.197473
C 3.961137 0.980179 3.984434
C 3.957396 1.480717 4.510217
C 4.501509 0.984118 4.433273
C 4.478577 1.532357 3.958375
C 4.212173 1.235728 4.276079
C 4.220638 1.740167 4.725347
C 4.780192 1.251570 4.719030
C 4.801907 1.751646 4.276125
C 4.962720 0.993707 3.993779
C 4.947999 1.491297 4.492690
C 5.519877 0.992306 4.447568
C 5.556719 1.540816 3.975400
C 5.259865 1.253675 4.315672
C 5.267055 1.778273 4.809954
C 5.744859 1.282096 4.781489
C 5.695971 1.692622 4.226257
C 0.014242 1.897161 3.978534
C 0.024970 2.498840 4.471691
C 0.454522 2.000270 4.515806
C 0.473924 2.449252 3.998907
C 0.215180 2.214256 4.243391
C 0.258008 2.733784 4.719557
C 0.775498 2.259367 4.756076
C 0.771937 2.751804 4.257500
C 0.963921 2.000789 4.009979
C 0.967058 2.470928 4.509184
C 1.455996 2.000950 4.485564
C 1.504930 2.499460 3.976568
C 1.217980 2.280789 4.273309
C 1.187233 2.732624 4.743882
C 1.752152 2.264295 4.778002
C 1.759272 2.761976 4.181329
C 2.023742 2.025228 4.026307
C 1.953860 2.521787 4.529063
C 2.537925 2.007661 4.487713
C 2.446419 2.505014 4.039776
C 2.224885 2.246987 4.260101
C 2.261661 2.718732 4.742719
C 2.778268 2.258292 4.724147
C 2.697041 2.740040 4.271892
C 3.032693 1.996033 4.055317
C 2.950875 2.498916 4.497389
C 3.527337 1.960612 4.488778
C 3.531029 2.501688 3.965685
C 3.281677 2.272642 4.246004
C 3.278891 2.753614 4.761456
C 3.770818 2.271259 4.795869
C 3.709962 2.779719 4.290866
C 4.012064 1.944948 3.965615
C 4.000244 2.551241 4.534945
C 4.506834 1.967255 4.533123
C 4.493049 2.510264 3.976569
C 4.260113 2.217862 4.237860
C 4.235453 2.702816 4.756998
C 4.717435 2.286900 4.777526
C 4.797899 2.760476 4.234264
C 4.965813 1.957599 4.023072
C 4.996350 2.547024 4.509531
C 5.514069 2.035633 4.496337
C 5.510587 2.458212 3.980788
C 5.269439 2.239619 4.324226
C 5.254178 2.781964 4.778934
C 5.731952 2.240890 4.721929
C 5.727696 2.664327 4.291170
C 0.023104 2.964395 3.982485
C 0.038880 3.521687 4.476574
C 0.477236 3.043789 4.520565
C 0.453081 3.508429 4.039042
C 0.248962 3.244164 4.270211
C 0.211719 3.768297 4.716387
C 0.755903 3.240311 4.715683
C 0.758425 3.794595 4.217776
C 1.019706 2.971280 4.020022
C 0.973859 3.468778 4.475156
C 1.503937 3.027411 4.530573
C 1.481963 3.502119 3.998445
C 1.266372 3.285214 4.231785
C 1.227205 3.729397 4.806918
C 1.704746 3.282596 4.744092
C 1.762564 3.753617 4.247574
C 2.040669 2.980432 4.012879
C 2.025596 3.522837 4.523925
C 2.461504 3.031577 4.464492
C 2.500875 3.468392 3.975855
C 2.250067 3.252475 4.186484
C 2.259700 3.684952 4.762057
C 2.770333 3.264698 4.780106
C 2.753524 3.757186 4.276285
C 2.993110 3.033525 4.009753
C 2.968674 3.490861 4.480217
C 3.474253 2.999440 4.478521
C 3.559619 3.517963 4.006419
C 3.243175 3.242376 4.188970
C 3.295120 3.722532 4.791182
C 3.779545 3.240202 4.696474
C 3.781955 3.808296 4.263053
C 4.044522 3.010130 3.976199
C 4.024229 3.548599 4.480564
C 4.508070 3.054289 4.509150
C 4.470471 3.522441 4.049092
C 4.209220 3.230939 4.227229
C 4.183787 3.753717 4.746966
C 4.713995 3.287869 4.779001
C 4.746093 3.760050 4.208344
C 5.029384 3.031918 4.003074
C 5.001033 3.524176 4.442575
C 5.521886 2.970839 4.477823
C 5.518196 3.505086 3.981968
C 5.245031 3.200966 4.251387
C 5.210426 3.773148 4.690012
C 5.739309 3.255213 4.787383
C 5.733780 3.801211 4.247985
C 0.005492 3.946903 3.963746
C 0.010295 4.460247 4.441626
C 0.504346 3.991393 4.551103
C 0.520755 4.493324 3.947090
C 0.269069 4.242353 4.217645
C 0.295078 4.706558 4.757762
C 0.766444 4.266356 4.749093
C 0.764738 4.735371 4.221994
C 1.063853 3.990668 4.054205
C 1.034424 4.473495 4.468766
C 1.483784 4.035256 4.523936
C 1.520532 4.450262 4.035576
C 1.270033 4.240447 4.223310
C 1.294766 4.726772 4.777338
C 1.685789 4.268893 4.779482
C 1.787813 4.765711 4.277573
C 1.969739 3.948720 3.998730
C 2.038534 4.499383 4.480919
C 2.551320 4.031689 4.495717
C 2.512969 4.491827 4.040617
C 2.211323 4.251005 4.270158
C 2.296881 4.735878 4.798882
C 2.739306 4.264848 4.783097
C 2.785019 4.719899 4.250575
C 3.016638 4.040706 3.973751
C 3.020315 4.523784 4.546845
C 3.539781 4.047033 4.506408
C 3.542980 4.503783 4.010523
C 3.307386 4.265628 4.255306
C 3.294497 4.736056 4.710164
C 3.773045 4.281420 4.788651
C 3.782564 4.739745 4.261349
C 3.994204 4.045915 3.962185
C 3.946982 4.463991 4.503471
C 4.552594 3.988830 4.500833
C 4.489820 4.544253 3.978202
C 4.264229 4.224290 4.201615
C 4.291110 4.797955 4.725293
C 4.728651 4.278414 4.700021
C 4.756653 4.751410 4.270456
C 5.032504 3.981779 3.974298
C 5.024940 4.468330 4.466805
C 5.462917 4.037370 4.524211
C 5.451675 4.462079 3.998421
C 5.237045 4.234587 4.227649
C 5.260603 4.716853 4.730464
C 5.719445 4.277404 4.674631
C 5.697385 4.804986 4.240842
C 0.038600 5.047823 4.035507
C 0.036830 5.496885 4.452678
C 0.487530 4.994524 4.499508
C 0.508679 5.552634 3.956996
C 0.282788 5.235755 4.280480
C 0.291691 5.745477 4.756295
C 0.755643 5.263059 4.709453
C 0.792626 5.713243 4.212283
C 1.038951 5.009116 4.004139
C 1.046193 5.494745 4.463305
C 1.443363 4.934959 4.492199
C 1.490248 5.452311 3.953881
C 1.268835 5.245760 4.209543
C 1.224448 5.705718 4.731021
C 1.702506 5.274905 4.770104
C 1.788275 5.745858 4.228961
C 2.020831 5.025033 4.041431
C 1.936431 5.469478 4.521336
C 2.539468 4.972663 4.467970
C 2.528955 5.458359 4.001792
C 2.231277 5.282075 4.309449
C 2.249741 5.734885 4.820445
C 2.806405 5.233011 4.729190
C 2.710680 5.700419 4.236885
C 3.021153 5.027406 4.045646
C 2.970459 5.446026 4.435309
C 3.455894 4.986028 4.500434
C 3.551059 5.501452 4.038284
C 3.280361 5.286401 4.205993
C 3.267003 5.730450 4.807992
C 3.733876 5.247153 4.717488
C 3.808922 5.705026 4.233503
C 3.986109 5.013859 4.025849
C 3.995720 5.492847 4.537392
C 4.497352 5.009583 4.488376
C 4.492065 5.538066 4.038746
C 4.239616 5.240888 4.263088
C 4.205748 5.741526 4.770768
C 4.755573 5.252894 4.741717
C 4.737233 5.727306 4.291015
C 4.996760 5.017098 3.998348
C 5.012672 5.477997 4.526143
C 5.452221 4.989048 4.489561
C 5.473013 5.471792 3.957982
C 5.223967 5.236838 4.292733
C 5.310507 5.726108 4.735128
C 5.728033 5.234979 4.776604
C 5.729913 5.737134 4.224723
C 0.023383 0.059095 4.950883
C 0.016746 0.476902 5.544435
C 0.428694 0.036939 5.504053
C 0.523065 0.439749 5.022256
C 0.241884 0.209451 5.249881
C 0.293760 0.715144 5.706502
C 0.714810 0.241633 5.745315
C 0.815475 0.750741 5.260452
C 1.057692 0.009447 4.962851
C 1.002831 0.510169 5.485213
C 1.510212 0.025733 5.491559
C 1.541226 0.559776 4.987402
C 1.227424 0.242688 5.220147
C 1.284029 0.797595 5.710595
C 1.795255 0.255100 5.722215
C 1.773829 0.743406 5.250922
C 2.058239 0.014099 5.024893
C 1.984485 0.459200 5.473500
C 2.419492 0.027026 5.526554
C 2.523016 0.483811 4.974469
C 2.240313 0.239790 5.283139
C 2.289358 0.724423 5.732726
C 2.707208 0.229852 5.728767
C 2.767326 0.707370 5.207212
C 2.990553 0.041075 4.979186
C 2.958109 0.487899 5.539850
C 3.455920 0.015572 5.514169
C 3.539943 0.500164 4.939580
C 3.307910 0.224224 5.199919
C 3.282320 0.697166 5.748371
C 3.778613 0.232851 5.708219
C 3.759636 0.749289 5.231441
C 4.023352 0.028137 5.022695
C 4.005342 0.448152 5.464081
C 4.454227 0.002927 5.514336
C 4.509228 0.571343 5.009138
C 4.279520 0.250408 5.263165
C 4.282861 0.712801 5.676495
C 4.804254 0.287332 5.741570
C 4.755490 0.771145 5.224365
C 5.039284 0.036591 5.058228
C 4.966781 0.535570 5.512401
C 5.494575 0.025288 5.545163
C 5.525378 0.488364 4.951817
C 5.302446 0.268368 5.185298
C 5.234096 0.756811 5.671559
C 5.720736 0.258209 5.721365
C 5.699416 0.699826 5.240979
C 0.055080 0.951606 4.974380
C 0.014850 1.530442 5.446475
C 0.460249 0.996541 5.532530
C 0.500561 1.476288 5.016667
C 0.229417 1.281510 5.246854
C 0.248369 1.747468 5.743749
C 0.810018 1.253401 5.745940
C 0.707340 1.714705 5.238214
C 1.015921 1.010944 4.997820
C 1.026241 1.472835 5.489350
C 1.510380 1.001840 5.491664
C 1.492109 1.542377 5.031788
C 1.234099 1.208352 5.272504
C 1.252792 1.666184 5.734399
C 1.743483 1.262683 5.695477
C 1.706559 1.764061 5.268910
C 1.988148 0.995905 5.041672
C 2.047645 1.498922 5.525841
C 2.496573 1.026196 5.564210
C 2.458984 1.509545 4.983296
C 2.168626 1.248526 5.252081
C 2.312979 1.726562 5.737840
C 2.790731 1.186215 5.713494
C 2.747814 1.735345 5.307632
C 2.953288 1.008857 5.049439
C 3.014943 1.528090 5.461027
C 3.522868 1.035124 5.529457
C 3.481500 1.509637 5.004289
C 3.216134 1.233812 5.313944
C 3.296637 1.802955 5.745647
C 3.771074 1.231693 5.726105
C 3.812621 1.752678 5.271940
C 4.016765 1.053423 5.003187
C 4.060457 1.473594 5.454391
C 4.438613 0.988893 5.485615
C 4.524371 1.459524 4.998496
C 4.292051 1.242715 5.261258
C 4.269072 1.778356 5.722528
C 4.681150 1.226054 5.715218
C 4.749786 1.725991 5.211589
C 5.009725 1.035913 4.980265
C 4.997050 1.462104 5.540740
C 5.521701 1.012418 5.495077
C 5.524002 1.452593 5.027842
C 5.288496 1.229113 5.254542
C 5.301108 1.715244 5.749731
C 5.726891 1.299959 5.736920
C 5.739836 1.734868 5.300972
C 0.034048 1.988522 5.040252
C 0.003988 2.511856 5.561006
C 0.519767 1.977098 5.488004
C 0.469628 2.503870 5.022765
C 0.248982 2.282087 5.279230
C 0.233059 2.710069 5.662282
C 0.704333 2.279207 5.699530
C 0.774242 2.718865 5.198098
C 1.036756 2.005209 5.002951
C 1.042631 2.486652 5.482302
C 1.546009 2.008283 5.488538
C 1.481707 2.516686 4.931616
C 1.315510 2.266244 5.283929
C 1.259805 2.824278 5.741905
C 1.790029 2.200889 5.747988
C 1.809041 2.763946 5.233410
C 2.006989 2.022965 4.950930
C 2.034164 2.544203 5.479959
C 2.476260 2.034705 5.518194
C 2.477115 2.523784 4.995990
C 2.220349 2.244512 5.221698
C 2.206480 2.738426 5.743814
C 2.770204 2.242261 5.697933
C 2.780168 2.720736 5.215331
C 3.065177 1.966565 5.009361
C 2.973883 2.498800 5.496977
C 3.505919 2.046888 5.488195
C 3.518971 2.504682 5.001361
C 3.201188 2.227381 5.262313
C 3.217534 2.778589 5.713247
C 3.793583 2.288571 5.707853
C 3.747356 2.809124 5.280452
C 4.014626 2.024129 5.005411
C 4.059260 2.525791 5.491516
C 4.550717 1.961453 5.481063
C 4.468085 2.474700 4.996020
C 4.300371 2.242405 5.299094
C 4.303941 2.723388 5.697773
C 4.771928 2.217103 5.697929
C 4.765741 2.691791 5.260851
C 5.019670 1.997472 4.960161
C 5.029618 2.517956 5.449573
C 5.565880 1.983279 5.498039
C 5.567124 2.498952 5.012534
C 5.244145 2.213652 5.215825
C 5.305659 2.720115 5.748624
C 5.681874 2.214880 5.724650
C 5.718846 2.749867 5.261680
C 0.017005 3.000908 5.052462
C 0.035114 3.434032 5.501340
C 0.491566 3.000643 5.544703
C 0.522209 3.467073 5.032378
C 0.272054 3.209702 5.258882
C 0.213507 3.691094 5.746226
C 0.703912 3.261784 5.734000
C 0.777968 3.786534 5.281418
C 0.961335 2.994497 4.958836
C 1.012621 3.503065 5.504088
C 1.514850 2.938145 5.475346
C 1.516943 3.446619 5.039306
C 1.219978 3.220023 5.295787
C 1.306203 3.784385 5.719854
C 1.740208 3.269224 5.729446
C 1.744459 3.771341 5.286436
C 1.990431 3.031789 5.062484
C 1.997976 3.567702 5.484429
C 2.469879 3.034861 5.547474
C 2.518412 3.453559 5.015148
C 2.242553 3.270462 5.198260
C 2.258438 3.715036 5.667233
C 2.773491 3.287643 5.726134
C 2.728586 3.754642 5.242007
C 2.994526 3.019516 5.042883
C 3.023311 3.548440 5.517964
C 3.478916 2.961398 5.512587
C 3.555075 3.508169 5.028006
C 3.269404 3.273788 5.264279
C 3.334077 3.771322 5.743874
C 3.787127 3.247561 5.738586
C 3.783409 3.761297 5.257912
C 3.980640 2.989244 5.016025
C 3.997177 3.559311 5.536806
C 4.467644 2.986467 5.562333
C 4.503351 3.514514 5.030085
C 4.265474 3.238751 5.296071
C 4.263615 3.769715 5.721474
C 4.750013 3.256229 5.692752
C 4.716755 3.824084 5.270697
C 5.023448 3.007287 5.002977
C 5.017541 3.559554 5.474732
C 5.504606 2.928652 5.511835
C 5.539261 3.530245 4.989931
C 5.216609 3.238781 5.224731
C 5.170267 3.728943 5.740884
C 5.742792 3.236778 5.700028
C 5.735837 3.760063 5.305009
C 0.021048 4.083879 4.963060
C 0.031018 4.480609 5.543113
C 0.502316 3.983411 5.484253
C 0.476164 4.553142 5.024164
C 0.287930 4.215228 5.259397
C 0.279240 4.758513 5.744437
C 0.764907 4.294386 5.744648
C 0.709196 4.731900 5.284373
C 0.992260 3.973372 4.949890
C 1.041934 4.552097 5.522670
C 1.460479 3.983489 5.461023
C 1.568981 4.500647 4.979663
C 1.227110 4.231571 5.256345
C 1.187005 4.801950 5.737339
C 1.805462 4.268254 5.707152
C 1.761669 4.792197 5.242476
C 1.961097 3.956983 5.016038
C 1.957236 4.514476 5.463505
C 2.534391 3.967403 5.549144
C 2.475639 4.473754 4.942939
C 2.211950 4.234964 5.283797
C 2.261325 4.761031 5.740586
C 2.779320 4.292778 5.695780
C 2.809898 4.782861 5.293374
C 2.990573 4.030092 4.954963
C 3.025324 4.524951 5.535924
C 3.445921 3.990644 5.481304
C 3.503544 4.541054 5.007705
C 3.287736 4.249461 5.278449
C 3.246668 4.769520 5.730563
C 3.700278 4.229283 5.742265
C 3.752830 4.806325 5.240137
C 3.967103 3.964432 5.012578
C 3.999415 4.488791 5.553924
C 4.539819 4.005192 5.529466
C 4.464409 4.473475 4.980272
C 4.271100 4.211024 5.271510
C 4.209097 4.729550 5.706310
C 4.755328 4.248937 5.693659
C 4.771713 4.683606 5.205957
C 4.968512 3.968866 5.025030
C 4.973560 4.529296 5.477558
C 5.555209 4.027256 5.499656
C 5.485746 4.499200 5.028544
C 5.234756 4.295029 5.213341
C 5.257595 4.806148 5.727036
C 5.737301 4.347203 5.711956
C 5.741139 4.683338 5.236644
C 0.001608 4.923031 5.006241
C 0.058892 5.513646 5.492840
C 0.484178 5.006352 5.560416
C 0.456442 5.473059 4.980807
C 0.248954 5.215881 5.220126
C 0.273366 5.691896 5.733508
C 0.737470 5.180357 5.727202
C 0.729886 5.702136 5.290364
C 0.937562 4.985875 5.000140
C 0.992821 5.525210 5.464210
C 1.459564 4.990183 5.524076
C 1.527643 5.540960 4.990385
C 1.217068 5.251678 5.216300
C 1.246879 5.744361 5.749034
C 1.687202 5.257925 5.742127
C 1.806187 5.742400 5.257893
C 2.013098 5.000453 4.991466
C 2.010842 5.517956 5.559930
C 2.486938 5.023797 5.490592
C 2.506139 5.489607 4.972503
C 2.274776 5.199664 5.218969
C 2.316198 5.734055 5.741729
C 2.687553 5.253275 5.749076
C 2.724161 5.734483 5.241373
C 3.031716 4.993225 4.999869
C 3.010607 5.520379 5.547640
C 3.534328 5.028996 5.454608
C 3.506665 5.521350 5.052720
C 3.257430 5.262067 5.222230
C 3.302079 5.668281 5.733164
C 3.729215 5.251756 5.742051
C 3.751041 5.733178 5.290802
C 3.976184 5.036292 4.988429
C 3.954740 5.471928 5.458877
C 4.524932 4.923533 5.482741
C 4.520694 5.538926 5.022942
C 4.223244 5.262768 5.282400
C 4.236849 5.670622 5.735254
C 4.717160 5.238703 5.672417
C 4.739656 5.718488 5.273762
C 4.972058 4.986658 4.939927
C 5.009705 5.535337 5.515943
C 5.571291 4.997607 5.466752
C 5.488080 5.522344 4.997601
C 5.180127 5.219935 5.230940
C 5.263216 5.748271 5.669755
C 5.699439 5.246831 5.731379
C 5.729875 5.732298 5.274586
1728
Frame 5/10
C 0.068871 0.002159 0.041247
C 0.055535 0.472673 0.492297
C 0.563656 0.071452 0.494847
C 0.505784 0.481975 0.066248
C 0.296977 0.239170 0.258326
C 0.236896 0.749465 0.708778
C 0.717908 0.212049 0.779524
C 0.770717 0.822070 0.253006
C 0.992773 0.041306 0.046979
C 0.986251 0.548076 0.478956
C 1.525298 0.047725 0.520879
C 1.564375 0.461955 0.008099
C 1.180757 0.268553 0.243386
C 1.246389 0.734469 0.748542
C 1.779343 0.289556 0.666111
C 1.721359 0.728238 0.181038
C 2.045140 0.016827 0.005103
C 1.939541 0.547023 0.498000
C 2.579423 0.017443 0.542288
C 2.574808 0.472489 0.015806
C 2.283977 0.169629 0.253404
C 2.234134 0.725107 0.833836
C 2.805481 0.212463 0.745301
C 2.800641 0.722988 0.294866
C 2.952729 0.040196 0.029934
C 3.025831 0.523559 0.514155
C 3.549999 0.050718 0.467399
C 3.577740 0.531421 0.013633
C 3.303456 0.254653 0.265066
C 3.222368 0.762621 0.676189
C 3.687211 0.229347 0.723477
C 3.784046 0.757695 0.227912
C 4.066701 0.003789 0.060959
C 4.034410 0.554752 0.513993
C 4.494322 0.055748 0.437268
C 4.491729 0.491307 0.018979
C 4.198942 0.238133 0.311798
C 4.216414 0.765029 0.754773
C 4.755021 0.251427 0.825082
C 4.735756 0.746893 0.212923
C 4.911977 0.062063 0.028435
C 4.978967 0.484473 0.412959
C 5.436392 0.053975 0.559362
C 5.566405 0.502104 0.010423
C 5.251729 0.244778 0.170957
C 5.221739 0.715818 0.778124
C 5.723587 0.261576 0.751130
C 5.668791 0.722536 0.232874
C 0.008636 0.975273 0.056579
C 0.003277 1.477632 0.540152
C 0.484405 0.946484 0.452928
C 0.490979 1.487983 0.023818
C 0.250688 1.195660 0.251922
C 0.187969 1.756652 0.806634
C 0.774442 1.312389 0.751969
C 0.753663 1.689261 0.201796
C 1.012003 0.920188 0.044703
C 1.020605 1.553990 0.501538
C 1.469124 0.980103 0.497548
C 1.476405 1.447391 0.019529
C 1.260911 1.199680 0.232737
C 1.237269 1.748157 0.780150
C 1.771601 1.197262 0.718938
C 1.745037 1.727796 0.165057
C 1.991204 1.014801 0.000663
C 1.995417 1.533153 0.467283
C 2.510270 1.013817 0.572050
C 2.415170 1.521581 0.005648
C 2.253080 1.207698 0.196354
C 2.185407 1.712773 0.746078
C 2.717253 1.245846 0.675731
C 2.807940 1.711013 0.207493
C 2.944790 1.035310 0.079525
C 2.991741 1.456335 0.556381
C 3.499385 1.002191 0.454357
C 3.524817 1.599500 0.021391
C 3.195640 1.213368 0.219262
C 3.263383 1.699922 0.818745
C 3.736089 1.239844 0.710775
C 3.783371 1.723334 0.204435
C 4.034408 0.949743 0.002774
C 4.077348 1.508072 0.522265
C 4.540397 0.973079 0.450806
C 4.580663 1.435166 0.014894
C 4.297339 1.245976 0.284970
C 4.233711 1.766374 0.800504
C 4.710515 1.263099 0.826425
C 4.725214 1.836043 0.270307
C 4.915489 1.005541 0.015855
C 5.066746 1.483295 0.516606
C 5.440521 1.011634 0.525974
C 5.554843 1.517652 0.000169
C 5.238808 1.302476 0.252035
C 5.231962 1.739925 0.679496
C 5.725127 1.200523 0.760664
C 5.678728 1.745329 0.225110
C 0.098993 2.009354 0.061966
C 0.029689 2.473603 0.578666
C 0.509821 1.994607 0.459640
C 0.475185 2.514486 0.060339
C 0.218356 2.285391 0.207537
C 0.242173 2.698382 0.777336
C 0.788017 2.276789 0.798718
C 0.813399 2.756166 0.217694
C 0.992701 2.071424 0.004336
C 0.963550 2.554700 0.455385
C 1.521032 2.053701 0.509888
C 1.492466 2.564067 0.071902
C 1.260351 2.224324 0.235937
C 1.240867 2.797621 0.705303
C 1.782958 2.196671 0.738212
C 1.768510 2.772484 0.321701
C 2.067060 1.982116 0.044841
C 2.072174 2.536109 0.488109
C 2.514019 1.988404 0.542109
C 2.550701 2.581979 0.016595
C 2.210154 2.236627 0.202817
C 2.313938 2.830150 0.732261
C 2.784394 2.195563 0.739884
C 2.766147 2.645795 0.229083
C 2.960425 2.055058 0.025054
C 3.039958 2.438382 0.523630
C 3.562004 2.047246 0.519303
C 3.505189 2.462229 0.023426
C 3.246322 2.309813 0.200159
C 3.232986 2.798628 0.714851
C 3.765748 2.174226 0.805174
C 3.684196 2.702885 0.233955
C 3.932128 1.983213 0.007129
C 4.042854 2.425733 0.445776
C 4.444027 1.986293 0.478254
C 4.568386 2.587104 0.016370
C 4.187401 2.255548 0.189564
C 4.200584 2.772623 0.793836
C 4.691345 2.205395 0.756963
C 4.809921 2.720646 0.271492
C 5.014600 1.949380 0.030538
C 5.041154 2.521766 0.555769
C 5.420232 1.984728 0.503987
C 5.504858 2.389854 0.023466
C 5.297903 2.193007 0.248071
C 5.290612 2.758805 0.787163
C 5.710812 2.286022 0.795865
C 5.700839 2.742061 0.208787
C 0.047585 2.947572 0.011197
C 0.012159 3.501133 0.419729
C 0.491083 2.944881 0.466056
C 0.494481 3.555360 0.002900
C 0.228892 3.271584 0.213790
C 0.306906 3.746675 0.700669
C 0.695156 3.218387 0.773212
C 0.807412 3.769549 0.256891
C 0.903091 2.978049 0.013092
C 0.956171 3.452424 0.469216
C 1.522441 3.004289 0.524417
C 1.566121 3.491369 0.069052
C 1.161133 3.276343 0.227636
C 1.291551 3.719982 0.721306
C 1.727002 3.251827 0.792029
C 1.801977 3.792057 0.202775
C 1.968851 3.047140 0.018465
C 2.031847 3.433560 0.553183
C 2.534114 2.993951 0.462072
C 2.501199 3.503993 0.025210
C 2.197413 3.277209 0.268513
C 2.190255 3.737598 0.740733
C 2.798600 3.185727 0.768640
C 2.834335 3.756518 0.227472
C 2.961236 2.999518 0.008590
C 3.030831 3.439987 0.430506
C 3.571984 2.998544 0.448989
C 3.455587 3.513734 0.070516
C 3.274457 3.246527 0.263903
C 3.236807 3.820455 0.738949
C 3.804057 3.268995 0.751995
C 3.738130 3.777118 0.193728
C 3.923733 2.974653 0.032052
C 3.985928 3.468480 0.497858
C 4.479590 2.967485 0.423237
C 4.497937 3.501864 0.061773
C 4.173604 3.298855 0.200556
C 4.256521 3.689432 0.710129
C 4.805035 3.269193 0.699987
C 4.758473 3.794524 0.178146
C 5.005178 3.039115 0.003029
C 4.923923 3.509157 0.494997
C 5.519964 3.053470 0.515153
C 5.503016 3.454298 0.076925
C 5.191946 3.277971 0.238158
C 5.248219 3.661423 0.739893
C 5.736511 3.219425 0.792340
C 5.747364 3.721543 0.295115
C 0.006297 4.034647 0.060446
C 0.000605 4.453134 0.440426
C 0.544991 4.031736 0.565226
C 0.527154 4.538636 0.046066
C 0.237035 4.242296 0.232571
C 0.206063 4.791199 0.747055
C 0.746614 4.266235 0.797023
C 0.761632 4.685815 0.271760
C 0.997915 4.101850 0.059256
C 0.985757 4.490864 0.535604
C 1.563646 4.048681 0.463608
C 1.396314 4.468264 0.010046
C 1.234779 4.166257 0.273587
C 1.214864 4.834754 0.703674
C 1.694758 4.271482 0.748267
C 1.707777 4.776160 0.322290
C 2.079544 4.062844 0.020132
C 2.000533 4.550265 0.438266
C 2.524284 3.964756 0.562276
C 2.440041 4.563764 0.060060
C 2.266408 4.304491 0.191348
C 2.297223 4.734651 0.754975
C 2.699903 4.269702 0.713600
C 2.750529 4.755222 0.299360
C 3.033325 4.009588 0.018746
C 3.004335 4.448391 0.507238
C 3.496350 3.991134 0.572287
C 3.502202 4.591058 0.012279
C 3.320292 4.227986 0.239365
C 3.254687 4.784390 0.763916
C 3.812331 4.228739 0.773693
C 3.737397 4.739619 0.234468
C 4.003457 3.979738 0.005217
C 4.038876 4.506176 0.515039
C 4.464446 3.927812 0.441273
C 4.537042 4.560164 0.067593
C 4.300940 4.211432 0.291092
C 4.321318 4.697201 0.691768
C 4.772714 4.214105 0.765705
C 4.704357 4.766816 0.302191
C 5.040339 3.936236 0.031733
C 4.991902 4.450954 0.510000
C 5.519285 3.968237 0.564072
C 5.478784 4.478359 0.008456
C 5.229329 4.264329 0.292931
C 5.299076 4.814877 0.713030
C 5.686724 4.266656 0.715128
C 5.732285 4.782840 0.283506
C 0.000435 5.064064 0.089845
C 0.007885 5.445754 0.423709
C 0.503251 4.958403 0.510594
C 0.490852 5.567614 0.007103
C 0.278564 5.226709 0.239794
C 0.235296 5.712490 0.797741
C 0.684186 5.271790 0.722236
C 0.744501 5.730712 0.307263
C 1.056386 4.940614 0.027534
C 1.014327 5.564175 0.514646
C 1.443261 4.979263 0.448072
C 1.564786 5.433110 0.023641
C 1.307444 5.278102 0.248323
C 1.234638 5.650235 0.735548
C 1.775105 5.282979 0.835681
C 1.769623 5.741297 0.268157
C 1.924035 5.020895 0.004053
C 1.971610 5.508051 0.593783
C 2.531427 5.043241 0.556405
C 2.572731 5.466157 0.047759
C 2.240976 5.311156 0.255133
C 2.229139 5.729726 0.752367
C 2.818453 5.277282 0.719225
C 2.686502 5.723756 0.212669
C 3.036418 4.936979 0.000734
C 3.003223 5.528209 0.533649
C 3.503401 4.959566 0.464207
C 3.445944 5.542062 0.058921
C 3.174714 5.222176 0.252598
C 3.344242 5.691704 0.685755
C 3.722158 5.259776 0.778872
C 3.738526 5.695420 0.314750
C 3.914104 5.027483 0.002486
C 3.956055 5.428819 0.533603
C 4.560994 5.008598 0.531673
C 4.467669 5.432755 0.030947
C 4.340478 5.223573 0.266091
C 4.232884 5.697377 0.721209
C 4.724229 5.279865 0.692358
C 4.852427 5.697834 0.273535
C 4.966993 4.984077 0.062801
C 5.039320 5.473710 0.521248
C 5.486566 4.988319 0.433473
C 5.516874 5.437165 0.021209
C 5.218837 5.213676 0.277606
C 5.327361 5.699739 0.744018
C 5.744577 5.220220 0.672798
C 5.741032 5.695730 0.179893
C 0.021947 0.027011 0.995688
C 0.030634 0.463921 1.430322
C 0.473225 0.051927 1.428456
C 0.521465 0.442788 0.960718
C 0.281989 0.167087 1.184849
C 0.184733 0.708127 1.754344
C 0.691286 0.274658 1.803400
C 0.677752 0.774259 1.246108
C 0.936265 0.000855 0.993110
C 1.082615 0.500153 1.510338
C 1.492081 0.037471 1.507676
C 1.461824 0.504511 1.045620
C 1.326939 0.268582 1.265157
C 1.292287 0.721195 1.708634
C 1.702666 0.206265 1.744500
C 1.820387 0.690017 1.242728
C 2.048868 0.011122 0.984796
C 2.049028 0.509888 1.528266
C 2.614014 0.037091 1.488645
C 2.499558 0.425243 0.988512
C 2.253959 0.335173 1.218550
C 2.280417 0.711336 1.831470
C 2.782519 0.292621 1.726910
C 2.693819 0.776514 1.264451
C 2.974648 0.019827 1.109658
C 3.013360 0.437132 1.468411
C 3.442572 0.052700 1.504430
C 3.492042 0.496986 1.010457
C 3.295620 0.292466 1.229248
C 3.214178 0.805680 1.753102
C 3.804995 0.271361 1.795237
C 3.734571 0.784127 1.228743
C 4.096552 0.038830 1.016657
C 4.007679 0.526628 1.520458
C 4.500766 0.023910 1.519907
C 4.448300 0.488023 1.049137
C 4.256168 0.292267 1.296139
C 4.205755 0.675716 1.780194
C 4.798628 0.284262 1.789236
C 4.807980 0.766812 1.284098
C 5.081849 0.010075 0.996692
C 4.974020 0.481250 1.528707
C 5.389169 0.020210 1.537157
C 5.473755 0.567719 1.017700
C 5.212834 0.246696 1.199955
C 5.233590 0.701928 1.722110
C 5.738078 0.237947 1.651686
C 5.736231 0.782168 1.186730
C 0.016917 1.030130 1.020709
C 0.058515 1.529951 1.441341
C 0.478879 0.958714 1.542279
C 0.490598 1.599219 1.026496
C 0.266319 1.193400 1.206094
C 0.318096 1.778650 1.751231
C 0.739598 1.283029 1.781822
C 0.803722 1.802298 1.216478
C 0.976348 0.943772 1.022838
C 0.992405 1.489230 1.562795
C 1.572214 1.045211 1.521065
C 1.444353 1.473723 0.983375
C 1.272265 1.307809 1.236805
C 1.256718 1.682558 1.775043
C 1.695517 1.195457 1.776906
C 1.765793 1.701791 1.285127
C 2.019480 0.951730 0.967359
C 2.007673 1.531945 1.562818
C 2.485018 1.000164 1.441167
C 2.488636 1.554805 1.022020
C 2.322569 1.216333 1.204498
C 2.259895 1.750951 1.685420
C 2.776096 1.274240 1.717405
C 2.825466 1.791683 1.234831
C 3.064789 1.028441 1.010108
C 2.920131 1.554487 1.476215
C 3.572173 1.041322 1.517747
C 3.403256 1.452375 1.000771
C 3.189037 1.197652 1.286868
C 3.253773 1.808634 1.831774
C 3.695474 1.337535 1.710125
C 3.748236 1.741466 1.329417
C 3.976100 0.952603 0.955783
C 3.980738 1.443915 1.543287
C 4.452389 0.961707 1.531464
C 4.474674 1.490251 0.999111
C 4.238666 1.328601 1.203378
C 4.194867 1.790339 1.779157
C 4.726396 1.333784 1.764468
C 4.731729 1.774435 1.235265
C 4.984862 1.049522 0.967833
C 5.010777 1.496696 1.537168
C 5.506793 1.056815 1.453944
C 5.421740 1.499010 0.972911
C 5.285341 1.276601 1.311156
C 5.185666 1.736941 1.761601
C 5.743477 1.356011 1.803431
C 5.710085 1.716383 1.294189
C 0.008860 1.952455 1.063741
C 0.060836 2.517402 1.456672
C 0.485467 2.079638 1.537823
C 0.477497 2.583729 0.975856
C 0.295127 2.213490 1.209846
C 0.223982 2.788110 1.712818
C 0.744131 2.218407 1.815773
C 0.722459 2.695943 1.194354
C 0.973665 1.956611 0.960823
C 1.012137 2.567073 1.454955
C 1.555451 2.023638 1.508622
C 1.486279 2.501697 1.017697
C 1.278739 2.185132 1.254340
C 1.197919 2.784770 1.736760
C 1.738622 2.303092 1.750967
C 1.754695 2.727356 1.209704
C 1.985588 1.974892 0.986893
C 2.019092 2.504701 1.553719
C 2.532726 2.065976 1.536155
C 2.498618 2.594110 0.992945
C 2.205109 2.234433 1.238793
C 2.324556 2.724227 1.787171
C 2.782153 2.316479 1.745247
C 2.714956 2.710655 1.291870
C 2.957151 2.044780 1.028944
C 3.018402 2.575855 1.554825
C 3.562427 2.005383 1.513533
C 3.497843 2.528683 1.014829
C 3.255731 2.203882 1.208580
C 3.300684 2.742338 1.802863
C 3.724152 2.216942 1.753101
C 3.696069 2.731871 1.242549
C 4.025780 1.985304 1.003824
C 3.956327 2.493166 1.454558
C 4.482732 1.984076 1.395286
C 4.521036 2.448819 1.019335
C 4.211075 2.309895 1.261309
C 4.223891 2.701781 1.698923
C 4.738209 2.288026 1.687266
C 4.733621 2.766342 1.281811
C 4.978930 1.961139 1.070907
C 5.056421 2.488881 1.524604
C 5.487431 1.968714 1.454728
C 5.431914 2.470423 0.992015
C 5.243694 2.173738 1.270128
C 5.255699 2.806572 1.813275
C 5.728897 2.260239 1.706760
C 5.738404 2.711101 1.190501
C 0.002390 2.969506 0.939131
C 0.068210 3.453828 1.535077
C 0.523554 3.062098 1.508733
C 0.452998 3.532359 1.053760
C 0.329980 3.279446 1.302408
C 0.263117 3.732721 1.653111
C 0.822939 3.234333 1.817313
C 0.774804 3.668948 1.287619
C 0.969401 2.968493 1.034097
C 0.992781 3.497626 1.524037
C 1.488032 2.943027 1.545797
C 1.467309 3.482829 0.955970
C 1.236140 3.232604 1.219753
C 1.307827 3.762278 1.777670
C 1.693100 3.316648 1.766614
C 1.768465 3.678501 1.248160
C 1.956947 3.007407 1.027438
C 2.001432 3.451732 1.411225
C 2.521856 2.962122 1.473474
C 2.517325 3.469006 1.057856
C 2.195752 3.205063 1.320360
C 2.201481 3.720048 1.714296
C 2.747386 3.210232 1.738586
C 2.737429 3.701875 1.304952
C 2.990385 2.945303 0.982913
C 2.948380 3.477049 1.486258
C 3.481050 2.948787 1.520533
C 3.554655 3.441675 0.945319
C 3.204764 3.229381 1.267795
C 3.284534 3.726498 1.722795
C 3.824468 3.266755 1.704179
C 3.726260 3.687242 1.261416
C 3.937177 2.949334 0.968303
C 4.050153 3.527956 1.526775
C 4.508359 3.058842 1.427492
C 4.500300 3.453843 1.057921
C 4.222053 3.297497 1.266908
C 4.299774 3.720246 1.762241
C 4.779775 3.227325 1.832659
C 4.782945 3.674899 1.308506
C 5.042403 3.036967 0.933687
C 5.047966 3.484981 1.444343
C 5.516330 2.951024 1.474773
C 5.454156 3.457893 0.981423
C 5.343761 3.252540 1.248264
C 5.249621 3.726856 1.765668
C 5.724224 3.237814 1.808665
C 5.734412 3.803565 1.330389
C 0.011852 4.022613 0.978063
C 0.000828 4.583056 1.527476
C 0.472730 3.983440 1.536470
C 0.581802 4.547375 0.989121
C 0.196836 4.275655 1.179848
C 0.309180 4.801019 1.772104
C 0.702868 4.262987 1.751849
C 0.775573 4.810887 1.234300
C 1.013572 4.019330 1.006995
C 0.957354 4.465281 1.527225
C 1.429623 3.971884 1.524310
C 1.519111 4.506704 1.013710
C 1.275309 4.255559 1.294390
C 1.251610 4.832637 1.773656
C 1.719171 4.203817 1.691293
C 1.796948 4.743488 1.288837
C 1.953726 4.056847 1.003141
C 1.988686 4.448649 1.527032
C 2.462282 3.951247 1.533274
C 2.456356 4.514034 1.013664
C 2.175472 4.209452 1.228440
C 2.205993 4.792389 1.790372
C 2.823671 4.268281 1.728877
C 2.721280 4.684547 1.205646
C 3.042889 3.908440 1.002690
C 2.968202 4.508017 1.471639
C 3.516894 4.051621 1.444331
C 3.480761 4.500821 1.031689
C 3.279791 4.313714 1.261229
C 3.184234 4.794021 1.749473
C 3.753428 4.248612 1.726619
C 3.724230 4.695584 1.185071
C 3.984834 3.949865 0.988683
C 4.029265 4.500121 1.479690
C 4.563975 4.073617 1.517734
C 4.493485 4.596757 1.041077
C 4.288255 4.241682 1.173022
C 4.162892 4.728033 1.724193
C 4.731772 4.275312 1.842485
C 4.707439 4.779098 1.267082
C 4.924774 3.956489 1.050646
C 4.984755 4.444038 1.489386
C 5.474099 3.980248 1.448979
C 5.444906 4.543684 0.962589
C 5.259951 4.209811 1.220233
C 5.204503 4.794393 1.730043
C 5.749197 4.257325 1.784082
C 5.713123 4.747941 1.264430
C 0.031978 5.117749 1.016453
C 0.040234 5.442970 1.477428
C 0.477309 5.035681 1.520063
C 0.486716 5.466040 1.027109
C 0.287328 5.237800 1.229796
C 0.334251 5.743407 1.693332
C 0.701476 5.258481 1.708151
C 0.719352 5.722673 1.317421
C 0.955419 5.013349 0.985087
C 0.943861 5.518365 1.549495
C 1.490580 4.941129 1.545225
C 1.446741 5.553410 1.001442
C 1.303800 5.288195 1.267301
C 1.234301 5.665386 1.738900
C 1.762960 5.296895 1.731454
C 1.716256 5.649549 1.216173
C 2.008503 5.072059 0.949912
C 1.996037 5.525238 1.495028
C 2.458473 5.036234 1.518591
C 2.453693 5.555373 1.028742
C 2.244963 5.244716 1.265691
C 2.177390 5.743835 1.706951
C 2.682666 5.220177 1.773303
C 2.791220 5.730259 1.335246
C 2.991133 4.964057 0.994958
C 3.057277 5.526290 1.483597
C 3.412708 4.991854 1.521229
C 3.469771 5.435353 0.965358
C 3.278340 5.241700 1.303571
C 3.304007 5.738047 1.704003
C 3.699478 5.298904 1.812347
C 3.764562 5.737528 1.300926
C 3.998275 5.005903 0.964072
C 3.989438 5.414030 1.469486
C 4.518076 5.008143 1.462078
C 4.494183 5.431869 0.935170
C 4.232356 5.260582 1.268817
C 4.338656 5.745495 1.734883
C 4.677425 5.260893 1.718210
C 4.796373 5.738466 1.189493
C 5.039529 4.951309 0.950378
C 5.008939 5.493116 1.462818
C 5.585996 5.015703 1.551486
C 5.574131 5.450029 0.943119
C 5.280887 5.236755 1.308314
C 5.228612 5.663278 1.708231
C 5.721132 5.333341 1.777464
C 5.652924 5.709623 1.234025
C 0.078446 0.000947 2.072745
C 0.049180 0.561568 2.530210
C 0.446501 0.043442 2.566845
C 0.503904 0.588579 1.953934
C 0.266984 0.269282 2.175151
C 0.253554 0.795227 2.821250
C 0.702502 0.252177 2.720439
C 0.729119 0.671437 2.208335
C 0.999393 0.022403 1.907800
C 1.014099 0.480052 2.587230
C 1.446864 0.016928 2.579206
C 1.452496 0.463830 2.062633
C 1.224402 0.196072 2.270261
C 1.263548 0.764330 2.711839
C 1.787896 0.236325 2.803657
C 1.651282 0.731618 2.263696
C 1.953938 0.007759 2.008894
C 2.057260 0.585211 2.492001
C 2.505268 0.053185 2.474567
C 2.544508 0.462821 2.066896
C 2.262458 0.305372 2.286626
C 2.224752 0.740914 2.769991
C 2.750220 0.309505 2.767055
C 2.752282 0.729500 2.330881
C 2.934594 0.029071 1.974083
C 3.019768 0.464192 2.454281
C 3.523940 0.075815 2.492554
C 3.515142 0.537824 2.072977
C 3.232787 0.350876 2.225336
C 3.288020 0.723830 2.845688
C 3.847808 0.197241 2.764075
C 3.745931 0.778320 2.307656
C 3.985176 0.030206 2.056792
C 4.056054 0.509225 2.516986
C 4.470979 0.039528 2.550252
C 4.550896 0.483295 1.987062
C 4.232515 0.253615 2.179755
C 4.314848 0.742097 2.776845
C 4.740631 0.260307 2.710372
C 4.728037 0.802842 2.188826
C 4.983362 0.069198 2.011401
C 5.069998 0.517824 2.483047
C 5.509405 0.047843 2.420098
C 5.484085 0.531198 1.992206
C 5.215457 0.283051 2.234185
C 5.282717 0.806047 2.744459
C 5.723581 0.175189 2.646847
C 5.749676 0.765834 2.157086
C 0.014825 0.939807 1.987350
C 0.028599 1.457260 2.438939
C 0.540382 0.942310 2.477071
C 0.442071 1.529690 1.942728
C 0.359248 1.250715 2.271016
C 0.243071 1.764657 2.708827
C 0.747353 1.175832 2.759046
C 0.745936 1.705619 2.315284
C 1.044924 0.979223 1.940185
C 1.033803 1.525246 2.508642
C 1.506466 1.038276 2.515585
C 1.457132 1.496162 2.000705
C 1.275486 1.267861 2.265352
C 1.212310 1.735705 2.822115
C 1.755561 1.198154 2.795813
C 1.728329 1.725945 2.319260
C 1.967909 1.050621 2.013142
C 1.947419 1.488821 2.492200
C 2.496482 0.996716 2.485630
C 2.462672 1.479174 1.994660
C 2.241172 1.323824 2.218744
C 2.219646 1.727363 2.718941
C 2.742944 1.220866 2.770463
C 2.832952 1.775950 2.272945
C 2.952530 0.965311 1.951351
C 3.067881 1.501373 2.533012
C 3.563976 1.026910 2.501666
C 3.522044 1.511820 2.046362
C 3.246031 1.204970 2.200443
C 3.240271 1.752654 2.713342
C 3.770479 1.194401 2.779659
C 3.698695 1.747745 2.278159
C 3.965982 1.072283 1.936081
C 3.980701 1.512341 2.585287
C 4.463884 1.007204 2.499517
C 4.433620 1.522500 2.056449
C 4.277683 1.291037 2.299169
C 4.296144 1.670314 2.775256
C 4.802971 1.257371 2.813900
C 4.765912 1.719408 2.266171
C 4.968187 0.939957 1.967423
C 4.983481 1.516286 2.472994
C 5.511620 1.003750 2.550828
C 5.481641 1.488373 1.946251
C 5.294070 1.302432 2.261112
C 5.266278 1.704460 2.790147
C 5.684619 1.257569 2.723903
C 5.742807 1.799575 2.308596
C 0.044526 2.063829 2.042137
C 0.064254 2.465500 2.551980
C 0.561566 1.953550 2.524280
C 0.522416 2.539476 2.023690
C 0.255170 2.259857 2.254761
C 0.220461 2.737446 2.723617
C 0.766490 2.227273 2.733432
C 0.796434 2.660833 2.212017
C 0.936877 1.972724 1.962357
C 1.009717 2.489534 2.498002
C 1.461647 1.926823 2.502892
C 1.551463 2.499205 2.012701
C 1.190273 2.184815 2.281243
C 1.236566 2.700969 2.785396
C 1.742389 2.189902 2.809350
C 1.783589 2.783507 2.310731
C 1.987586 2.000223 2.002846
C 1.981639 2.436313 2.463210
C 2.589484 2.003878 2.464266
C 2.551716 2.464436 2.029591
C 2.272962 2.277865 2.286574
C 2.220792 2.756693 2.825318
C 2.688715 2.188812 2.706993
C 2.776657 2.759492 2.315293
C 2.955650 1.927929 1.980156
C 3.006075 2.546832 2.581118
C 3.531770 2.080699 2.502928
C 3.487724 2.526099 2.096479
C 3.318251 2.265698 2.191893
C 3.258020 2.708391 2.654439
C 3.779853 2.306829 2.788113
C 3.769983 2.714463 2.267019
C 3.939483 2.008665 2.006798
C 3.972411 2.516700 2.533227
C 4.478719 1.985187 2.485050
C 4.518475 2.501109 1.932297
C 4.217381 2.308628 2.248664
C 4.303505 2.771801 2.811607
C 4.684206 2.320733 2.760410
C 4.760318 2.686582 2.309298
C 5.005869 1.967190 1.985207
C 5.036206 2.579334 2.545396
C 5.475867 2.026789 2.536349
C 5.507517 2.578740 2.035755
C 5.291188 2.188895 2.240013
C 5.229144 2.806269 2.816478
C 5.704519 2.290321 2.733311
C 5.741218 2.753342 2.274214
C 0.028714 2.955663 2.031378
C 0.001347 3.504647 2.465758
C 0.492938 2.983054 2.516188
C 0.488600 3.579195 1.973457
C 0.183864 3.199557 2.257274
C 0.234416 3.708439 2.735912
C 0.712703 3.225279 2.819342
C 0.738616 3.739622 2.162832
C 0.990409 2.945548 2.026766
C 0.939309 3.571109 2.472437
C 1.504678 3.021771 2.490621
C 1.454800 3.532822 2.081654
C 1.175000 3.279656 2.248407
C 1.225016 3.768700 2.821095
C 1.743081 3.262802 2.738104
C 1.703032 3.781531 2.208513
C 1.931521 3.012005 2.060166
C 1.953433 3.566047 2.457453
C 2.487152 3.051472 2.530418
C 2.484305 3.563256 1.941864
C 2.325662 3.256862 2.274196
C 2.180257 3.776032 2.700977
C 2.819904 3.238759 2.787308
C 2.695693 3.754350 2.223559
C 2.974194 3.031920 2.067569
C 2.974852 3.490467 2.582188
C 3.479362 2.923424 2.481217
C 3.433137 3.466548 2.052357
C 3.357272 3.213592 2.265907
C 3.245777 3.709941 2.720229
C 3.747477 3.180621 2.713002
C 3.768703 3.743349 2.320449
C 4.061899 3.018361 1.956425
C 4.004708 3.503319 2.486125
C 4.539448 3.055222 2.480626
C 4.443915 3.449894 2.016704
C 4.205231 3.223939 2.236410
C 4.217776 3.753278 2.821040
C 4.774036 3.286391 2.650579
C 4.715721 3.682294 2.201323
C 4.940648 2.962502 2.058618
C 4.964528 3.547274 2.496426
C 5.486780 3.006799 2.441026
C 5.471730 3.533743 1.965071
C 5.181665 3.220535 2.213927
C 5.280336 3.696598 2.761499
C 5.693230 3.204018 2.791806
C 5.717309 3.826340 2.309134
C 0.021015 3.983357 1.928474
C 0.062318 4.448880 2.519762
C 0.569930 3.948507 2.473185
C 0.462219 4.443821 1.970166
C 0.295304 4.201415 2.233417
C 0.270212 4.770026 2.829324
C 0.704534 4.225467 2.646216
C 0.713248 4.741136 2.190293
C 0.983906 4.055947 1.999676
C 1.036088 4.470000 2.521783
C 1.544352 4.002140 2.562313
C 1.531680 4.436002 1.940294
C 1.237174 4.332860 2.233554
C 1.207717 4.725550 2.723988
C 1.710538 4.306212 2.740551
C 1.760784 4.806771 2.269614
C 2.032192 4.053879 2.061042
C 2.001223 4.477753 2.459355
C 2.518682 3.971045 2.479629
C 2.552588 4.519677 1.931568
C 2.270664 4.272076 2.283235
C 2.185698 4.752563 2.760648
C 2.834367 4.230765 2.772836
C 2.750245 4.699850 2.207224
C 3.018986 4.059258 1.981285
C 3.010002 4.473574 2.526044
C 3.516957 4.049096 2.512637
C 3.473253 4.449798 1.992134
C 3.224085 4.273680 2.217493
C 3.227786 4.697418 2.762054
C 3.799638 4.236083 2.762361
C 3.760319 4.750121 2.239893
C 3.992008 4.001904 1.960748
C 4.046484 4.527791 2.514858
C 4.566297 3.994714 2.432658
C 4.504146 4.567776 2.034144
C 4.261638 4.335655 2.247725
C 4.251566 4.730112 2.730873
C 4.724807 4.308012 2.781212
C 4.685593 4.710092 2.294249
C 4.966154 3.970254 2.010250
C 5.077921 4.511320 2.464184
C 5.461024 3.915847 2.498030
C 5.543453 4.582195 2.010110
C 5.305064 4.276036 2.214930
C 5.292617 4.747614 2.690150
C 5.688012 4.232825 2.781133
C 5.732909 4.753964 2.263759
C 0.032618 5.075135 2.062322
C 0.021615 5.442163 2.418432
C 0.479673 5.020107 2.498991
C 0.475445 5.528729 2.009088
C 0.327461 5.269411 2.275205
C 0.240510 5.737582 2.698296
C 0.720994 5.319245 2.718867
C 0.702516 5.739832 2.269599
C 0.992172 5.032669 2.034912
C 0.949873 5.505319 2.457693
C 1.474443 5.059796 2.410562
C 1.428482 5.501622 2.053960
C 1.215458 5.263242 2.158121
C 1.272228 5.683792 2.759756
C 1.716718 5.224684 2.798137
C 1.736160 5.649416 2.292636
C 2.022057 5.056075 1.946682
C 1.968468 5.502253 2.556625
C 2.475087 4.982690 2.475569
C 2.513436 5.573138 2.049788
C 2.324907 5.299913 2.204930
C 2.290316 5.672333 2.794235
C 2.702283 5.278322 2.735800
C 2.673725 5.745229 2.348236
C 2.959043 4.998881 1.955027
C 3.043448 5.468384 2.551461
C 3.552224 5.022876 2.475204
C 3.474158 5.465552 2.043478
C 3.234183 5.290451 2.277808
C 3.191863 5.720565 2.760527
C 3.699818 5.272220 2.800349
C 3.770738 5.739023 2.189409
C 3.911812 5.039384 2.007001
C 3.942873 5.464631 2.520104
C 4.493904 4.977334 2.436875
C 4.509086 5.529809 1.998810
C 4.206151 5.291811 2.271021
C 4.270583 5.669033 2.676336
C 4.717588 5.208549 2.689403
C 4.764669 5.730787 2.361694
C 4.978583 5.003200 2.012607
C 5.007638 5.505706 2.460729
C 5.446804 5.013281 2.485671
C 5.516192 5.490792 2.015172
C 5.292027 5.262240 2.301807
C 5.318466 5.717405 2.717641
C 5.736538 5.243814 2.817856
C 5.656974 5.707712 2.309506
C 0.008082 0.089822 2.987101
C 0.089646 0.411456 3.486270
C 0.472973 0.034200 3.487521
C 0.564041 0.480357 3.030961
C 0.295336 0.160096 3.227525
C 0.301659 0.770861 3.754590
C 0.703145 0.265270 3.669557
C 0.821656 0.734865 3.208451
C 1.052305 0.004100 2.956989
C 1.019395 0.474906 3.487524
C 1.458450 0.019712 3.511041
C 1.559073 0.451728 3.061560
C 1.211170 0.208601 3.287448
C 1.239785 0.725036 3.789621
C 1.807795 0.255693 3.743166
C 1.784964 0.777384 3.247708
C 1.973935 0.059317 3.065390
C 1.953953 0.520969 3.484489
C 2.494917 0.040785 3.580956
C 2.509583 0.477511 3.060601
C 2.321901 0.202485 3.245214
C 2.260061 0.719903 3.806007
C 2.708373 0.267802 3.707393
C 2.797591 0.738591 3.255248
C 3.001004 0.023031 2.980381
C 2.998275 0.489206 3.457140
C 3.477637 0.041017 3.479631
C 3.523834 0.463550 2.945702
C 3.237903 0.272995 3.311239
C 3.182790 0.711179 3.754596
C 3.690087 0.314256 3.743168
C 3.759855 0.727065 3.213667
C 4.066143 0.016315 2.982431
C 3.980686 0.454594 3.532388
C 4.468250 0.066915 3.517813
C 4.568541 0.484975 3.070033
C 4.236399 0.283588 3.176336
C 4.220139 0.781600 3.825581
C 4.831149 0.236466 3.726769
C 4.760461 0.737507 3.231875
C 5.042168 0.057473 2.949779
C 5.016681 0.457688 3.475572
C 5.586827 0.008918 3.566798
C 5.508364 0.427492 2.965666
C 5.207795 0.264838 3.245728
C 5.259778 0.732661 3.688127
C 5.727663 0.305127 3.852160
C 5.739386 0.651789 3.244639
C 0.031699 0.989221 3.026907
C 0.019661 1.506785 3.562021
C 0.567993 1.025473 3.556265
C 0.500912 1.573622 2.979072
C 0.262070 1.325211 3.311631
C 0.308858 1.714741 3.771147
C 0.769623 1.308123 3.736706
C 0.739026 1.829102 3.172647
C 1.050965 1.061726 3.034656
C 0.998031 1.514146 3.566895
C 1.475078 1.035006 3.490546
C 1.549743 1.513046 2.981124
C 1.343679 1.287369 3.289878
C 1.268525 1.696652 3.798642
C 1.698503 1.288073 3.743959
C 1.829339 1.716278 3.217386
C 1.989363 1.050432 3.075525
C 1.983553 1.397126 3.474189
C 2.437243 1.045015 3.527088
C 2.502336 1.541741 3.038205
C 2.294411 1.269088 3.232018
C 2.304474 1.766390 3.758978
C 2.666186 1.280786 3.711097
C 2.769201 1.823865 3.205858
C 3.045005 0.979535 2.932817
C 3.066162 1.540667 3.493258
C 3.531751 1.060670 3.471787
C 3.523257 1.524536 3.043908
C 3.253391 1.294318 3.298511
C 3.191686 1.838288 3.794439
C 3.725947 1.185343 3.793865
C 3.747113 1.755769 3.275175
C 3.995821 1.041004 3.008602
C 3.973015 1.477183 3.548562
C 4.529446 0.954951 3.574628
C 4.494888 1.490663 3.015253
C 4.235574 1.250785 3.320637
C 4.246107 1.762700 3.738349
C 4.724475 1.272878 3.810233
C 4.753207 1.789817 3.314030
C 5.044669 0.992031 3.004451
C 4.992869 1.546215 3.457438
C 5.457833 1.038719 3.536125
C 5.518815 1.496265 2.988558
C 5.169208 1.237964 3.241295
C 5.291776 1.747027 3.815601
C 5.700228 1.199445 3.758517
C 5.683881 1.656254 3.293076
C 0.016077 1.981083 2.933604
C 0.016912 2.462429 3.518297
C 0.460613 2.058206 3.489095
C 0.479998 2.572423 3.032447
C 0.317708 2.278553 3.259192
C 0.217279 2.726291 3.743197
C 0.789112 2.315541 3.733520
C 0.738631 2.686256 3.192780
C 0.964781 2.034623 2.978551
C 1.002135 2.582028 3.509041
C 1.450990 1.994834 3.531552
C 1.475456 2.470714 3.014572
C 1.292304 2.249799 3.300213
C 1.242272 2.797656 3.693799
C 1.747170 2.311284 3.750883
C 1.682643 2.782570 3.206945
C 2.009610 1.970513 3.015179
C 2.006525 2.554846 3.538917
C 2.493529 1.995793 3.499523
C 2.534800 2.494728 3.057976
C 2.279301 2.208807 3.270753
C 2.226005 2.742301 3.764972
C 2.742086 2.280873 3.778946
C 2.764628 2.707050 3.229029
C 3.036084 2.059697 3.003761
C 2.970344 2.472970 3.450057
C 3.452053 2.012467 3.543585
C 3.520640 2.487042 2.963379
C 3.337315 2.221847 3.289124
C 3.222744 2.689069 3.717036
C 3.765812 2.277601 3.804564
C 3.784343 2.803453 3.277906
C 3.980657 2.102733 3.000595
C 4.027261 2.470495 3.428668
C 4.529113 1.953940 3.577284
C 4.443179 2.524446 3.011415
C 4.280729 2.297729 3.285446
C 4.278546 2.799039 3.725256
C 4.733768 2.183458 3.678963
C 4.773259 2.750937 3.336418
C 4.976589 1.999221 3.015006
C 5.031377 2.481250 3.480885
C 5.528176 2.066484 3.464602
C 5.503991 2.516346 3.056015
C 5.249979 2.268017 3.294363
C 5.313545 2.782826 3.766908
C 5.747417 2.271082 3.694624
C 5.748141 2.674082 3.250149
C 0.008351 2.957452 2.947227
C 0.034140 3.485764 3.465703
C 0.453074 3.032184 3.576346
C 0.471000 3.449932 3.030272
C 0.243009 3.294167 3.244183
C 0.191018 3.737676 3.682870
C 0.753712 3.254851 3.804213
C 0.720112 3.706442 3.236866
C 1.002857 2.973606 3.083710
C 0.944861 3.517194 3.521773
C 1.463359 3.011377 3.510631
C 1.408766 3.482199 2.970366
C 1.285505 3.218025 3.270683
C 1.279499 3.804879 3.740411
C 1.730174 3.321455 3.762268
C 1.798745 3.744612 3.289944
C 2.012703 3.029172 3.024198
C 1.944749 3.489531 3.426432
C 2.536446 3.045541 3.534971
C 2.504529 3.522969 2.952720
C 2.299227 3.313000 3.184210
C 2.220024 3.819337 3.796821
C 2.753520 3.255846 3.803693
C 2.790447 3.695333 3.207109
C 3.088255 2.976550 2.992772
C 2.991135 3.569777 3.472611
C 3.550113 2.985204 3.550038
C 3.527336 3.456490 3.040964
C 3.221820 3.195252 3.253819
C 3.280164 3.742984 3.777158
C 3.743751 3.237853 3.704573
C 3.682745 3.707804 3.277069
C 3.970454 3.039341 3.062506
C 3.994550 3.443530 3.488800
C 4.470398 3.032227 3.448866
C 4.443507 3.513011 2.924495
C 4.189817 3.302512 3.239233
C 4.329995 3.727718 3.786085
C 4.705363 3.183114 3.769548
C 4.713914 3.751053 3.259394
C 4.936163 2.921515 3.004255
C 4.958900 3.499641 3.435821
C 5.516785 3.049750 3.473359
C 5.468000 3.440200 2.980942
C 5.257959 3.206045 3.190465
C 5.332250 3.716708 3.722980
C 5.670168 3.229166 3.786377
C 5.690936 3.721482 3.165818
C 0.047350 4.019679 3.010024
C 0.003361 4.495335 3.447244
C 0.484797 4.012516 3.515492
C 0.469982 4.467618 2.969830
C 0.229229 4.307760 3.191511
C 0.236073 4.782722 3.686644
C 0.750204 4.263333 3.715463
C 0.713763 4.786515 3.178661
C 0.981506 3.944504 2.998976
C 1.028097 4.513953 3.557124
C 1.528842 4.051862 3.471049
C 1.517712 4.532602 2.934311
C 1.261783 4.269181 3.242662
C 1.319294 4.693667 3.736655
C 1.735572 4.267327 3.755958
C 1.772655 4.741067 3.233855
C 2.008118 3.925281 3.048854
C 1.994461 4.517391 3.450043
C 2.511239 4.058355 3.508834
C 2.494132 4.444478 2.963660
C 2.160121 4.281679 3.248563
C 2.231762 4.825158 3.777509
C 2.759744 4.266787 3.700089
C 2.719122 4.805664 3.205458
C 3.023407 4.051640 3.023809
C 3.039573 4.454337 3.489438
C 3.503367 3.929089 3.534729
C 3.507933 4.497937 2.962021
C 3.293589 4.243091 3.304453
C 3.313185 4.708215 3.780206
C 3.764970 4.332597 3.786656
C 3.696417 4.708998 3.198196
C 4.008405 4.058840 3.009089
C 4.004288 4.439954 3.422950
C 4.501136 4.009358 3.462978
C 4.451753 4.581764 3.013336
C 4.234883 4.157545 3.242164
C 4.239313 4.705223 3.696026
C 4.829450 4.245544 3.799122
C 4.704573 4.725266 3.222222
C 4.997529 3.950148 3.067330
C 5.048978 4.509091 3.509676
C 5.453304 3.965755 3.509898
C 5.546567 4.443721 3.020652
C 5.233016 4.295756 3.266766
C 5.302199 4.758507 3.804749
C 5.731097 4.272665 3.694873
C 5.671710 4.716834 3.202027
C 0.041189 5.059463 3.023786
C 0.004942 5.531291 3.596953
C 0.484013 4.991597 3.583872
C 0.518318 5.454505 2.995067
C 0.175939 5.292259 3.235519
C 0.279535 5.741329 3.694065
C 0.714073 5.241039 3.835365
C 0.721831 5.701022 3.319227
C 0.972484 4.934026 2.972540
C 1.034701 5.510377 3.524744
C 1.514025 5.042276 3.528690
C 1.540507 5.508837 2.977445
C 1.274694 5.243365 3.296335
C 1.229717 5.682848 3.769036
C 1.760014 5.197560 3.772675
C 1.775696 5.720160 3.216311
C 1.921834 4.996987 3.011579
C 1.946090 5.564423 3.479697
C 2.467272 4.954308 3.508325
C 2.495565 5.439037 3.072976
C 2.204817 5.268875 3.252268
C 2.213730 5.735934 3.835943
C 2.802872 5.257883 3.759478
C 2.708163 5.735424 3.216746
C 2.997908 4.951518 3.016979
C 2.992080 5.497427 3.439672
C 3.468729 5.004855 3.547569
C 3.417979 5.466654 2.987617
C 3.270957 5.193596 3.304234
C 3.291026 5.694749 3.795204
C 3.810787 5.198139 3.755560
C 3.706896 5.649098 3.282112
C 4.047822 4.929489 2.978781
C 3.992703 5.447731 3.438624
C 4.541136 4.996773 3.556052
C 4.524455 5.545533 2.948039
C 4.176518 5.206410 3.241469
C 4.310892 5.741103 3.747448
C 4.827441 5.266289 3.735807
C 4.721182 5.721853 3.276270
C 4.944191 5.043565 2.948108
C 5.026291 5.509858 3.470575
C 5.542869 4.994216 3.448261
C 5.468633 5.540439 3.001507
C 5.177021 5.254086 3.288591
C 5.178026 5.740061 3.756310
C 5.728780 5.211791 3.711179
C 5.696742 5.734319 3.228023
C 0.053766 0.057806 3.928472
C 0.011329 0.545466 4.574002
C 0.507966 0.057091 4.507611
C 0.461203 0.537547 3.987252
C 0.213328 0.187782 4.205335
C 0.275656 0.828444 4.717703
C 0.818546 0.270704 4.773951
C 0.731803 0.753404 4.248804
C 0.950299 0.052718 3.976521
C 1.033529 0.577775 4.534144
C 1.557257 0.045524 4.469264
C 1.507691 0.560400 4.002620
C 1.271745 0.219837 4.293907
C 1.345030 0.774939 4.745857
C 1.751880 0.265583 4.712082
C 1.725923 0.736238 4.261332
C 1.983319 0.052091 4.018036
C 1.997394 0.543622 4.534488
C 2.436281 0.026280 4.412223
C 2.481115 0.460157 3.968254
C 2.271936 0.322806 4.245892
C 2.269821 0.797694 4.709929
C 2.692459 0.205941 4.797186
C 2.744122 0.683986 4.208597
C 3.063209 0.054708 3.940422
C 2.978343 0.507600 4.588874
C 3.503637 0.083110 4.482768
C 3.543988 0.452473 4.003918
C 3.225627 0.203859 4.266017
C 3.199947 0.773804 4.802048
C 3.809866 0.220822 4.710405
C 3.789004 0.738171 4.187979
C 4.055907 0.004137 3.912291
C 3.965540 0.522164 4.523588
C 4.507985 0.030358 4.439735
C 4.498799 0.485154 3.998281
C 4.275233 0.281555 4.230143
C 4.254940 0.780991 4.774687
C 4.748802 0.300066 4.749508
C 4.836485 0.741198 4.217851
C 4.933341 0.050320 4.014237
C 4.932237 0.528006 4.525666
C 5.573355 0.054186 4.523576
C 5.554348 0.532943 3.922296
C 5.270054 0.178013 4.233551
C 5.244320 0.734054 4.801456
C 5.661461 0.222786 4.767552
C 5.679151 0.722550 4.284810
C 0.005959 0.946240 4.031481
C 0.036567 1.545510 4.414355
C 0.541584 0.984411 4.595485
C 0.592820 1.493797 4.042325
C 0.269077 1.183892 4.279886
C 0.217027 1.669512 4.729917
C 0.697098 1.255441 4.746567
C 0.794470 1.789692 4.264134
C 1.030436 1.028193 3.931398
C 0.957362 1.520618 4.424353
C 1.470553 0.944747 4.470762
C 1.462158 1.442306 4.076053
C 1.200055 1.217655 4.203399
C 1.213171 1.667731 4.708001
C 1.682683 1.255578 4.728161
C 1.746882 1.779006 4.219079
C 2.026769 1.052754 4.046803
C 1.895703 1.489248 4.502364
C 2.535760 1.039635 4.534874
C 2.566613 1.470472 3.953765
C 2.313076 1.213142 4.248274
C 2.184401 1.706707 4.784630
C 2.747428 1.261917 4.735435
C 2.831251 1.777943 4.270564
C 2.944039 1.059812 3.974763
C 2.952663 1.459998 4.499665
C 3.502043 0.930344 4.460291
C 3.490078 1.587469 3.971400
C 3.282738 1.228290 4.258481
C 3.260275 1.732341 4.733955
C 3.730455 1.239127 4.746521
C 3.729058 1.806110 4.179964
C 3.948183 0.973573 3.979245
C 3.943195 1.474290 4.513623
C 4.502013 0.978823 4.411031
C 4.471437 1.543142 3.944500
C 4.199563 1.230970 4.284773
C 4.210850 1.736890 4.717130
C 4.790256 1.252094 4.708707
C 4.819209 1.752195 4.284833
C 4.950293 0.991610 3.991705
C 4.930666 1.488396 4.490253
C 5.526503 0.989741 4.430090
C 5.575625 1.554421 3.967199
C 5.263153 1.254901 4.337563
C 5.272739 1.787697 4.829938
C 5.743146 1.292794 4.791985
C 5.677961 1.673496 4.218342
C 0.018989 1.862882 3.971378
C 0.033293 2.498454 4.462255
C 0.439362 2.000359 4.521074
C 0.465231 2.432336 3.998542
C 0.203573 2.202342 4.241189
C 0.260677 2.728379 4.709410
C 0.783997 2.262489 4.758101
C 0.779250 2.752406 4.260000
C 0.951895 2.001052 4.013306
C 0.956078 2.461237 4.512246
C 1.441327 2.001267 4.480752
C 1.506573 2.499280 3.968758
C 1.207307 2.291052 4.281079
C 1.166311 2.726832 4.741843
C 1.752869 2.269060 4.787336
C 1.762362 2.765968 4.158439
C 2.031656 2.033637 4.035076
C 1.938480 2.529049 4.538751
C 2.550566 2.010214 4.483618
C 2.428559 2.506686 4.053035
C 2.216513 2.245983 4.263468
C 2.265548 2.708309 4.740292
C 2.787691 2.261056 4.715530
C 2.679388 2.736720 4.279190
C 3.043590 1.994711 4.073756
C 2.934500 2.498554 4.496519
C 3.536449 1.947483 4.485037
C 3.541372 2.502251 3.954247
C 3.292236 2.280190 4.244672
C 3.288522 2.754819 4.765274
C 3.777757 2.278345 4.811158
C 3.696616 2.789626 4.304488
C 4.016085 1.926597 3.954153
C 4.000325 2.568321 4.546593
C 4.509112 1.956341 4.544164
C 4.490732 2.513685 3.968759
C 4.263484 2.207149 4.233814
C 4.230603 2.687088 4.759330
C 4.706580 2.299200 4.786701
C 4.813865 2.763968 4.229019
C 4.954417 1.943465 4.030763
C 4.995133 2.562699 4.512708
C 5.518759 2.047511 4.495117
C 5.514116 2.444283 3.974384
C 5.275919 2.236159 4.348968
C 5.255571 2.792619 4.788579
C 5.725936 2.237853 4.712572
C 5.720261 2.635769 4.304894
C 0.030805 2.952527 3.976647
C 0.051840 3.528917 4.468766
C 0.469649 3.058385 4.527420
C 0.437441 3.511238 4.052056
C 0.248616 3.242219 4.276948
C 0.198959 3.774395 4.705182
C 0.757871 3.237081 4.704244
C 0.761233 3.809461 4.207035
C 1.026275 2.961707 4.026696
C 0.965145 3.458371 4.466874
C 1.505249 3.036548 4.540764
C 1.475951 3.502825 3.997926
C 1.271830 3.296952 4.225713
C 1.219606 3.722529 4.825891
C 1.689661 3.293462 4.742122
C 1.766752 3.754823 4.246766
C 2.054226 2.973909 4.017172
C 2.034129 3.530450 4.531901
C 2.448673 3.042103 4.452656
C 2.501166 3.457856 3.967806
C 2.250090 3.253300 4.165313
C 2.262933 3.663269 4.766076
C 2.777110 3.269597 4.790142
C 2.754698 3.759581 4.285046
C 2.990813 3.044700 4.013004
C 2.958232 3.487815 4.473622
C 3.465671 2.999254 4.471362
C 3.579492 3.523951 4.008558
C 3.240899 3.239835 4.168627
C 3.310160 3.713377 4.804910
C 3.789394 3.236936 4.678632
C 3.792607 3.827728 4.267404
C 4.059362 3.013507 3.968265
C 4.032306 3.564798 4.474086
C 4.510761 3.072386 4.512200
C 4.460628 3.529921 4.065456
C 4.195627 3.224585 4.219639
C 4.161716 3.754956 4.745955
C 4.701994 3.300492 4.788668
C 4.744791 3.763399 4.194458
C 5.039178 3.042557 4.004099
C 5.001377 3.532235 4.423433
C 5.529181 2.961118 4.470430
C 5.524261 3.506782 3.975957
C 5.243375 3.184622 4.251849
C 5.197234 3.780864 4.670016
C 5.735745 3.256951 4.799844
C 5.728374 3.818282 4.247314
C 0.007322 3.929204 3.951661
C 0.013727 4.446996 4.422168
C 0.505795 3.988524 4.568137
C 0.527673 4.491099 3.929453
C 0.275425 4.239804 4.206860
C 0.310103 4.692078 4.760349
C 0.771926 4.271808 4.748791
C 0.769651 4.730494 4.212659
C 1.085138 3.987558 4.072274
C 1.045899 4.464661 4.458355
C 1.478379 4.047008 4.531915
C 1.527377 4.433683 4.047434
C 1.276711 4.237262 4.214413
C 1.309688 4.719029 4.786451
C 1.664385 4.275190 4.789309
C 1.800418 4.770947 4.286764
C 1.959652 3.931627 3.998307
C 2.051379 4.499177 4.474558
C 2.568427 4.042253 4.494290
C 2.517291 4.489103 4.054156
C 2.198431 4.251339 4.276877
C 2.312508 4.731171 4.815175
C 2.735742 4.269797 4.794130
C 2.796691 4.709865 4.250766
C 3.022185 4.054274 3.965001
C 3.027086 4.531712 4.562459
C 3.553041 4.062710 4.508544
C 3.557306 4.505044 4.014030
C 3.326515 4.270838 4.257074
C 3.309329 4.731409 4.696886
C 3.780726 4.291893 4.801535
C 3.793419 4.736326 4.265132
C 3.992273 4.061220 3.949580
C 3.929309 4.451988 4.504628
C 4.570125 3.985107 4.501111
C 4.486426 4.559005 3.970936
C 4.268972 4.215720 4.185487
C 4.304814 4.813940 4.717058
C 4.721534 4.287886 4.683362
C 4.758871 4.751880 4.277275
C 5.043339 3.975705 3.965731
C 5.033254 4.457774 4.455740
C 5.450556 4.049827 4.532281
C 5.435566 4.449438 3.997894
C 5.232727 4.229450 4.220199
C 5.264137 4.705803 4.723951
C 5.709260 4.286538 4.649508
C 5.679847 4.823315 4.237790
C 0.051467 5.063764 4.047343
C 0.049107 5.495847 4.436904
C 0.483373 4.992699 4.499344
C 0.511573 5.570178 3.942661
C 0.293718 5.231007 4.290640
C 0.305588 5.743969 4.758393
C 0.757525 5.267412 4.695938
C 0.806834 5.700991 4.199710
C 1.051934 5.012155 4.005519
C 1.061590 5.492994 4.451073
C 1.424483 4.913279 4.489599
C 1.486997 5.436414 3.938508
C 1.275113 5.244347 4.196057
C 1.215930 5.690958 4.724694
C 1.686674 5.283207 4.776805
C 1.801033 5.744478 4.221949
C 2.027775 5.033377 4.055242
C 1.915242 5.459304 4.528448
C 2.552624 4.963550 4.457293
C 2.538606 5.444479 4.002390
C 2.225036 5.292766 4.329265
C 2.249655 5.729847 4.843926
C 2.825207 5.227348 4.722253
C 2.697574 5.683892 4.232514
C 3.028204 5.036542 4.060862
C 2.960612 5.428035 4.413746
C 3.441192 4.981371 4.500578
C 3.568079 5.501935 4.051046
C 3.290482 5.298534 4.191324
C 3.272671 5.723933 4.827322
C 3.728502 5.246204 4.706651
C 3.828563 5.690035 4.228004
C 3.981479 5.018479 4.034465
C 3.994294 5.490463 4.549857
C 4.496469 5.012778 4.484501
C 4.489420 5.550755 4.051662
C 4.236155 5.237851 4.267450
C 4.190997 5.738701 4.777691
C 4.757431 5.253859 4.738956
C 4.732977 5.719741 4.304687
C 4.995681 5.022797 3.997798
C 5.016896 5.470662 4.534858
C 5.436295 4.985397 4.486081
C 5.464017 5.462390 3.943975
C 5.215289 5.232450 4.306977
C 5.330676 5.718144 4.730171
C 5.720711 5.229972 4.785472
C 5.723218 5.732846 4.216298
C 0.031177 0.078793 4.934511
C 0.022327 0.469202 5.559247
C 0.404926 0.049252 5.505404
C 0.530753 0.419665 5.029674
C 0.239179 0.195934 5.249842
C 0.308346 0.703525 5.692002
C 0.703081 0.238844 5.743754
C 0.837300 0.750987 5.263937
C 1.076922 0.012596 4.950469
C 1.003774 0.513559 5.480284
C 1.513616 0.034311 5.488745
C 1.554969 0.579702 4.983203
C 1.219898 0.240250 5.210197
C 1.295372 0.813460 5.697460
C 1.810340 0.256800 5.712953
C 1.781771 0.741208 5.251229
C 2.077653 0.018799 5.033190
C 1.979313 0.445599 5.464666
C 2.392656 0.036034 5.535406
C 2.530688 0.478415 4.965959
C 2.237084 0.236386 5.294186
C 2.302477 0.715898 5.726969
C 2.692944 0.223136 5.721689
C 2.773102 0.693159 5.192950
C 2.987404 0.054767 4.972248
C 2.944146 0.483866 5.553134
C 3.441227 0.020763 5.518892
C 3.553258 0.500219 4.919440
C 3.327214 0.215632 5.183226
C 3.293094 0.679555 5.747828
C 3.788151 0.227135 5.694293
C 3.762848 0.749052 5.225255
C 4.031136 0.037516 5.030260
C 4.007123 0.430869 5.452108
C 4.438970 0.003902 5.519115
C 4.512304 0.595124 5.012184
C 4.289360 0.250544 5.267553
C 4.293815 0.700401 5.651994
C 4.822338 0.299776 5.738760
C 4.757320 0.778193 5.215820
C 5.052379 0.048788 5.077637
C 4.955708 0.547427 5.516534
C 5.492767 0.033717 5.560218
C 5.533838 0.484486 4.935756
C 5.319928 0.274491 5.163730
C 5.228794 0.759082 5.645412
C 5.710981 0.260945 5.711819
C 5.682555 0.683102 5.237971
C 0.073441 0.935475 4.965840
C 0.019800 1.540590 5.428633
C 0.446999 0.995388 5.543374
C 0.500748 1.468384 5.022222
C 0.222555 1.292013 5.245806
C 0.247825 1.746624 5.741665
C 0.830023 1.254534 5.744587
C 0.693120 1.702940 5.234286
C 1.021228 1.014593 4.997094
C 1.034988 1.463779 5.485800
C 1.513839 1.002454 5.488886
C 1.489479 1.556503 5.042385
C 1.228798 1.194470 5.280006
C 1.253723 1.638246 5.729198
C 1.741311 1.266910 5.677302
C 1.692079 1.768748 5.275214
C 1.984197 0.994541 5.055562
C 2.063526 1.498563 5.534455
C 2.495430 1.034928 5.585613
C 2.445312 1.512727 4.977728
C 2.141501 1.248035 5.252775
C 2.333972 1.718749 5.733787
C 2.804308 1.164954 5.701326
C 2.747085 1.730459 5.326842
C 2.937717 1.011809 5.065919
C 3.019924 1.537453 5.448036
C 3.530491 1.046832 5.539276
C 3.475333 1.512850 5.005719
C 3.204845 1.228416 5.335258
C 3.312182 1.820607 5.744196
C 3.778099 1.225591 5.718140
C 3.833495 1.753571 5.279254
C 4.022353 1.071230 5.004249
C 4.080610 1.464791 5.439189
C 4.418150 0.985191 5.480820
C 4.532494 1.446032 4.997994
C 4.306068 1.240287 5.265011
C 4.275430 1.787808 5.713371
C 4.658200 1.218072 5.703624
C 4.749715 1.717988 5.198786
C 5.012967 1.047885 4.973687
C 4.996067 1.449473 5.554320
C 5.528934 1.016557 5.493435
C 5.532002 1.436790 5.037122
C 5.301329 1.222151 5.256056
C 5.318143 1.703659 5.749641
C 5.719188 1.316612 5.732559
C 5.736447 1.729824 5.317963
C 0.045397 1.984696 5.053670
C 0.005317 2.515809 5.581342
C 0.526356 1.969464 5.484006
C 0.459504 2.505159 5.030353
C 0.248642 2.292783 5.288973
C 0.227411 2.696759 5.633043
C 0.689111 2.288942 5.682707
C 0.782322 2.708487 5.180797
C 1.049008 2.006946 5.003935
C 1.056841 2.482202 5.476402
C 1.561345 2.011044 5.484717
C 1.475609 2.522247 4.908821
C 1.337347 2.271659 5.295239
C 1.263074 2.849038 5.739206
C 1.803372 2.184519 5.747317
C 1.828721 2.768595 5.227880
C 2.009319 2.030620 4.934573
C 2.045552 2.558938 5.473279
C 2.468347 2.046273 5.524259
C 2.469487 2.531712 4.994653
C 2.210465 2.242683 5.212264
C 2.191973 2.734567 5.741752
C 2.776938 2.239682 5.680577
C 2.790224 2.710981 5.203775
C 3.086902 1.955420 5.012482
C 2.965177 2.498401 5.495970
C 3.507893 2.062517 5.484261
C 3.525294 2.506243 5.001814
C 3.184918 2.219841 5.266417
C 3.206713 2.788119 5.700996
C 3.808111 2.301427 5.693804
C 3.746475 2.828831 5.290603
C 4.019502 2.032173 5.007214
C 4.079013 2.534388 5.488688
C 4.567623 1.948604 5.474751
C 4.457447 2.466266 4.994693
C 4.317161 2.239873 5.315459
C 4.321922 2.714517 5.680364
C 4.779237 2.206137 5.680572
C 4.770989 2.672389 5.264468
C 5.026226 1.996630 4.946881
C 5.039491 2.523941 5.432764
C 5.587841 1.977705 5.497386
C 5.589498 2.498602 5.016712
C 5.242193 2.201536 5.204434
C 5.324212 2.710154 5.748166
C 5.659165 2.203173 5.716200
C 5.708462 2.749823 5.265574
C 0.022673 3.001211 5.069950
C 0.046818 3.412043 5.501786
C 0.488754 3.000858 5.559604
C 0.529612 3.456098 5.043171
C 0.279405 3.196269 5.261843
C 0.201343 3.671458 5.744968
C 0.688549 3.265712 5.728667
C 0.787291 3.798711 5.291891
C 0.948447 2.992663 4.945114
C 1.016828 3.504087 5.505450
C 1.519800 2.917526 5.467128
C 1.522590 3.428825 5.052408
C 1.209971 3.210031 5.311050
C 1.324938 3.795846 5.709805
C 1.736944 3.275632 5.722595
C 1.742613 3.778455 5.298581
C 1.987242 3.042385 5.083312
C 1.997302 3.590269 5.479238
C 2.459838 3.046482 5.563298
C 2.524550 3.438078 5.020198
C 2.240071 3.277283 5.181013
C 2.261250 3.703381 5.639645
C 2.781321 3.300190 5.718178
C 2.721448 3.756190 5.239343
C 2.992701 3.026021 5.057178
C 3.031082 3.564587 5.523952
C 3.471888 2.948531 5.516783
C 3.573433 3.510893 5.037342
C 3.275872 3.281717 5.269039
C 3.362102 3.778429 5.741832
C 3.799503 3.246747 5.734781
C 3.794545 3.765062 5.260550
C 3.974186 2.985658 5.021366
C 3.996235 3.579081 5.549074
C 4.456859 2.981956 5.583111
C 4.504469 3.519353 5.040113
C 4.270632 3.235001 5.311428
C 4.268153 3.776286 5.711965
C 4.750017 3.258306 5.673670
C 4.705674 3.848778 5.277595
C 5.031264 3.009716 5.003969
C 5.023388 3.579406 5.466309
C 5.506141 2.904869 5.515780
C 5.552348 3.540327 4.986575
C 5.205479 3.235041 5.216308
C 5.143690 3.721924 5.737845
C 5.740389 3.232371 5.683371
C 5.731115 3.763417 5.323346
C 0.028064 4.111838 4.950746
C 0.041358 4.474145 5.557484
C 0.503088 3.977881 5.479004
C 0.468219 4.570856 5.032219
C 0.300573 4.203638 5.262529
C 0.288987 4.761350 5.742583
C 0.769876 4.309182 5.742864
C 0.695594 4.725866 5.295830
C 0.989680 3.964496 4.933186
C 1.055912 4.569463 5.530226
C 1.447306 3.977985 5.448031
C 1.591974 4.500863 4.972884
C 1.219480 4.225429 5.258460
C 1.166007 4.819267 5.733119
C 1.823950 4.274339 5.692870
C 1.765559 4.806263 5.239968
C 1.948129 3.942644 5.021385
C 1.942982 4.519302 5.451339
C 2.545855 3.956537 5.565525
C 2.467519 4.465006 4.923919
C 2.199267 4.229952 5.295063
C 2.265100 4.764708 5.737449
C 2.789094 4.307038 5.677707
C 2.829863 4.793815 5.307833
C 2.987431 4.040123 4.939951
C 3.033766 4.533268 5.547899
C 3.427894 3.987526 5.475072
C 3.504725 4.554739 5.010273
C 3.300315 4.249281 5.287932
C 3.245558 4.776027 5.724084
C 3.683704 4.222377 5.739687
C 3.753773 4.825100 5.236850
C 3.956137 3.952576 5.016771
C 3.999220 4.485055 5.571899
C 4.553092 4.006923 5.539288
C 4.452545 4.464634 4.973695
C 4.278134 4.198032 5.278680
C 4.195463 4.722734 5.691746
C 4.757104 4.248583 5.674878
C 4.778950 4.661474 5.191275
C 4.958016 3.958488 5.033373
C 4.964746 4.539061 5.470078
C 5.573612 4.036341 5.499541
C 5.480995 4.498934 5.038059
C 5.229674 4.310038 5.201122
C 5.260127 4.824864 5.719381
C 5.733068 4.379604 5.699275
C 5.738186 4.661117 5.232192
C 0.002144 4.897374 5.008321
C 0.078522 5.518195 5.490453
C 0.478904 5.008470 5.580554
C 0.441923 5.464079 4.974409
C 0.248606 5.204508 5.210168
C 0.281155 5.672528 5.728010
C 0.733293 5.157142 5.719603
C 0.723182 5.686181 5.303818
C 0.916749 4.981167 5.000187
C 0.990428 5.533614 5.452279
C 1.446086 4.986911 5.532102
C 1.536857 5.554613 4.987180
C 1.206091 5.252238 5.205067
C 1.245838 5.742482 5.748712
C 1.666269 5.260566 5.739502
C 1.824916 5.739867 5.260524
C 2.017464 5.000604 4.988621
C 2.014456 5.523942 5.579907
C 2.482584 5.031730 5.487456
C 2.508185 5.486143 4.963338
C 2.283035 5.182886 5.208625
C 2.338264 5.728740 5.738972
C 2.666737 5.254367 5.748768
C 2.715548 5.729311 5.238498
C 3.042287 4.990966 4.999826
C 3.014142 5.527172 5.563519
C 3.545771 5.038661 5.439477
C 3.508887 5.528467 5.070294
C 3.259907 5.266089 5.212973
C 3.319438 5.641041 5.727552
C 3.722287 5.252342 5.739402
C 3.751388 5.727570 5.304403
C 3.968245 5.048389 4.984572
C 3.939653 5.462570 5.445169
C 4.533243 4.898044 5.476988
C 4.527591 5.551902 5.030589
C 4.214326 5.267024 5.293200
C 4.232465 5.644162 5.730339
C 4.706213 5.234938 5.646556
C 4.736209 5.707983 5.281683
C 4.962744 4.982211 4.919903
C 5.012941 5.547116 5.521257
C 5.595055 4.996809 5.455669
C 5.484106 5.529792 4.996801
C 5.156837 5.209913 5.224586
C 5.267622 5.747695 5.643006
C 5.682585 5.245774 5.725172
C 5.723167 5.726397 5.282782
1728
Frame 6/10
C 0.086089 0.002699 0.051559
C 0.069419 0.465841 0.490371
C 0.579570 0.089315 0.493558
C 0.507229 0.477469 0.082809
C 0.308721 0.236463 0.260407
C 0.233620 0.749331 0.698473
C 0.709885 0.202562 0.786905
C 0.775897 0.840088 0.253757
C 0.990966 0.051632 0.058723
C 0.982814 0.560095 0.473695
C 1.531623 0.059656 0.526099
C 1.580469 0.452444 0.010123
C 1.163446 0.273192 0.241733
C 1.245486 0.730586 0.748178
C 1.786679 0.299445 0.645138
C 1.714199 0.722797 0.163797
C 2.056425 0.021034 0.006379
C 1.924426 0.558779 0.497500
C 2.599278 0.021803 0.552860
C 2.593509 0.465612 0.019757
C 2.292471 0.149536 0.254255
C 2.230168 0.718884 0.854795
C 2.819351 0.203079 0.744126
C 2.813302 0.716235 0.306082
C 2.940911 0.050245 0.037417
C 3.032289 0.529449 0.517694
C 3.562498 0.063398 0.459248
C 3.597175 0.539276 0.017041
C 3.316819 0.255816 0.268833
C 3.215460 0.765776 0.657736
C 3.671514 0.224183 0.716846
C 3.792557 0.759619 0.222390
C 4.083376 0.004736 0.076199
C 4.043012 0.568440 0.517492
C 4.492903 0.069685 0.421585
C 4.489661 0.489133 0.023723
C 4.186178 0.235166 0.327248
C 4.208017 0.768787 0.755967
C 4.756277 0.251783 0.843853
C 4.732196 0.746116 0.203654
C 4.889971 0.077579 0.035544
C 4.973709 0.480591 0.391198
C 5.420490 0.067468 0.574202
C 5.583007 0.502630 0.013028
C 5.252162 0.243473 0.151196
C 5.214674 0.707272 0.785156
C 5.716983 0.264470 0.751412
C 5.648489 0.715670 0.228592
C 0.010795 0.969091 0.070723
C 0.004096 1.472040 0.550190
C 0.480507 0.933105 0.441160
C 0.488724 1.484978 0.029773
C 0.250860 1.182074 0.252403
C 0.172461 1.758315 0.820792
C 0.780553 1.327986 0.752461
C 0.754579 1.674076 0.189745
C 1.015003 0.900235 0.055879
C 1.025757 1.567488 0.501923
C 1.461405 0.975129 0.496935
C 1.470506 1.434239 0.024411
C 1.263639 1.187100 0.228422
C 1.234086 1.747697 0.787688
C 1.777002 1.184078 0.711173
C 1.743797 1.722245 0.143821
C 1.989005 1.018502 0.000828
C 1.994271 1.541441 0.459104
C 2.512837 1.017271 0.590063
C 2.393962 1.526976 0.007060
C 2.253850 1.197123 0.182942
C 2.169259 1.703467 0.745098
C 2.709066 1.244807 0.657164
C 2.822426 1.701267 0.196866
C 2.930988 1.044138 0.099406
C 2.989676 1.445419 0.570477
C 3.499231 1.002739 0.442947
C 3.531021 1.624375 0.026739
C 3.182050 1.204210 0.211578
C 3.266729 1.687402 0.835931
C 3.732611 1.237305 0.700968
C 3.791713 1.716667 0.193043
C 4.043010 0.937179 0.003467
C 4.096685 1.510090 0.527831
C 4.550496 0.966349 0.438508
C 4.600828 1.418958 0.018618
C 4.309174 1.244970 0.293712
C 4.229639 1.770468 0.813130
C 4.700644 1.266373 0.845531
C 4.719017 1.857554 0.275383
C 4.894361 1.006926 0.019819
C 5.083433 1.479119 0.520758
C 5.425651 1.014543 0.532467
C 5.568553 1.522065 0.000211
C 5.236010 1.315595 0.252544
C 5.227452 1.737407 0.661870
C 5.718909 1.188153 0.763331
C 5.660910 1.744161 0.218887
C 0.123741 2.011693 0.077457
C 0.037111 2.467004 0.598332
C 0.512276 1.993258 0.449550
C 0.468982 2.518108 0.075424
C 0.210445 2.294238 0.196922
C 0.240216 2.685478 0.784170
C 0.797522 2.283487 0.810897
C 0.829248 2.757707 0.209617
C 0.990877 2.089281 0.005420
C 0.954438 2.568374 0.444231
C 1.526289 2.067126 0.512360
C 1.490582 2.580084 0.089877
C 1.262939 2.217905 0.232422
C 1.238583 2.809527 0.694129
C 1.791197 2.183339 0.735265
C 1.773137 2.778105 0.339627
C 2.083825 1.977645 0.056051
C 2.090218 2.545136 0.485136
C 2.517524 1.985504 0.552637
C 2.563377 2.602474 0.020744
C 2.200192 2.233284 0.191021
C 2.329923 2.850188 0.727826
C 2.792993 2.181954 0.737355
C 2.770184 2.619744 0.223853
C 2.950532 2.068822 0.031317
C 3.049947 2.422978 0.529538
C 3.577505 2.059057 0.524129
C 3.506486 2.452786 0.029282
C 3.245402 2.324766 0.187699
C 3.228732 2.810785 0.706064
C 3.769685 2.155282 0.818967
C 3.667745 2.691106 0.229943
C 3.915160 1.979016 0.008911
C 4.053568 2.407166 0.432220
C 4.430034 1.982866 0.472817
C 4.585483 2.608880 0.020462
C 4.171751 2.256935 0.174454
C 4.188230 2.778279 0.804795
C 4.676681 2.194244 0.758704
C 4.824901 2.713307 0.276864
C 5.018251 1.936725 0.038173
C 5.051442 2.527208 0.569711
C 5.400290 1.980910 0.504983
C 5.506073 2.362317 0.029332
C 5.309878 2.178759 0.247588
C 5.300765 2.761006 0.796453
C 5.701015 2.295027 0.807332
C 5.688549 2.740076 0.198484
C 0.059481 2.934464 0.013997
C 0.015199 3.501416 0.399661
C 0.488854 2.931102 0.457569
C 0.493101 3.569200 0.003625
C 0.223615 3.276980 0.204738
C 0.321133 3.745843 0.688336
C 0.681445 3.210483 0.779015
C 0.821765 3.774436 0.258614
C 0.878864 2.972561 0.016364
C 0.945214 3.440530 0.461521
C 1.528051 3.005361 0.530521
C 1.582652 3.489211 0.086316
C 1.138917 3.282929 0.222046
C 1.301939 3.712478 0.714132
C 1.721253 3.252283 0.802536
C 1.814971 3.802572 0.190968
C 1.961063 3.058925 0.023081
C 2.039808 3.416950 0.566478
C 2.542643 2.992439 0.452590
C 2.501499 3.504992 0.031513
C 2.184266 3.284011 0.273141
C 2.175319 3.734497 0.738416
C 2.810750 3.169658 0.773300
C 2.855419 3.758148 0.221840
C 2.951545 2.999397 0.010738
C 3.038539 3.424984 0.413132
C 3.589979 2.998180 0.436236
C 3.444484 3.517168 0.088145
C 3.280571 3.245659 0.267379
C 3.233509 3.838069 0.736187
C 3.817571 3.273744 0.752494
C 3.735163 3.783897 0.179660
C 3.904667 2.968316 0.040065
C 3.982410 3.460600 0.497323
C 4.474487 2.959357 0.404046
C 4.497421 3.502330 0.077216
C 4.154505 3.311069 0.188195
C 4.258152 3.674290 0.700162
C 4.818793 3.273991 0.687484
C 4.760591 3.805655 0.160182
C 5.006472 3.048894 0.003786
C 4.904904 3.511446 0.493746
C 5.524955 3.066838 0.518941
C 5.503770 3.442872 0.096157
C 5.177432 3.284964 0.235197
C 5.247774 3.639279 0.737366
C 5.733138 3.211781 0.802925
C 5.746705 3.714429 0.306393
C 0.007872 4.043309 0.075557
C 0.000756 4.441417 0.425533
C 0.556239 4.039670 0.581532
C 0.533942 4.548295 0.057583
C 0.233794 4.240370 0.228214
C 0.195078 4.801499 0.746319
C 0.745768 4.270294 0.808778
C 0.764540 4.669769 0.277200
C 0.997393 4.127313 0.074070
C 0.982196 4.488580 0.544505
C 1.579558 4.060851 0.454510
C 1.370392 4.460330 0.012558
C 1.230974 4.145321 0.279484
C 1.206080 4.855942 0.692093
C 1.680947 4.276853 0.747833
C 1.697222 4.782700 0.340362
C 2.099429 4.078555 0.025165
C 2.000667 4.562831 0.422833
C 2.530355 3.955945 0.577845
C 2.425051 4.579706 0.075075
C 2.270510 4.318113 0.176685
C 2.309029 4.730814 0.756219
C 2.687379 4.274628 0.704500
C 2.750662 4.756527 0.311700
C 3.041657 4.011985 0.023432
C 3.005418 4.435489 0.509047
C 3.495438 3.988917 0.590359
C 3.502753 4.613822 0.015348
C 3.337865 4.222482 0.236707
C 3.255859 4.792987 0.767395
C 3.827914 4.223424 0.779616
C 3.734246 4.737024 0.230584
C 4.004321 3.974673 0.006522
C 4.048595 4.507720 0.518798
C 4.455557 3.909765 0.426591
C 4.546303 4.575204 0.084491
C 4.313674 4.201790 0.301365
C 4.339147 4.684002 0.677210
C 4.778393 4.205131 0.769632
C 4.692947 4.771020 0.315239
C 5.050424 3.920295 0.039666
C 4.989878 4.438692 0.512500
C 5.524106 3.960296 0.580090
C 5.473480 4.472949 0.010569
C 5.224161 4.267912 0.303664
C 5.311346 4.831096 0.703787
C 5.670904 4.270820 0.706410
C 5.727856 4.791050 0.291883
C 0.000544 5.080080 0.112306
C 0.009856 5.432193 0.404636
C 0.504064 4.948004 0.513242
C 0.488565 5.584518 0.008879
C 0.285705 5.220886 0.237242
C 0.231620 5.703112 0.809676
C 0.667732 5.277238 0.715294
C 0.743126 5.725890 0.321578
C 1.070482 4.925768 0.034417
C 1.017909 5.580219 0.518307
C 1.429076 4.974079 0.435089
C 1.580982 5.416388 0.029551
C 1.321806 5.285128 0.247904
C 1.230797 5.625294 0.731935
C 1.781381 5.291224 0.857101
C 1.774528 5.739121 0.272697
C 1.905044 5.026119 0.005067
C 1.964513 5.510064 0.617229
C 2.539284 5.054052 0.570506
C 2.590914 5.457696 0.059699
C 2.238720 5.326445 0.256417
C 2.223923 5.724657 0.752959
C 2.835567 5.284103 0.711531
C 2.670627 5.717195 0.203336
C 3.045523 4.921224 0.000917
C 3.004029 5.535261 0.542061
C 3.504251 4.949458 0.455259
C 3.432430 5.552577 0.073651
C 3.155892 5.215220 0.253248
C 3.367802 5.677130 0.669694
C 3.715198 5.262219 0.786090
C 3.735657 5.681776 0.330938
C 3.892629 5.034354 0.003108
C 3.945069 5.411024 0.542004
C 4.576243 5.010747 0.539592
C 4.459586 5.415944 0.038683
C 4.363098 5.216966 0.270114
C 4.228605 5.684221 0.714011
C 4.717786 5.287332 0.677947
C 4.878034 5.684793 0.279418
C 4.958741 4.980096 0.078501
C 5.049150 5.467138 0.526561
C 5.483208 4.985399 0.416841
C 5.521093 5.421456 0.026512
C 5.211046 5.204595 0.284507
C 5.346702 5.687173 0.742523
C 5.743222 5.212776 0.653497
C 5.738790 5.682163 0.162366
C 0.027434 0.033763 0.994610
C 0.038292 0.454902 1.412902
C 0.466531 0.064909 1.410570
C 0.526831 0.428485 0.950898
C 0.289986 0.146359 1.168561
C 0.168416 0.697659 1.755430
C 0.676608 0.280823 1.816751
C 0.659690 0.780323 1.245135
C 0.920331 0.001069 0.991388
C 1.103269 0.500191 1.512922
C 1.490101 0.046839 1.509595
C 1.452280 0.505639 1.057024
C 1.346174 0.273227 1.268947
C 1.302858 0.713993 1.698293
C 1.690832 0.195331 1.743125
C 1.837984 0.675022 1.240910
C 2.061085 0.013903 0.980995
C 2.061285 0.512360 1.535333
C 2.642517 0.046363 1.485807
C 2.499447 0.406554 0.985640
C 2.254949 0.356467 1.210687
C 2.288021 0.701670 1.851837
C 2.790648 0.303276 1.721138
C 2.679773 0.783142 1.268064
C 2.968310 0.024784 1.137072
C 3.016699 0.421415 1.460514
C 3.428214 0.065875 1.505537
C 3.490052 0.496233 1.013071
C 3.307025 0.303082 1.224060
C 3.205223 0.819601 1.753877
C 3.818744 0.276701 1.806546
C 3.730713 0.792659 1.223429
C 4.120690 0.048537 1.020822
C 4.009598 0.533284 1.525573
C 4.500958 0.029888 1.524884
C 4.435375 0.485028 1.061421
C 4.257711 0.302834 1.307674
C 4.194694 0.657145 1.787743
C 4.810785 0.292828 1.799045
C 4.822475 0.771015 1.292622
C 5.102311 0.012594 0.995865
C 4.967525 0.476562 1.535884
C 5.361461 0.025263 1.546446
C 5.467194 0.584649 1.022125
C 5.203543 0.245870 1.187444
C 5.229488 0.689911 1.715138
C 5.735098 0.234934 1.627107
C 5.732789 0.790211 1.170913
C 0.021146 1.037663 1.025887
C 0.073143 1.537439 1.426677
C 0.473599 0.948392 1.552849
C 0.488248 1.624024 1.033119
C 0.270399 1.179250 1.195117
C 0.335120 1.785813 1.751538
C 0.736997 1.291286 1.789778
C 0.817152 1.815373 1.208098
C 0.970434 0.929715 1.028548
C 0.990506 1.486537 1.578493
C 1.590268 1.056514 1.526332
C 1.430441 1.467154 0.979218
C 1.277832 1.322261 1.233506
C 1.258398 1.665698 1.781304
C 1.681897 1.181821 1.783633
C 1.769742 1.689739 1.293909
C 2.024350 0.939662 0.959198
C 2.009591 1.539932 1.578522
C 2.481273 1.000205 1.426459
C 2.485795 1.568507 1.027525
C 2.340712 1.207917 1.193123
C 2.262369 1.751188 1.669275
C 2.782620 1.280300 1.709256
C 2.844332 1.802104 1.231039
C 3.080987 1.035551 1.012635
C 2.900164 1.568108 1.470269
C 3.590216 1.051652 1.522183
C 3.379070 1.440469 1.000964
C 3.173797 1.184565 1.296084
C 3.254717 1.823293 1.852218
C 3.681842 1.359419 1.700157
C 3.747795 1.739332 1.349272
C 3.970125 0.940754 0.944729
C 3.975923 1.429893 1.554108
C 4.440486 0.952133 1.539330
C 4.468342 1.487813 0.998889
C 4.235833 1.348251 1.191723
C 4.181084 1.800424 1.786446
C 4.720495 1.354730 1.768085
C 4.727161 1.780544 1.231582
C 4.981077 1.061903 0.959791
C 5.013471 1.495869 1.546460
C 5.508492 1.071018 1.442430
C 5.402175 1.498763 0.966139
C 5.294176 1.283251 1.326445
C 5.169582 1.733676 1.764502
C 5.741846 1.382514 1.816788
C 5.700106 1.707979 1.305236
C 0.011075 1.940569 1.079676
C 0.076045 2.521753 1.445840
C 0.481834 2.099548 1.547279
C 0.471872 2.604661 0.969820
C 0.306408 2.204362 1.199807
C 0.217478 2.797638 1.703523
C 0.742663 2.210508 1.832216
C 0.715573 2.682429 1.180443
C 0.967082 1.945763 0.951029
C 1.015171 2.583841 1.443694
C 1.569314 2.029547 1.510778
C 1.482849 2.502121 1.022121
C 1.285924 2.168915 1.255425
C 1.184899 2.793463 1.733450
C 1.735777 2.316365 1.751208
C 1.755868 2.721695 1.199629
C 1.981985 1.968615 0.983616
C 2.023865 2.505876 1.567148
C 2.540907 2.082470 1.545193
C 2.498273 2.617638 0.991182
C 2.193886 2.230542 1.235991
C 2.343195 2.717784 1.796463
C 2.790192 2.333098 1.744059
C 2.706195 2.700819 1.302338
C 2.946439 2.055975 1.036180
C 3.023002 2.594819 1.568531
C 3.578034 2.006728 1.516917
C 3.497304 2.535854 1.018537
C 3.257164 2.192353 1.198225
C 3.313355 2.740423 1.816079
C 3.717689 2.208678 1.753877
C 3.682586 2.727338 1.240686
C 4.032225 1.981629 1.004780
C 3.945409 2.491458 1.443198
C 4.478415 1.980095 1.369108
C 4.526295 2.436024 1.024169
C 4.201343 2.324869 1.264137
C 4.217364 2.689727 1.686153
C 4.735261 2.297533 1.671582
C 4.729527 2.770427 1.289764
C 4.973663 1.951423 1.088634
C 5.070526 2.486102 1.530755
C 5.484289 1.960892 1.443410
C 5.414893 2.463029 0.990019
C 5.242117 2.154673 1.275160
C 5.257123 2.820715 1.829093
C 5.723621 2.262799 1.695950
C 5.735505 2.701376 1.175627
C 0.002988 2.961882 0.923914
C 0.085263 3.442284 1.543846
C 0.529442 3.077622 1.510916
C 0.441248 3.540448 1.067200
C 0.349975 3.286808 1.315509
C 0.266396 3.728401 1.628889
C 0.841174 3.230416 1.834142
C 0.781005 3.648685 1.297024
C 0.961751 2.960617 1.042621
C 0.990976 3.497032 1.530047
C 1.485040 2.928784 1.557247
C 1.459137 3.478536 0.944963
C 1.232675 3.228255 1.212192
C 1.322284 3.765347 1.784587
C 1.678874 3.333310 1.770768
C 1.773082 3.660627 1.247700
C 1.946183 3.009258 1.034297
C 2.001789 3.439665 1.389032
C 2.527320 2.952652 1.466842
C 2.521656 3.461258 1.072320
C 2.182190 3.193828 1.337950
C 2.189351 3.712560 1.705370
C 2.746732 3.200290 1.735732
C 2.734286 3.689844 1.318690
C 2.987981 2.931629 0.978641
C 2.935475 3.471311 1.482823
C 3.476312 2.935983 1.525666
C 3.568319 3.427094 0.931649
C 3.193455 3.224227 1.272244
C 3.293168 3.720623 1.715994
C 3.843085 3.270944 1.692724
C 3.720326 3.671552 1.264270
C 3.921471 2.936667 0.960379
C 4.062691 3.534945 1.533468
C 4.510448 3.073552 1.409364
C 4.500375 3.442303 1.072402
C 4.215067 3.309371 1.271135
C 4.312218 3.712807 1.765302
C 4.787218 3.221657 1.853323
C 4.791181 3.656124 1.323132
C 5.053004 3.046209 0.917109
C 5.059958 3.481226 1.430429
C 5.520412 2.938780 1.468466
C 5.442695 3.447366 0.976779
C 5.367201 3.253175 1.247830
C 5.249527 3.721070 1.769585
C 5.717780 3.234768 1.823331
C 5.730515 3.816956 1.350487
C 0.014815 4.028266 0.972579
C 0.001035 4.603820 1.534345
C 0.465912 3.979301 1.545587
C 0.602253 4.559219 0.986402
C 0.183545 4.282069 1.162309
C 0.323975 4.813774 1.777630
C 0.691085 4.266234 1.752312
C 0.781966 4.826109 1.230375
C 1.016965 4.024163 1.008744
C 0.946693 4.456601 1.534031
C 1.412029 3.964855 1.530388
C 1.523889 4.508379 1.017138
C 1.281636 4.256948 1.305487
C 1.252012 4.853297 1.779571
C 1.711463 4.192271 1.676617
C 1.808685 4.741860 1.298547
C 1.942157 4.071058 1.003926
C 1.985858 4.435811 1.533790
C 2.452852 3.939059 1.541593
C 2.445446 4.517542 1.017080
C 2.156840 4.199315 1.223050
C 2.194991 4.802986 1.800465
C 2.842089 4.272851 1.723597
C 2.714100 4.668184 1.194558
C 3.053612 3.885550 1.003362
C 2.960252 4.510021 1.464549
C 3.521117 4.064527 1.430413
C 3.475952 4.501026 1.039612
C 3.287239 4.329643 1.264036
C 3.167792 4.805026 1.749341
C 3.754285 4.248265 1.720774
C 3.717788 4.681980 1.168839
C 3.981042 3.937331 0.985854
C 4.036582 4.500152 1.474612
C 4.579969 4.092021 1.522167
C 4.491856 4.620946 1.051346
C 4.297819 4.239603 1.153777
C 4.141115 4.722542 1.717741
C 4.727215 4.281640 1.865606
C 4.696799 4.786373 1.271352
C 4.905967 3.945612 1.063308
C 4.980943 4.430048 1.486732
C 5.467624 3.975311 1.436223
C 5.431133 4.554605 0.953237
C 5.262439 4.199764 1.212792
C 5.193129 4.805491 1.725054
C 5.748997 4.259156 1.792603
C 5.703904 4.747426 1.268037
C 0.039973 5.147186 1.020566
C 0.050293 5.428713 1.471785
C 0.471636 5.044601 1.525079
C 0.483395 5.457550 1.033887
C 0.296660 5.234749 1.224746
C 0.355314 5.741758 1.679165
C 0.689345 5.260601 1.697688
C 0.711690 5.715841 1.334277
C 0.944274 5.016687 0.981359
C 0.929827 5.522956 1.561869
C 1.488225 4.926412 1.556531
C 1.433426 5.566762 1.001803
C 1.317250 5.297744 1.271626
C 1.230377 5.644233 1.736124
C 1.766200 5.308619 1.726818
C 1.707820 5.624436 1.207716
C 2.010629 5.090074 0.937390
C 1.995047 5.531548 1.493785
C 2.448091 5.045292 1.523238
C 2.442116 5.569216 1.035927
C 2.243703 5.243395 1.269614
C 2.159237 5.742294 1.696189
C 2.665832 5.212721 1.779129
C 2.801525 5.725324 1.356557
C 2.988916 4.955071 0.993698
C 3.071596 5.532862 1.479496
C 3.390885 4.989818 1.526536
C 3.462214 5.419191 0.956697
C 3.285425 5.239626 1.316964
C 3.317508 5.735059 1.692503
C 3.686847 5.311130 1.827934
C 3.768203 5.734410 1.313658
C 3.997844 5.007379 0.955090
C 3.986798 5.392538 1.461858
C 4.522595 5.010179 1.452598
C 4.492729 5.414837 0.918963
C 4.227945 5.263228 1.273521
C 4.360820 5.744368 1.731103
C 4.659282 5.263617 1.710263
C 4.807966 5.735582 1.174367
C 5.049411 4.939136 0.937973
C 5.011174 5.491395 1.453523
C 5.607495 5.019629 1.564358
C 5.592664 5.437536 0.928899
C 5.288609 5.233444 1.322892
C 5.223264 5.641598 1.697789
C 5.713915 5.354176 1.784330
C 5.628655 5.699529 1.230031
C 0.098058 0.001184 2.090931
C 0.061475 0.576960 2.537762
C 0.433126 0.054303 2.583556
C 0.504880 0.610723 1.942418
C 0.271230 0.274102 2.156439
C 0.254442 0.806533 2.839063
C 0.690628 0.252721 2.713048
C 0.723898 0.651796 2.197919
C 0.999242 0.028004 1.884749
C 1.017624 0.475065 2.609038
C 1.433580 0.021160 2.599007
C 1.440620 0.454787 2.078291
C 1.218003 0.182590 2.275327
C 1.266936 0.767912 2.702299
C 1.797370 0.232906 2.817071
C 1.626603 0.727023 2.267120
C 1.942423 0.009698 2.011118
C 2.071574 0.606513 2.490002
C 2.506585 0.066481 2.468208
C 2.555635 0.453526 2.083620
C 2.265573 0.319215 2.295782
C 2.218439 0.738642 2.774989
C 2.750275 0.324381 2.771319
C 2.752853 0.724375 2.351101
C 2.918243 0.036338 1.967603
C 3.024709 0.455240 2.442851
C 3.529926 0.094768 2.490693
C 3.518928 0.547280 2.091221
C 3.228484 0.376095 2.219171
C 3.297525 0.717287 2.869611
C 3.872260 0.184051 2.767594
C 3.744914 0.785400 2.322070
C 3.981471 0.037758 2.070989
C 4.070068 0.511531 2.521233
C 4.463724 0.049410 2.562815
C 4.563620 0.479118 1.983827
C 4.228143 0.254518 2.162193
C 4.331060 0.740121 2.783557
C 4.738289 0.262883 2.700465
C 4.722546 0.816052 2.173533
C 4.979203 0.086497 2.014251
C 5.087498 0.522280 2.478809
C 5.511756 0.059804 2.400122
C 5.480107 0.538997 1.990258
C 5.206821 0.291313 2.230232
C 5.290897 0.820059 2.743074
C 5.716976 0.156486 2.621058
C 5.749595 0.769792 2.133857
C 0.018531 0.924759 1.984188
C 0.035749 1.446575 2.423674
C 0.550478 0.927888 2.471339
C 0.427589 1.537113 1.928410
C 0.386560 1.250894 2.276270
C 0.241338 1.768321 2.698534
C 0.746692 1.157290 2.761308
C 0.744920 1.694524 2.331605
C 1.056155 0.974028 1.925232
C 1.042254 1.531558 2.510803
C 1.508082 1.047845 2.519482
C 1.446415 1.495203 2.000882
C 1.281858 1.272326 2.269190
C 1.202888 1.732131 2.840143
C 1.756951 1.185193 2.807266
C 1.722912 1.719932 2.336575
C 1.959887 1.063277 2.016427
C 1.934274 1.486026 2.490250
C 2.495602 0.995895 2.482037
C 2.453339 1.473967 1.993325
C 2.238965 1.342280 2.210930
C 2.212058 1.721704 2.711176
C 2.741180 1.213582 2.775579
C 2.853690 1.782438 2.278681
C 2.940662 0.956639 1.939189
C 3.084851 1.501716 2.541265
C 3.579969 1.033637 2.502082
C 3.527554 1.514775 2.057953
C 3.245038 1.193713 2.188054
C 3.237839 1.753317 2.704177
C 3.775599 1.180501 2.787074
C 3.685869 1.747181 2.285198
C 3.957477 1.090354 1.920101
C 3.975876 1.515426 2.606608
C 4.454855 1.009005 2.499396
C 4.417026 1.528124 2.070562
C 4.284604 1.301296 2.311462
C 4.307680 1.650393 2.781570
C 4.816213 1.259213 2.829875
C 4.769890 1.711760 2.270214
C 4.960233 0.924946 1.959279
C 4.979351 1.520358 2.466242
C 5.514526 1.004688 2.563535
C 5.477052 1.485466 1.932814
C 5.305087 1.315540 2.263890
C 5.270348 1.693076 2.800183
C 5.668274 1.259461 2.717379
C 5.741009 1.811969 2.323245
C 0.055658 2.079786 2.052671
C 0.080318 2.456875 2.564975
C 0.576957 1.941937 2.530350
C 0.528021 2.549345 2.029613
C 0.256463 2.262322 2.255951
C 0.213076 2.734308 2.717021
C 0.770613 2.221591 2.729291
C 0.808043 2.638541 2.202522
C 0.921096 1.965905 1.952947
C 1.012146 2.486918 2.497503
C 1.452059 1.908529 2.503615
C 1.564329 2.499006 2.015876
C 1.175341 2.168519 2.289054
C 1.233208 2.688711 2.794245
C 1.740486 2.174878 2.824188
C 1.791987 2.791883 2.325913
C 1.984483 2.000279 2.003557
C 1.977049 2.420392 2.454013
C 2.611855 2.004848 2.455333
C 2.564645 2.455546 2.036989
C 2.278702 2.284831 2.295718
C 2.213489 2.758367 2.844148
C 2.673393 2.173515 2.696241
C 2.783321 2.761865 2.331616
C 2.944563 1.909912 1.975195
C 3.007593 2.558540 2.601397
C 3.539712 2.100873 2.503660
C 3.484655 2.532623 2.120599
C 3.335314 2.269622 2.177366
C 3.260025 2.697988 2.630548
C 3.787316 2.321036 2.797642
C 3.774979 2.705578 2.271274
C 3.924354 2.010832 2.008497
C 3.965514 2.520875 2.541534
C 4.473399 1.981484 2.481313
C 4.523094 2.501387 1.915371
C 4.209226 2.323285 2.248330
C 4.316881 2.777251 2.827008
C 4.667758 2.338416 2.763013
C 4.762897 2.670727 2.324122
C 5.007336 1.958988 1.981509
C 5.045258 2.599168 2.556745
C 5.469834 2.033487 2.545437
C 5.509396 2.598425 2.044693
C 5.301485 2.173618 2.237517
C 5.223930 2.820336 2.833097
C 5.693149 2.300402 2.729139
C 5.739023 2.754177 2.280267
C 0.035893 2.944578 2.039223
C 0.001684 3.505809 2.457197
C 0.491173 2.978818 2.520235
C 0.485750 3.598994 1.966821
C 0.167330 3.186947 2.259093
C 0.230519 3.698049 2.732390
C 0.703379 3.219098 2.836677
C 0.735770 3.737028 2.141039
C 0.988011 2.931935 2.033457
C 0.924136 3.588886 2.465547
C 1.505847 3.027214 2.488276
C 1.443501 3.541028 2.102067
C 1.156250 3.287070 2.248009
C 1.218770 3.773375 2.838869
C 1.741351 3.266002 2.735130
C 1.691290 3.789414 2.198141
C 1.914402 3.015006 2.075207
C 1.941791 3.582559 2.446816
C 2.483940 3.064339 2.538023
C 2.480381 3.579070 1.927330
C 2.344578 3.258578 2.280245
C 2.162822 3.782541 2.688721
C 2.837379 3.235949 2.796635
C 2.682116 3.755437 2.216949
C 2.967742 3.039900 2.084462
C 2.968566 3.488084 2.602735
C 3.474203 2.904281 2.476522
C 3.416421 3.458185 2.065446
C 3.384089 3.204490 2.269883
C 3.244721 3.699927 2.712786
C 3.746846 3.163276 2.703753
C 3.773379 3.741686 2.338061
C 4.077374 3.022951 1.945531
C 4.005884 3.504149 2.482656
C 4.549310 3.069028 2.475783
C 4.429893 3.437368 2.020880
C 4.194039 3.217423 2.233013
C 4.209720 3.754097 2.838800
C 4.780045 3.295489 2.625724
C 4.707151 3.665368 2.189154
C 4.925811 2.953128 2.073272
C 4.955660 3.559092 2.495533
C 5.483475 3.008499 2.426282
C 5.464662 3.542179 1.956339
C 5.164581 3.213168 2.204909
C 5.287919 3.683247 2.764374
C 5.679037 3.192523 2.802257
C 5.709136 3.845425 2.323917
C 0.026268 3.979196 1.910592
C 0.077898 4.436100 2.524703
C 0.587413 3.935634 2.466481
C 0.452774 4.429776 1.962708
C 0.306630 4.189269 2.229271
C 0.275266 4.775033 2.849154
C 0.693168 4.219334 2.620270
C 0.704060 4.738920 2.175366
C 0.979883 4.069934 1.999596
C 1.045110 4.462500 2.527229
C 1.555439 4.002675 2.577891
C 1.539600 4.420003 1.925367
C 1.233968 4.353575 2.229442
C 1.197146 4.719437 2.717484
C 1.700673 4.320265 2.738189
C 1.763480 4.820963 2.274518
C 2.040240 4.067349 2.076303
C 2.001529 4.472191 2.449194
C 2.523352 3.963807 2.474537
C 2.565735 4.524596 1.914461
C 2.275830 4.277594 2.291544
C 2.169623 4.753204 2.763310
C 2.855459 4.225956 2.778545
C 2.750307 4.687312 2.196530
C 3.023732 4.074072 1.976607
C 3.012502 4.466968 2.532555
C 3.521196 4.061370 2.515797
C 3.466566 4.437247 1.990168
C 3.217606 4.279600 2.209366
C 3.222233 4.684273 2.765068
C 3.812048 4.232604 2.765451
C 3.762899 4.750152 2.237367
C 3.990010 4.002380 1.950935
C 4.058105 4.534739 2.518573
C 4.582871 3.993392 2.415823
C 4.505183 4.584720 2.042680
C 4.264548 4.357069 2.247157
C 4.251958 4.725140 2.726091
C 4.718509 4.322515 2.789015
C 4.669492 4.700115 2.305311
C 4.957692 3.962817 2.012812
C 5.097401 4.514150 2.455229
C 5.451280 3.894809 2.497538
C 5.554316 4.602744 2.012638
C 5.318830 4.282544 2.206162
C 5.303271 4.747017 2.675187
C 5.672515 4.228531 2.788916
C 5.728636 4.754955 2.267199
C 0.040772 5.093919 2.077902
C 0.027019 5.427703 2.398040
C 0.474591 5.025134 2.498739
C 0.469307 5.535911 2.011360
C 0.346826 5.274264 2.281506
C 0.238138 5.734477 2.685370
C 0.713743 5.336557 2.711084
C 0.690645 5.737290 2.274498
C 0.990215 5.040836 2.043640
C 0.937341 5.506649 2.447116
C 1.468054 5.074746 2.388202
C 1.410603 5.502027 2.067450
C 1.206822 5.266552 2.135151
C 1.277785 5.667240 2.762195
C 1.708397 5.218355 2.810171
C 1.732700 5.624270 2.303295
C 2.027571 5.070094 1.933353
C 1.960585 5.502816 2.570781
C 2.468858 4.978363 2.469461
C 2.516796 5.591423 2.062235
C 2.343634 5.312392 2.193662
C 2.300395 5.652916 2.805293
C 2.690354 5.285403 2.732250
C 2.654656 5.744036 2.372795
C 2.948804 4.998602 1.943783
C 3.054310 5.460480 2.564326
C 3.565280 5.028595 2.469006
C 3.467698 5.456940 2.054347
C 3.230229 5.300564 2.284761
C 3.177328 5.713206 2.763159
C 3.687273 5.277775 2.812936
C 3.775923 5.736278 2.174262
C 3.889765 5.049230 2.008751
C 3.928591 5.455789 2.525130
C 4.492380 4.971667 2.421094
C 4.511357 5.537262 1.998513
C 4.195189 5.302264 2.276276
C 4.275729 5.648792 2.657920
C 4.709484 5.198187 2.674254
C 4.768337 5.725984 2.389617
C 4.973228 5.003999 2.015759
C 5.009548 5.507133 2.450912
C 5.433505 5.016601 2.482089
C 5.520240 5.488490 2.018966
C 5.302534 5.265300 2.314759
C 5.335583 5.709256 2.709551
C 5.733173 5.242268 2.834821
C 5.633717 5.697139 2.324382
C 0.010103 0.112278 2.983877
C 0.112057 0.389320 3.482837
C 0.466217 0.042750 3.484402
C 0.580051 0.475446 3.038702
C 0.306670 0.137620 3.221906
C 0.314574 0.776076 3.755737
C 0.691431 0.269087 3.649446
C 0.839570 0.731081 3.198063
C 1.065382 0.005125 2.946237
C 1.024243 0.468632 3.484405
C 1.448062 0.024640 3.513801
C 1.573841 0.439660 3.076951
C 1.201463 0.198252 3.296810
C 1.237232 0.718796 3.799526
C 1.822244 0.257116 3.741458
C 1.793706 0.784230 3.247135
C 1.967419 0.074147 3.081738
C 1.942442 0.526212 3.480612
C 2.493646 0.050981 3.601195
C 2.511979 0.471889 3.075751
C 2.339876 0.190606 3.244018
C 2.262576 0.712378 3.820008
C 2.697967 0.272252 3.696741
C 2.809489 0.735738 3.256560
C 3.001255 0.028789 2.975476
C 2.997843 0.486507 3.446425
C 3.472047 0.051272 3.474538
C 3.529793 0.454438 2.932127
C 3.234879 0.278744 3.326548
C 3.165988 0.701474 3.755745
C 3.675109 0.330320 3.741460
C 3.762319 0.721332 3.204584
C 4.082679 0.020394 2.978039
C 3.975858 0.443242 3.540485
C 4.460312 0.083643 3.522266
C 4.585677 0.481219 3.087541
C 4.232999 0.291984 3.157920
C 4.212673 0.789501 3.844476
C 4.851436 0.233082 3.720961
C 4.763076 0.734384 3.227344
C 5.052710 0.071842 2.937224
C 5.020851 0.447110 3.469465
C 5.608533 0.011148 3.583498
C 5.510455 0.409365 2.957083
C 5.197244 0.268548 3.244659
C 5.262222 0.728327 3.672659
C 5.722079 0.318909 3.877700
C 5.736732 0.627237 3.243298
C 0.039624 0.986526 3.033634
C 0.024576 1.508481 3.577526
C 0.584991 1.031842 3.570331
C 0.501140 1.592027 2.973840
C 0.265088 1.344014 3.327038
C 0.323572 1.705926 3.776433
C 0.774529 1.322653 3.733382
C 0.736282 1.848877 3.153309
C 1.063707 1.077158 3.043321
C 0.997539 1.517682 3.583619
C 1.468848 1.043757 3.488183
C 1.562179 1.516308 2.976405
C 1.367098 1.296711 3.299847
C 1.273156 1.683315 3.810803
C 1.685628 1.297592 3.742448
C 1.849174 1.707848 3.209233
C 1.986704 1.063040 3.094406
C 1.979441 1.371407 3.467736
C 2.421553 1.056268 3.533860
C 2.502920 1.552177 3.047756
C 2.305513 1.273860 3.227523
C 2.318093 1.770488 3.761223
C 2.645232 1.288483 3.701371
C 2.774001 1.842331 3.194823
C 3.056257 0.974419 2.916022
C 3.082702 1.550834 3.491572
C 3.539689 1.075838 3.464734
C 3.529071 1.530670 3.054885
C 3.254239 1.305397 3.310639
C 3.177107 1.860360 3.805549
C 3.719934 1.169179 3.804831
C 3.746391 1.757211 3.281469
C 3.994776 1.051255 3.010752
C 3.966269 1.471479 3.560703
C 4.536807 0.943689 3.593286
C 4.493610 1.488329 3.019066
C 4.231968 1.250981 3.338296
C 4.245133 1.765875 3.735436
C 4.718094 1.278597 3.825292
C 4.754008 1.799771 3.330038
C 5.055837 0.990038 3.005564
C 4.991087 1.557769 3.446797
C 5.447292 1.048399 3.545156
C 5.523519 1.495331 2.985698
C 5.149011 1.234955 3.239118
C 5.302219 1.746284 3.832002
C 5.687785 1.186807 3.760646
C 5.667351 1.632817 3.303845
C 0.020096 1.976354 2.917004
C 0.021140 2.453037 3.522871
C 0.450767 2.072758 3.486369
C 0.474997 2.590528 3.040559
C 0.334636 2.285691 3.261491
C 0.209098 2.720364 3.741496
C 0.798891 2.331926 3.729400
C 0.735788 2.670320 3.178476
C 0.955976 2.043278 2.973188
C 1.002669 2.602535 3.511302
C 1.438738 1.993543 3.539439
C 1.469320 2.463393 3.018215
C 1.302880 2.249749 3.312767
C 1.240340 2.809569 3.679748
C 1.746463 2.326605 3.751103
C 1.665804 2.790712 3.196181
C 2.012013 1.963141 3.018974
C 2.008156 2.568558 3.548647
C 2.491912 1.994741 3.499404
C 2.543500 2.493410 3.072470
C 2.286626 2.198509 3.275941
C 2.220006 2.740377 3.768715
C 2.740107 2.288591 3.786182
C 2.768285 2.696313 3.223786
C 3.045106 2.074621 3.004702
C 2.962929 2.466212 3.437571
C 3.440067 2.015583 3.554481
C 3.525800 2.483802 2.954223
C 3.359144 2.214809 3.298905
C 3.215930 2.673836 3.708795
C 3.769765 2.284501 3.818205
C 3.792929 2.816817 3.284882
C 3.975821 2.128416 3.000743
C 4.034076 2.463119 3.410835
C 4.536391 1.942424 3.596605
C 4.428973 2.530557 3.014268
C 4.288411 2.309662 3.294307
C 4.285682 2.811299 3.719070
C 4.729710 2.166822 3.661204
C 4.779074 2.751171 3.358023
C 4.970736 1.999026 3.018758
C 5.039221 2.476563 3.476106
C 5.535220 2.083105 3.455753
C 5.504989 2.520433 3.070019
C 5.249974 2.272521 3.305454
C 5.329432 2.791032 3.771135
C 5.746771 2.276353 3.680780
C 5.747677 2.655102 3.250186
C 0.010438 2.946816 2.934033
C 0.042676 3.482206 3.457129
C 0.441343 3.040230 3.595432
C 0.463750 3.437416 3.037840
C 0.241262 3.305209 3.242729
C 0.176272 3.734594 3.666087
C 0.754640 3.256063 3.817766
C 0.712640 3.695552 3.233583
C 1.003571 2.967007 3.104638
C 0.931076 3.521493 3.527216
C 1.454199 3.014222 3.513289
C 1.385957 3.477749 2.962958
C 1.294381 3.210031 3.275854
C 1.286874 3.818598 3.738014
C 1.725217 3.339318 3.765335
C 1.810931 3.743265 3.299930
C 2.015879 3.036464 3.030248
C 1.930936 3.486914 3.408040
C 2.545558 3.056926 3.543713
C 2.505662 3.528711 2.940899
C 2.311534 3.328750 3.167763
C 2.212530 3.836671 3.808526
C 2.754400 3.257308 3.817117
C 2.800558 3.681667 3.196386
C 3.110319 2.970687 2.990965
C 2.988919 3.587221 3.465763
C 3.562641 2.981505 3.562547
C 3.534171 3.445613 3.051204
C 3.214775 3.181565 3.254773
C 3.287705 3.741231 3.783947
C 3.742189 3.234816 3.693217
C 3.665931 3.697255 3.283836
C 3.963067 3.049176 3.078133
C 3.993187 3.429412 3.486000
C 4.462998 3.040283 3.436082
C 4.429384 3.516264 2.905619
C 4.174771 3.315640 3.236541
C 4.349994 3.722148 3.795106
C 4.694204 3.166393 3.774435
C 4.704892 3.751317 3.261743
C 4.920204 2.901894 3.005319
C 4.948625 3.499551 3.419777
C 5.520982 3.062187 3.466699
C 5.460000 3.425250 2.976177
C 5.259949 3.195056 3.175581
C 5.352812 3.708384 3.716226
C 5.650210 3.223958 3.795471
C 5.676170 3.714353 3.144772
C 0.059188 4.024599 3.012530
C 0.004202 4.494169 3.434055
C 0.480997 4.015644 3.519364
C 0.462477 4.459522 2.962288
C 0.224037 4.322200 3.176888
C 0.232591 4.790902 3.670805
C 0.750255 4.266666 3.706828
C 0.704704 4.795644 3.160827
C 0.976882 3.930630 2.998720
C 1.035121 4.517442 3.571405
C 1.536053 4.064828 3.463812
C 1.522139 4.540753 2.917889
C 1.264728 4.273976 3.240828
C 1.336618 4.679584 3.733319
C 1.731965 4.271659 3.757448
C 1.778318 4.738834 3.229819
C 2.010148 3.906601 3.061068
C 1.993076 4.521739 3.437553
C 2.514049 4.072944 3.511043
C 2.492665 4.430597 2.954575
C 2.137652 4.289599 3.248203
C 2.227203 4.843948 3.784386
C 2.762180 4.270984 3.687612
C 2.711402 4.819580 3.194323
C 3.029259 4.064550 3.029762
C 3.049467 4.442921 3.486797
C 3.504209 3.911361 3.543411
C 3.509917 4.497421 2.952526
C 3.304487 4.241364 3.318066
C 3.328982 4.697769 3.787757
C 3.768713 4.353246 3.795820
C 3.683021 4.698748 3.185245
C 4.010506 4.073550 3.011361
C 4.005360 4.424943 3.403688
C 4.501419 4.011697 3.453723
C 4.439691 4.602205 3.016670
C 4.231104 4.134431 3.240205
C 4.236642 4.694029 3.682533
C 4.849313 4.244430 3.811403
C 4.693217 4.719082 3.215278
C 4.996911 3.937685 3.084163
C 5.061223 4.511363 3.512095
C 5.441630 3.957194 3.512372
C 5.558208 4.429652 3.025815
C 5.228770 4.307195 3.270957
C 5.315249 4.760634 3.818436
C 5.726371 4.278331 3.681092
C 5.652137 4.708543 3.190034
C 0.051486 5.074329 3.029733
C 0.006178 5.539113 3.621192
C 0.480016 4.989496 3.604841
C 0.522898 5.443131 2.993833
C 0.157423 5.302824 3.231898
C 0.286919 5.739161 3.680081
C 0.705091 5.238799 3.856706
C 0.714788 5.688778 3.336533
C 0.965605 4.917532 2.965675
C 1.043376 5.512971 3.530930
C 1.517532 5.052845 3.535862
C 1.550634 5.511046 2.971806
C 1.280868 5.241707 3.307918
C 1.224647 5.666060 3.773794
C 1.762517 5.184450 3.778343
C 1.782120 5.712700 3.207889
C 1.902293 4.996233 3.014474
C 1.932612 5.580528 3.474621
C 2.459090 4.942885 3.510406
C 2.494456 5.423796 3.091220
C 2.193522 5.273594 3.252836
C 2.204663 5.732418 3.857429
C 2.816089 5.259854 3.761848
C 2.697703 5.731780 3.208432
C 2.997385 4.939397 3.021224
C 2.990100 5.496784 3.424590
C 3.460912 5.006068 3.559461
C 3.397474 5.458317 2.984521
C 3.276197 5.179496 3.317793
C 3.301282 5.680936 3.806505
C 3.825983 5.185174 3.756950
C 3.696119 5.623873 3.290140
C 4.059777 4.911861 2.973477
C 3.990879 5.434663 3.423280
C 4.551420 4.995967 3.570065
C 4.530569 5.556916 2.935049
C 4.158147 5.195513 3.239336
C 4.326115 5.738878 3.746809
C 4.846802 5.270361 3.732259
C 4.713978 5.714816 3.282838
C 4.930239 5.054457 2.935135
C 5.032863 5.512323 3.463218
C 5.553586 4.992770 3.435327
C 5.460791 5.550549 3.001883
C 5.158776 5.255108 3.298239
C 5.160032 5.737576 3.757888
C 5.723474 5.202238 3.701473
C 5.683427 5.730398 3.222528
C 0.067207 0.072257 3.910590
C 0.014161 0.556833 4.592502
C 0.509958 0.071364 4.509513
C 0.451504 0.546934 3.984066
C 0.204160 0.172228 4.194168
C 0.282070 0.848055 4.709628
C 0.835683 0.275881 4.779938
C 0.727254 0.754255 4.248504
C 0.937874 0.065897 3.970652
C 1.041911 0.597218 4.542680
C 1.571571 0.056905 4.461580
C 1.509614 0.575500 4.003274
C 1.277182 0.212296 4.304884
C 1.368788 0.781174 4.744821
C 1.752351 0.269479 4.702602
C 1.719904 0.732798 4.264165
C 1.979149 0.065114 4.022545
C 1.996743 0.554528 4.543110
C 2.420352 0.032850 4.390278
C 2.476394 0.450197 3.960317
C 2.277420 0.341008 4.244865
C 2.274776 0.809617 4.699911
C 2.678074 0.194926 4.808983
C 2.742652 0.667483 4.198246
C 3.079012 0.068385 3.925528
C 2.972929 0.509500 4.611092
C 3.504547 0.103887 4.478460
C 3.554986 0.440592 4.004898
C 3.219534 0.192323 4.270021
C 3.187434 0.779754 4.815060
C 3.824832 0.213528 4.700507
C 3.798755 0.735214 4.172474
C 4.069884 0.005171 3.890364
C 3.956924 0.527705 4.529485
C 4.509981 0.037948 4.424669
C 4.498499 0.481443 3.997852
C 4.281541 0.289443 4.225179
C 4.256175 0.788739 4.780858
C 4.748503 0.312583 4.749385
C 4.858106 0.738998 4.209814
C 4.916676 0.062901 4.017796
C 4.915297 0.535008 4.532082
C 5.591694 0.067733 4.529469
C 5.567935 0.541179 3.902870
C 5.275068 0.160017 4.229438
C 5.242900 0.730067 4.814320
C 5.639326 0.215982 4.771940
C 5.661439 0.715688 4.293512
C 0.007449 0.932800 4.039351
C 0.045709 1.556887 4.392944
C 0.551980 0.980514 4.619356
C 0.616025 1.492247 4.052906
C 0.273846 1.167364 4.287358
C 0.208784 1.649390 4.724896
C 0.683873 1.256801 4.745709
C 0.805588 1.799615 4.267668
C 1.038045 1.035241 3.914248
C 0.946702 1.525773 4.405441
C 1.463191 0.930934 4.463452
C 1.452697 1.427882 4.095066
C 1.187569 1.209569 4.191749
C 1.203964 1.647163 4.697501
C 1.665854 1.256972 4.722702
C 1.746103 1.786257 4.211349
C 2.033461 1.065942 4.058504
C 1.869629 1.486560 4.502955
C 2.544700 1.049543 4.543592
C 2.583266 1.463090 3.942206
C 2.328845 1.203928 4.247843
C 2.168001 1.695884 4.793287
C 2.746785 1.264896 4.731794
C 2.851564 1.784929 4.275705
C 2.930049 1.074766 3.968454
C 2.940828 1.449998 4.499582
C 3.502554 0.912930 4.450364
C 3.487597 1.609337 3.964250
C 3.290922 1.222863 4.260602
C 3.262843 1.727926 4.729943
C 3.725569 1.236409 4.745652
C 3.723822 1.820137 4.162455
C 3.935229 0.966966 3.974056
C 3.928994 1.467862 4.517029
C 4.502516 0.973529 4.388789
C 4.464296 1.553928 3.930625
C 4.186954 1.226213 4.293466
C 4.201063 1.733612 4.708912
C 4.800320 1.252617 4.698384
C 4.836512 1.752744 4.293542
C 4.937866 0.989512 3.989631
C 4.913332 1.485495 4.487816
C 5.533129 0.987177 4.412613
C 5.594531 1.568026 3.958999
C 5.266441 1.256126 4.359454
C 5.278424 1.797121 4.849923
C 5.741432 1.303493 4.802481
C 5.659951 1.654370 4.210428
C 0.023736 1.828602 3.964223
C 0.041616 2.498067 4.452819
C 0.424203 2.000449 4.526343
C 0.456539 2.415420 3.998178
C 0.191966 2.190427 4.238986
C 0.263346 2.722973 4.699262
C 0.792496 2.265611 4.760126
C 0.786562 2.753007 4.262500
C 0.939869 2.001315 4.016632
C 0.945097 2.451546 4.515307
C 1.426659 2.001583 4.475939
C 1.508217 2.499100 3.960947
C 1.196633 2.301315 4.288848
C 1.145389 2.721040 4.739804
C 1.753587 2.273825 4.796670
C 1.765453 2.769960 4.135549
C 2.039570 2.042046 4.043845
C 1.923100 2.536311 4.548438
C 2.563208 2.012768 4.479522
C 2.410699 2.508357 4.066293
C 2.208142 2.244978 4.266835
C 2.269435 2.697886 4.737865
C 2.797114 2.263820 4.706912
C 2.661735 2.733400 4.286487
C 3.054488 1.993389 4.092195
C 2.918125 2.498193 4.495648
C 3.545562 1.934354 4.481296
C 3.551715 2.502814 3.942808
C 3.302795 2.287737 4.243340
C 3.298152 2.756023 4.769093
C 3.784696 2.285431 4.826448
C 3.683270 2.799532 4.318109
C 4.020106 1.908247 3.942691
C 4.000406 2.585402 4.558241
C 4.511390 1.945426 4.555205
C 4.488415 2.517107 3.960949
C 4.266855 2.196436 4.229767
C 4.225754 2.671360 4.761663
C 4.695725 2.311500 4.795876
C 4.829831 2.767460 4.223774
C 4.943021 1.929331 4.038454
C 4.993916 2.578374 4.515885
C 5.523449 2.059389 4.493896
C 5.517645 2.430354 3.967980
C 5.282399 2.232698 4.373711
C 5.256963 2.803274 4.798224
C 5.719920 2.234817 4.703215
C 5.712826 2.607212 4.318617
C 0.038506 2.940659 3.970809
C 0.064801 3.536146 4.460957
C 0.462061 3.072982 4.534274
C 0.421801 3.514048 4.065069
C 0.248269 3.240274 4.283685
C 0.186199 3.780494 4.693978
C 0.759839 3.233852 4.692806
C 0.764042 3.824326 4.196293
C 1.032844 2.952134 4.033370
C 0.956431 3.447963 4.458593
C 1.506561 3.045685 4.550955
C 1.469939 3.503531 3.997408
C 1.277287 3.308690 4.219642
C 1.212008 3.715662 4.844864
C 1.674577 3.304327 4.740153
C 1.770940 3.756028 4.245957
C 2.067782 2.967386 4.021465
C 2.042661 3.538062 4.539876
C 2.435841 3.052628 4.440820
C 2.501458 3.447320 3.959758
C 2.250112 3.254124 4.144141
C 2.266166 3.641586 4.770095
C 2.783888 3.274497 4.800177
C 2.755873 3.761977 4.293808
C 2.988516 3.055875 4.016255
C 2.947790 3.484769 4.467028
C 3.457089 2.999067 4.464202
C 3.599365 3.529939 4.010698
C 3.238624 3.237294 4.148284
C 3.325200 3.704221 4.818637
C 3.799242 3.233670 4.660790
C 3.803258 3.847161 4.271755
C 4.074203 3.016883 3.960331
C 4.040382 3.580998 4.467607
C 4.513451 3.090482 4.515250
C 4.450786 3.537401 4.081820
C 4.182033 3.218232 4.212048
C 4.139645 3.756195 4.744943
C 4.689992 3.313115 4.798335
C 4.743488 3.766749 4.180573
C 5.048973 3.053196 4.005124
C 5.001721 3.540294 4.404292
C 5.536476 2.951398 4.463038
C 5.530326 3.508477 3.969947
C 5.241718 3.168277 4.252311
C 5.184043 3.788580 4.650020
C 5.732181 3.258688 4.812305
C 5.722967 3.835352 4.246642
C 0.009153 3.911505 3.939576
C 0.017159 4.433744 4.402710
C 0.507244 3.985654 4.585172
C 0.534592 4.488874 3.911816
C 0.281782 4.237254 4.196075
C 0.325129 4.677597 4.762936
C 0.777407 4.277261 4.748489
C 0.774564 4.725618 4.203324
C 1.106422 3.984447 4.090342
C 1.057374 4.455826 4.447944
C 1.472974 4.058760 4.539894
C 1.534221 4.417104 4.059293
C 1.283389 4.234078 4.205517
C 1.324610 4.711287 4.795564
C 1.642981 4.281488 4.799136
C 1.813022 4.776184 4.295955
C 1.949565 3.914534 3.997883
C 2.064224 4.498971 4.468198
C 2.585534 4.052816 4.492862
C 2.521614 4.486379 4.067695
C 2.185539 4.251674 4.283596
C 2.328135 4.726464 4.831469
C 2.732177 4.274747 4.805162
C 2.808364 4.699831 4.250958
C 3.027731 4.067843 3.956251
C 3.033858 4.539640 4.578074
C 3.566301 4.078388 4.510680
C 3.571633 4.506305 4.017538
C 3.345644 4.276047 4.258843
C 3.324162 4.726761 4.683607
C 3.788408 4.302367 4.814419
C 3.804274 4.732908 4.268915
C 3.990341 4.076525 3.936974
C 3.911637 4.439985 4.505785
C 4.587657 3.981384 4.501389
C 4.483033 4.573756 3.963669
C 4.273716 4.207151 4.169359
C 4.318517 4.829925 4.708822
C 4.714418 4.297357 4.666702
C 4.761088 4.752349 4.284093
C 5.054173 3.969631 3.957163
C 5.041567 4.447217 4.444675
C 5.438194 4.062283 4.540351
C 5.419458 4.436798 3.997368
C 5.228409 4.224312 4.212748
C 5.267672 4.694754 4.717439
C 5.699075 4.295673 4.624385
C 5.662308 4.841644 4.234737
C 0.064333 5.079705 4.059179
C 0.061384 5.494809 4.421130
C 0.479216 4.990873 4.499179
C 0.514466 5.587723 3.928327
C 0.304647 5.226258 4.300801
C 0.319485 5.742462 4.760492
C 0.759406 5.271765 4.682422
C 0.821043 5.688739 4.187138
C 1.064918 5.015194 4.006899
C 1.076988 5.491242 4.438841
C 1.405604 4.891599 4.486999
C 1.483746 5.420518 3.923135
C 1.281391 5.242933 4.182571
C 1.207413 5.676197 4.718368
C 1.670843 5.291508 4.783507
C 1.813792 5.743097 4.214936
C 2.034719 5.041721 4.069052
C 1.894052 5.449130 4.535560
C 2.565780 4.954438 4.446617
C 2.548258 5.430599 4.002987
C 2.218795 5.303458 4.349081
C 2.249569 5.724808 4.867408
C 2.844008 5.221685 4.715317
C 2.684467 5.667365 4.228142
C 3.035255 5.045677 4.076077
C 2.950765 5.410044 4.392182
C 3.426489 4.976714 4.500723
C 3.585099 5.502419 4.063807
C 3.300602 5.310668 4.176655
C 3.278339 5.717416 4.846653
C 3.723127 5.245255 4.695814
C 3.848204 5.675044 4.222505
C 3.976849 5.023099 4.043081
C 3.992867 5.488079 4.562321
C 4.495586 5.015972 4.480626
C 4.486775 5.563444 4.064577
C 4.232694 5.234813 4.271813
C 4.176246 5.735876 4.784614
C 4.759289 5.254824 4.736195
C 4.728721 5.712177 4.318358
C 4.994601 5.028496 3.997247
C 5.021120 5.463328 4.543572
C 5.420369 4.981746 4.482601
C 5.455022 5.452987 3.929969
C 5.206611 5.228063 4.321221
C 5.350845 5.710180 4.725214
C 5.713389 5.224965 4.794340
C 5.716522 5.728557 4.207872
C 0.038971 0.098492 4.918139
C 0.027909 0.461503 5.574059
C 0.381157 0.061565 5.506755
C 0.538441 0.399581 5.037093
C 0.236474 0.182418 5.249802
C 0.322933 0.691906 5.677503
C 0.691351 0.236055 5.742192
C 0.859125 0.751234 5.267421
C 1.096153 0.015745 4.938086
C 1.004718 0.516949 5.475354
C 1.517021 0.042888 5.485931
C 1.568711 0.599627 4.979003
C 1.212373 0.237813 5.200246
C 1.306715 0.829325 5.684325
C 1.825425 0.258500 5.703692
C 1.789714 0.739011 5.251536
C 2.097066 0.023499 5.041488
C 1.974141 0.431999 5.455833
C 2.365821 0.045043 5.544257
C 2.538360 0.473019 4.957449
C 2.233855 0.232983 5.305232
C 2.315596 0.707372 5.721211
C 2.678680 0.216419 5.714612
C 2.778877 0.678949 5.178687
C 2.984254 0.068459 4.965310
C 2.930182 0.479832 5.566417
C 3.426534 0.025953 5.523615
C 3.566572 0.500274 4.899300
C 3.346517 0.207040 5.166532
C 3.303867 0.661943 5.747285
C 3.797689 0.221419 5.680366
C 3.766059 0.748815 5.219068
C 4.038920 0.046895 5.037825
C 4.008904 0.413586 5.440135
C 4.423712 0.004878 5.523893
C 4.515380 0.618905 5.015230
C 4.299200 0.250680 5.271942
C 4.304768 0.688002 5.627492
C 4.840423 0.312220 5.735950
C 4.759150 0.785241 5.207275
C 5.065473 0.060986 5.097047
C 4.944635 0.559283 5.520668
C 5.490959 0.042147 5.575272
C 5.542297 0.480607 4.919695
C 5.337410 0.280613 5.142163
C 5.223493 0.761352 5.619265
C 5.701227 0.263682 5.702274
C 5.665694 0.666377 5.234964
C 0.091801 0.919343 4.957300
C 0.024750 1.550737 5.410791
C 0.433748 0.994235 5.554217
C 0.500935 1.460481 5.027778
C 0.215694 1.302517 5.244757
C 0.247282 1.745779 5.739581
C 0.850029 1.255668 5.743233
C 0.678900 1.691175 5.230357
C 1.026535 1.018241 4.996367
C 1.043735 1.454724 5.482250
C 1.517299 1.003067 5.486107
C 1.486849 1.570629 5.052981
C 1.223498 1.180587 5.287507
C 1.254654 1.610307 5.723998
C 1.739139 1.271138 5.659128
C 1.677599 1.773435 5.281517
C 1.980247 0.993176 5.069453
C 2.079408 1.498204 5.543069
C 2.494288 1.043660 5.607016
C 2.431641 1.515909 4.972160
C 2.114376 1.247544 5.253469
C 2.354965 1.710936 5.729733
C 2.817885 1.143692 5.689157
C 2.746357 1.725574 5.346053
C 2.922146 1.014762 5.082398
C 3.024906 1.546817 5.435045
C 3.538114 1.058540 5.549095
C 3.469166 1.516062 5.007149
C 3.193556 1.223020 5.356573
C 3.327728 1.838259 5.742745
C 3.785124 1.219488 5.710175
C 3.854368 1.754464 5.286567
C 4.027941 1.089038 5.005312
C 4.100762 1.455989 5.423986
C 4.397688 0.981489 5.476025
C 4.540618 1.432540 4.997493
C 4.320085 1.237858 5.268764
C 4.281787 1.797260 5.704214
C 4.635250 1.210090 5.692029
C 4.749643 1.709985 5.185982
C 5.016209 1.059856 4.967108
C 4.995084 1.436841 5.567899
C 5.536168 1.020697 5.491794
C 5.540003 1.420988 5.046403
C 5.314161 1.215189 5.257570
C 5.335179 1.692073 5.749551
C 5.711485 1.333265 5.728199
C 5.733059 1.724779 5.334954
C 0.056747 1.980870 5.067087
C 0.006646 2.519761 5.601677
C 0.532945 1.961830 5.480007
C 0.449380 2.506449 5.037941
C 0.248303 2.303479 5.298716
C 0.221764 2.683449 5.603804
C 0.673889 2.298678 5.665883
C 0.790403 2.698108 5.163496
C 1.061260 2.008682 5.004919
C 1.071051 2.477753 5.470503
C 1.576682 2.013805 5.480896
C 1.469512 2.527809 4.886026
C 1.359184 2.277074 5.306549
C 1.266342 2.873797 5.736508
C 1.816715 2.168149 5.746646
C 1.848401 2.773244 5.222350
C 2.011649 2.038275 4.918217
C 2.056939 2.573672 5.466599
C 2.460434 2.057842 5.530324
C 2.461858 2.539640 4.993317
C 2.200581 2.240854 5.202830
C 2.177466 2.730709 5.739690
C 2.783673 2.237102 5.663221
C 2.800280 2.701227 5.192219
C 3.108628 1.944275 5.015602
C 2.956471 2.498001 5.494962
C 3.509866 2.078146 5.480326
C 3.531618 2.507804 5.002268
C 3.168647 2.212301 5.270522
C 3.195891 2.797648 5.688745
C 3.822638 2.314284 5.679755
C 3.745593 2.848539 5.300754
C 4.024377 2.040216 5.009018
C 4.098766 2.542985 5.485860
C 4.584528 1.935755 5.468438
C 4.446808 2.457833 4.993367
C 4.333951 2.237342 5.331824
C 4.339902 2.705646 5.662955
C 4.786547 2.195172 5.663215
C 4.776236 2.652986 5.268085
C 5.032783 1.995787 4.933601
C 5.049364 2.529926 5.415955
C 5.609801 1.972132 5.496732
C 5.611873 2.498253 5.020890
C 5.240242 2.189420 5.193042
C 5.342766 2.700192 5.747707
C 5.636456 2.191467 5.707749
C 5.698077 2.749778 5.269467
C 0.028342 3.001514 5.087437
C 0.058523 3.390054 5.502233
C 0.485943 3.001072 5.574505
C 0.537015 3.445122 5.053963
C 0.286757 3.182836 5.264804
C 0.189178 3.651823 5.743710
C 0.673186 3.269640 5.723333
C 0.796613 3.810889 5.302364
C 0.935558 2.990829 4.931393
C 1.021035 3.505109 5.506813
C 1.524750 2.896908 5.458910
C 1.528238 3.411031 5.065510
C 1.199964 3.200039 5.326312
C 1.343672 3.807308 5.699756
C 1.733680 3.282040 5.715743
C 1.740766 3.785569 5.310727
C 1.984052 3.052981 5.104140
C 1.996627 3.612836 5.474048
C 2.449798 3.058102 5.579123
C 2.530687 3.422598 5.025247
C 2.237589 3.284103 5.163766
C 2.264063 3.691726 5.612056
C 2.789151 3.312738 5.710223
C 2.714310 3.757737 5.236679
C 2.990876 3.032526 5.071472
C 3.038852 3.580733 5.529939
C 3.464861 2.935664 5.520978
C 3.591791 3.513616 5.046677
C 3.282340 3.289646 5.273799
C 3.390128 3.785537 5.739790
C 3.811878 3.245934 5.730977
C 3.805681 3.768828 5.263187
C 3.967733 2.982073 5.026708
C 3.995294 3.598852 5.561343
C 4.446074 2.977445 5.603888
C 4.505586 3.524191 5.050142
C 4.275790 3.231251 5.326785
C 4.272692 3.782858 5.702456
C 4.750022 3.260382 5.654587
C 4.694592 3.873473 5.284494
C 5.039080 3.012145 5.004961
C 5.029234 3.599257 5.457887
C 5.507676 2.881087 5.519725
C 5.565435 3.550408 4.983219
C 5.194348 3.231301 5.207885
C 5.117112 3.714905 5.734806
C 5.737986 3.227963 5.666714
C 5.726394 3.766771 5.341682
C 0.035080 4.139798 4.938433
C 0.051697 4.467681 5.571855
C 0.503860 3.972352 5.473755
C 0.460274 4.588570 5.040273
C 0.313216 4.192047 5.265662
C 0.298733 4.764188 5.740729
C 0.774844 4.323977 5.741080
C 0.681993 4.719833 5.307288
C 0.987100 3.955620 4.916483
C 1.069890 4.586829 5.537783
C 1.434132 3.972481 5.435039
C 1.614968 4.501079 4.966105
C 1.211850 4.219286 5.260574
C 1.145009 4.836584 5.728899
C 1.842437 4.280423 5.678587
C 1.769449 4.820329 5.237460
C 1.935162 3.928305 5.026731
C 1.928727 4.524127 5.439174
C 2.557319 3.945672 5.581906
C 2.459399 4.456257 4.904899
C 2.186583 4.224940 5.306328
C 2.268875 4.768385 5.734311
C 2.798867 4.321297 5.659634
C 2.849829 4.804768 5.322291
C 2.984288 4.050154 4.924939
C 3.042207 4.541585 5.559874
C 3.409868 3.984407 5.468840
C 3.505906 4.568423 5.012841
C 3.312893 4.249101 5.297415
C 3.244447 4.782533 5.717605
C 3.667130 4.215471 5.737108
C 3.754717 4.843875 5.233562
C 3.945172 3.940720 5.020963
C 3.999025 4.481319 5.589874
C 4.566365 4.008654 5.549110
C 4.440682 4.455792 4.967119
C 4.285167 4.185040 5.285850
C 4.181829 4.715917 5.677183
C 4.758880 4.248229 5.656098
C 4.786188 4.639343 5.176594
C 4.947520 3.948110 5.041716
C 4.955933 4.548827 5.462597
C 5.592015 4.045427 5.499427
C 5.476244 4.498667 5.047574
C 5.224593 4.325048 5.188902
C 5.262659 4.843580 5.711727
C 5.728835 4.412005 5.686593
C 5.735232 4.638896 5.227740
C 0.002680 4.871718 5.010402
C 0.098153 5.522743 5.488066
C 0.473630 5.010587 5.600693
C 0.427403 5.455098 4.968011
C 0.248257 5.193135 5.200210
C 0.288944 5.653160 5.722513
C 0.729116 5.133928 5.712004
C 0.716477 5.670227 5.317273
C 0.895936 4.976459 5.000233
C 0.988035 5.542017 5.440349
C 1.432607 4.983638 5.540127
C 1.546071 5.568266 4.983975
C 1.195113 5.252797 5.193834
C 1.244798 5.740602 5.748390
C 1.645336 5.263208 5.736878
C 1.843645 5.737334 5.263155
C 2.021830 5.000755 4.985776
C 2.018071 5.529927 5.599884
C 2.478230 5.039662 5.484320
C 2.510231 5.482678 4.954172
C 2.291294 5.166107 5.198282
C 2.360331 5.723425 5.736214
C 2.645921 5.255458 5.748459
C 2.706935 5.724139 5.235622
C 3.052859 4.988708 4.999782
C 3.017678 5.533965 5.579399
C 3.557214 5.048326 5.424346
C 3.511108 5.535584 5.087867
C 3.262383 5.270111 5.203716
C 3.336798 5.613801 5.721940
C 3.715359 5.252927 5.736752
C 3.751735 5.721963 5.318004
C 3.960306 5.060486 4.980715
C 3.924566 5.453213 5.431461
C 4.541554 4.872555 5.471234
C 4.534489 5.564877 5.038236
C 4.205407 5.271280 5.303999
C 4.228081 5.617703 5.725424
C 4.695266 5.231172 5.620695
C 4.732761 5.697479 5.289604
C 4.953430 4.977764 4.899879
C 5.016176 5.558895 5.526571
C 5.618818 4.996012 5.444586
C 5.480133 5.537240 4.996002
C 5.133546 5.199892 5.218233
C 5.272027 5.747118 5.616258
C 5.665732 5.244718 5.718966
C 5.716458 5.720496 5.290977
1728
Frame 7/10
C 0.103307 0.003238 0.061871
C 0.083302 0.459010 0.488445
C 0.595484 0.107179 0.492270
C 0.508675 0.472963 0.099371
C 0.320465 0.233756 0.262488
C 0.230344 0.749197 0.688167
C 0.701862 0.193074 0.794286
C 0.781076 0.858105 0.254509
C 0.989159 0.061959 0.070468
C 0.979377 0.572114 0.468434
C 1.537947 0.071587 0.531318
C 1.596563 0.442933 0.012148
C 1.146136 0.277830 0.240079
C 1.244584 0.726704 0.747813
C 1.794015 0.309333 0.624166
C 1.707039 0.717356 0.146557
C 2.067710 0.025241 0.007655
C 1.909312 0.570534 0.497000
C 2.619134 0.026164 0.563432
C 2.612211 0.458734 0.023708
C 2.300966 0.129443 0.255106
C 2.226202 0.712660 0.875754
C 2.833221 0.193695 0.742951
C 2.825962 0.709483 0.317299
C 2.929094 0.060294 0.044901
C 3.038747 0.535339 0.521233
C 3.574998 0.076078 0.451098
C 3.616610 0.547131 0.020449
C 3.330183 0.256979 0.272600
C 3.208552 0.768931 0.639283
C 3.655817 0.219020 0.710216
C 3.801069 0.761542 0.216868
C 4.100051 0.005683 0.091439
C 4.051615 0.582128 0.520990
C 4.491484 0.083622 0.405901
C 4.487593 0.486960 0.028468
C 4.173414 0.232199 0.342697
C 4.199621 0.772544 0.757160
C 4.757532 0.252140 0.862623
C 4.728635 0.745340 0.194385
C 4.867966 0.093095 0.042652
C 4.968451 0.476709 0.369438
C 5.404588 0.080962 0.589043
C 5.599608 0.503156 0.015634
C 5.252594 0.242167 0.131435
C 5.207609 0.698727 0.792187
C 5.710380 0.267364 0.751694
C 5.628186 0.708804 0.224310
C 0.012954 0.962909 0.084868
C 0.004915 1.466449 0.560228
C 0.476608 0.919726 0.429392
C 0.486469 1.481974 0.035727
C 0.251031 1.168489 0.252883
C 0.156953 1.759978 0.834950
C 0.786663 1.343583 0.752953
C 0.755495 1.658891 0.177694
C 1.018004 0.880282 0.067055
C 1.030908 1.580985 0.502307
C 1.453686 0.970155 0.496322
C 1.464607 1.421087 0.029293
C 1.266367 1.174521 0.224106
C 1.230903 1.747236 0.795225
C 1.782402 1.170894 0.703407
C 1.742556 1.716694 0.122585
C 1.986806 1.022202 0.000994
C 1.993125 1.549729 0.450924
C 2.515405 1.020725 0.608075
C 2.372755 1.532372 0.008472
C 2.254620 1.186547 0.169530
C 2.153111 1.694160 0.744117
C 2.700879 1.243768 0.638597
C 2.836911 1.691520 0.186239
C 2.917186 1.052965 0.119287
C 2.987611 1.434502 0.584572
C 3.499078 1.003287 0.431536
C 3.537226 1.649249 0.032087
C 3.168460 1.195053 0.203893
C 3.270075 1.674882 0.853117
C 3.729134 1.234766 0.691162
C 3.800056 1.710001 0.181652
C 4.051612 0.924614 0.004160
C 4.116022 1.512108 0.533397
C 4.560595 0.959619 0.426209
C 4.620994 1.402750 0.022341
C 4.321009 1.243964 0.302455
C 4.225566 1.774561 0.825756
C 4.690773 1.269648 0.864637
C 4.712821 1.879065 0.280460
C 4.873233 1.008311 0.023783
C 5.100119 1.474942 0.524910
C 5.410781 1.017451 0.538961
C 5.582264 1.526478 0.000254
C 5.233212 1.328714 0.253053
C 5.222943 1.734888 0.644244
C 5.712691 1.175784 0.765997
C 5.643092 1.742994 0.212665
C 0.148489 2.014032 0.092949
C 0.044534 2.460405 0.617998
C 0.514732 1.991910 0.439460
C 0.462778 2.521729 0.090509
C 0.202534 2.303086 0.186306
C 0.238259 2.672573 0.791004
C 0.807026 2.290184 0.823077
C 0.845098 2.759249 0.201541
C 0.989052 2.107137 0.006504
C 0.945325 2.582049 0.433077
C 1.531547 2.080551 0.514832
C 1.488698 2.596100 0.107853
C 1.265527 2.211486 0.228906
C 1.236300 2.821432 0.682955
C 1.799437 2.170007 0.732318
C 1.777765 2.783726 0.357552
C 2.100590 1.973174 0.067262
C 2.108261 2.554163 0.482163
C 2.521028 1.982605 0.563164
C 2.576052 2.622969 0.024893
C 2.190231 2.229941 0.179226
C 2.345907 2.870225 0.723391
C 2.801591 2.168345 0.734825
C 2.774221 2.593693 0.218624
C 2.940638 2.082587 0.037580
C 3.059936 2.407574 0.535445
C 3.593006 2.070869 0.528954
C 3.507783 2.443343 0.035139
C 3.244483 2.339719 0.175239
C 3.224479 2.822942 0.697277
C 3.773622 2.136338 0.832760
C 3.651294 2.679328 0.225932
C 3.898192 1.974819 0.010694
C 4.064282 2.388599 0.418664
C 4.416041 1.979439 0.467381
C 4.602580 2.630656 0.024555
C 4.156101 2.258322 0.159345
C 4.175876 2.783935 0.815754
C 4.662017 2.183092 0.760444
C 4.839881 2.705968 0.282237
C 5.021901 1.924070 0.045808
C 5.061730 2.532649 0.583654
C 5.380348 1.977092 0.505980
C 5.507288 2.334780 0.035199
C 5.321854 2.164510 0.247106
C 5.310919 2.763207 0.805744
C 5.691218 2.304033 0.818798
C 5.676259 2.738091 0.188181
C 0.071377 2.921357 0.016796
C 0.018239 3.501699 0.379593
C 0.486625 2.917322 0.449083
C 0.491721 3.583040 0.004350
C 0.218338 3.282376 0.195685
C 0.335359 3.745012 0.676003
C 0.667735 3.202580 0.784818
C 0.836117 3.779323 0.260337
C 0.854637 2.967073 0.019637
C 0.934257 3.428636 0.453825
C 1.533661 3.006433 0.536625
C 1.599182 3.487054 0.103579
C 1.116700 3.289515 0.216455
C 1.312326 3.704973 0.706959
C 1.715503 3.252740 0.813044
C 1.827965 3.813086 0.179162
C 1.953276 3.070711 0.027697
C 2.047770 3.400340 0.579774
C 2.551171 2.990927 0.443108
C 2.501799 3.505990 0.037816
C 2.171119 3.290814 0.277769
C 2.160383 3.731397 0.736099
C 2.822900 3.153590 0.777960
C 2.876502 3.759777 0.216208
C 2.941854 2.999277 0.012885
C 3.046247 3.409981 0.395759
C 3.607975 2.997815 0.423483
C 3.433380 3.520601 0.105774
C 3.286686 3.244790 0.270855
C 3.230211 3.855683 0.733424
C 3.831085 3.278492 0.752993
C 3.732195 3.790677 0.165592
C 3.885600 2.961979 0.048078
C 3.978892 3.452719 0.496788
C 4.469384 2.951228 0.384856
C 4.496905 3.502796 0.092659
C 4.135405 3.323283 0.175834
C 4.259782 3.659148 0.690194
C 4.832552 3.278789 0.674981
C 4.762710 3.816785 0.142219
C 5.007766 3.058673 0.004543
C 4.885885 3.513735 0.492495
C 5.529946 3.080206 0.522729
C 5.504524 3.431447 0.115388
C 5.162919 3.291957 0.232237
C 5.247329 3.617135 0.734839
C 5.729766 3.204137 0.813510
C 5.746046 3.707315 0.317672
C 0.009446 4.051971 0.090669
C 0.000907 4.429701 0.410640
C 0.567487 4.047603 0.597838
C 0.540731 4.557954 0.069100
C 0.230553 4.238444 0.223857
C 0.184094 4.811799 0.745583
C 0.744921 4.274353 0.820534
C 0.767448 4.653723 0.282640
C 0.996872 4.152775 0.088884
C 0.978635 4.486296 0.553406
C 1.595469 4.073021 0.445412
C 1.344471 4.452396 0.015070
C 1.227169 4.124386 0.285380
C 1.197296 4.877130 0.680512
C 1.667137 4.282224 0.747400
C 1.686666 4.789240 0.358435
C 2.119315 4.094266 0.030198
C 2.000800 4.575397 0.407399
C 2.536426 3.947134 0.593414
C 2.410062 4.595647 0.090090
C 2.274612 4.331736 0.162021
C 2.320834 4.726977 0.757463
C 2.674855 4.279554 0.695400
C 2.750794 4.757833 0.324041
C 3.049988 4.014382 0.028118
C 3.006502 4.422587 0.510857
C 3.494526 3.986701 0.608431
C 3.503304 4.636587 0.018418
C 3.355438 4.216979 0.234048
C 3.257031 4.801585 0.770874
C 3.843497 4.218109 0.785540
C 3.731095 4.734429 0.226701
C 4.005186 3.969607 0.007826
C 4.058314 4.509264 0.522558
C 4.446669 3.891718 0.411909
C 4.555563 4.590245 0.101390
C 4.326409 4.192148 0.311639
C 4.356976 4.670802 0.662652
C 4.784072 4.196158 0.773558
C 4.681536 4.775224 0.328287
C 5.060508 3.904354 0.047599
C 4.987853 4.426431 0.515000
C 5.528927 3.952355 0.596108
C 5.468176 4.467538 0.012683
C 5.218994 4.271494 0.314396
C 5.323615 4.847315 0.694544
C 5.655085 4.274984 0.697691
C 5.723427 4.799260 0.300259
C 0.000652 5.096096 0.134768
C 0.011827 5.418631 0.385563
C 0.504877 4.937605 0.515891
C 0.486278 5.601421 0.010655
C 0.292846 5.215063 0.234690
C 0.227944 5.693735 0.821611
C 0.651279 5.282686 0.708353
C 0.741751 5.721068 0.335894
C 1.084579 4.910922 0.041301
C 1.021491 5.596263 0.521969
C 1.414891 4.968895 0.422107
C 1.597178 5.399666 0.035461
C 1.336167 5.292153 0.247484
C 1.226957 5.600353 0.728322
C 1.787657 5.299469 0.878522
C 1.779434 5.736945 0.277236
C 1.886053 5.031342 0.006080
C 1.957415 5.512077 0.640675
C 2.547141 5.064862 0.584607
C 2.609097 5.449235 0.071638
C 2.236464 5.341734 0.257700
C 2.218708 5.719589 0.753550
C 2.852680 5.290923 0.703837
C 2.654752 5.710633 0.194003
C 3.054628 4.905469 0.001100
C 3.004835 5.542314 0.550474
C 3.505101 4.939349 0.446311
C 3.418916 5.563092 0.088381
C 3.137071 5.208264 0.253897
C 3.391363 5.662557 0.653632
C 3.708237 5.264663 0.793307
C 3.732788 5.668131 0.347125
C 3.871155 5.041224 0.003730
C 3.934083 5.393229 0.550405
C 4.591491 5.012896 0.547510
C 4.451503 5.399133 0.046420
C 4.385718 5.210359 0.274137
C 4.224326 5.671065 0.706813
C 4.711343 5.294798 0.663537
C 4.903640 5.671751 0.285302
C 4.950490 4.976115 0.094201
C 5.058981 5.460565 0.531873
C 5.479850 4.982479 0.400210
C 5.525311 5.405747 0.031814
C 5.203255 5.195514 0.291408
C 5.366042 5.674608 0.741027
C 5.741866 5.205331 0.634196
C 5.736547 5.668595 0.144839
C 0.032921 0.040516 0.993532
C 0.045950 0.445882 1.395483
C 0.459838 0.077891 1.392684
C 0.532197 0.414182 0.941077
C 0.297983 0.125630 1.152273
C 0.152099 0.687191 1.756516
C 0.661929 0.286988 1.830101
C 0.641628 0.786388 1.244161
C 0.904397 0.001283 0.989666
C 1.123922 0.500229 1.515507
C 1.488121 0.056207 1.511513
C 1.442736 0.506766 1.068429
C 1.365409 0.277872 1.272736
C 1.313430 0.706792 1.687951
C 1.678998 0.184398 1.741750
C 1.855581 0.660026 1.239092
C 2.073302 0.016683 0.977194
C 2.073542 0.514832 1.542400
C 2.671021 0.055636 1.482968
C 2.499336 0.387865 0.982768
C 2.255939 0.377760 1.202825
C 2.295626 0.692004 1.872205
C 2.798778 0.313931 1.715365
C 2.665728 0.789770 1.271677
C 2.961972 0.029741 1.164486
C 3.020039 0.405698 1.452616
C 3.413857 0.079050 1.506644
C 3.488063 0.495479 1.015686
C 3.318430 0.313699 1.218872
C 3.196267 0.833521 1.754652
C 3.832493 0.282042 1.817855
C 3.726856 0.801191 1.218114
C 4.144828 0.058245 1.024986
C 4.011518 0.539941 1.530688
C 4.501150 0.035865 1.529860
C 4.422450 0.482034 1.073706
C 4.259253 0.313400 1.319209
C 4.183632 0.638574 1.795291
C 4.822942 0.301393 1.808854
C 4.836970 0.775218 1.301147
C 5.122773 0.015113 0.995038
C 4.961031 0.471874 1.543060
C 5.333753 0.030316 1.555736
C 5.460633 0.601579 1.026550
C 5.194252 0.245044 1.174933
C 5.225385 0.677893 1.708165
C 5.732117 0.231920 1.602529
C 5.729347 0.798253 1.155096
C 0.025375 1.045195 1.031064
C 0.087772 1.544927 1.412012
C 0.468318 0.938071 1.563419
C 0.485897 1.648829 1.039743
C 0.274479 1.165100 1.184140
C 0.352144 1.792975 1.751846
C 0.734397 1.299543 1.797733
C 0.830583 1.828447 1.199718
C 0.964521 0.915658 1.034258
C 0.988607 1.483845 1.594192
C 1.608321 1.067817 1.531598
C 1.416529 1.460584 0.975062
C 1.283398 1.336713 1.230208
C 1.260078 1.648837 1.787564
C 1.668276 1.168185 1.790359
C 1.773690 1.677687 1.302691
C 2.029221 0.927595 0.951038
C 2.011509 1.547918 1.594227
C 2.477528 1.000246 1.411751
C 2.482954 1.582208 1.033030
C 2.358854 1.199500 1.181748
C 2.264842 1.751426 1.653130
C 2.789144 1.286360 1.701107
C 2.863199 1.812524 1.227246
C 3.097184 1.042661 1.015162
C 2.880197 1.581730 1.464322
C 3.608260 1.061983 1.526620
C 3.354883 1.428563 1.001157
C 3.158556 1.171478 1.305301
C 3.255660 1.837951 1.872662
C 3.668211 1.381302 1.690188
C 3.747355 1.737198 1.369126
C 3.964150 0.928904 0.933675
C 3.971108 1.415872 1.564930
C 4.428584 0.942560 1.547197
C 4.462011 1.485376 0.998667
C 4.232999 1.367901 1.180067
C 4.167301 1.810508 1.793735
C 4.714594 1.375676 1.771702
C 4.722594 1.786653 1.227898
C 4.977293 1.074284 0.951749
C 5.016165 1.495043 1.555752
C 5.510190 1.085222 1.430917
C 5.382610 1.498516 0.959366
C 5.303011 1.289901 1.341734
C 5.153498 1.730412 1.767402
C 5.740215 1.409017 1.830146
C 5.690128 1.699575 1.316284
C 0.013290 1.928683 1.095611
C 0.091254 2.526103 1.435009
C 0.478200 2.119457 1.556735
C 0.466246 2.625593 0.963784
C 0.317690 2.195234 1.189768
C 0.210974 2.807165 1.694227
C 0.741196 2.202610 1.848659
C 0.708688 2.668914 1.166532
C 0.960498 1.934916 0.941235
C 1.018205 2.600609 1.432432
C 1.583177 2.035457 1.512933
C 1.479419 2.502545 1.026545
C 1.293109 2.152698 1.256511
C 1.171879 2.802156 1.730140
C 1.732933 2.329638 1.751450
C 1.757042 2.716034 1.189555
C 1.978382 1.962338 0.980339
C 2.028638 2.507051 1.580578
C 2.549089 2.098964 1.554232
C 2.497927 2.641166 0.989418
C 2.182663 2.226650 1.233189
C 2.361834 2.711341 1.805756
C 2.798230 2.349718 1.742870
C 2.697434 2.690983 1.312805
C 2.935727 2.067170 1.043416
C 3.027603 2.613782 1.582237
C 3.593640 2.008074 1.520300
C 3.496765 2.543024 1.022244
C 3.258597 2.180824 1.187870
C 3.326026 2.738507 1.829294
C 3.711227 2.200414 1.754652
C 3.669103 2.722806 1.238824
C 4.038669 1.977955 1.005736
C 3.934490 2.489750 1.431838
C 4.474098 1.976114 1.342929
C 4.531554 2.423229 1.029003
C 4.191612 2.339843 1.266964
C 4.210837 2.677672 1.673384
C 4.732313 2.307039 1.655898
C 4.725432 2.774513 1.297716
C 4.968395 1.941708 1.106360
C 5.084631 2.483322 1.536906
C 5.481147 1.953071 1.432091
C 5.397871 2.455634 0.988023
C 5.240541 2.135608 1.280192
C 5.258548 2.834857 1.844912
C 5.718345 2.265358 1.685140
C 5.732606 2.691652 1.160752
C 0.003586 2.954258 0.908697
C 0.102315 3.430741 1.552615
C 0.535331 3.093147 1.513099
C 0.429497 3.548538 1.080640
C 0.369970 3.294169 1.328611
C 0.269675 3.724082 1.604667
C 0.859408 3.226500 1.850970
C 0.787206 3.628422 1.306429
C 0.954101 2.952740 1.051146
C 0.989171 3.496438 1.536056
C 1.482048 2.914541 1.568696
C 1.450964 3.474243 0.933956
C 1.229210 3.223905 1.204630
C 1.336740 3.768417 1.791504
C 1.664649 3.349972 1.774921
C 1.777698 3.642752 1.247240
C 1.935420 3.011110 1.041157
C 2.002147 3.427598 1.366838
C 2.532784 2.943183 1.460210
C 2.525987 3.453509 1.086784
C 2.168627 3.182594 1.355540
C 2.177221 3.705072 1.696445
C 2.746078 3.190348 1.732878
C 2.731143 3.677813 1.332428
C 2.985577 2.917955 0.974369
C 2.922570 3.465573 1.479387
C 3.471575 2.923180 1.530799
C 3.581983 3.412513 0.917979
C 3.182147 3.219072 1.276693
C 3.301801 3.714747 1.709193
C 3.861702 3.275133 1.681268
C 3.714391 3.655863 1.267124
C 3.905765 2.924001 0.952455
C 4.075229 3.541933 1.540162
C 4.512538 3.088262 1.391237
C 4.500450 3.430764 1.086882
C 4.208080 3.321245 1.275362
C 4.324661 3.705368 1.768362
C 4.794662 3.215988 1.873988
C 4.799418 3.637348 1.337759
C 5.063605 3.055450 0.900530
C 5.071949 3.477471 1.416515
C 5.524495 2.926536 1.462160
C 5.431233 3.436840 0.972134
C 5.390641 3.253810 1.247396
C 5.249432 3.715284 1.773502
C 5.711336 3.231721 1.837998
C 5.726618 3.830347 1.370584
C 0.017777 4.033920 0.967094
C 0.001241 4.624584 1.541214
C 0.459095 3.975161 1.554705
C 0.622704 4.571063 0.983682
C 0.170254 4.288483 1.144771
C 0.338770 4.826529 1.783156
C 0.679302 4.269481 1.752774
C 0.788359 4.841331 1.226450
C 1.020358 4.028996 1.010493
C 0.936031 4.447922 1.540838
C 1.394434 3.957826 1.536465
C 1.528667 4.510055 1.020566
C 1.287963 4.258338 1.316584
C 1.252414 4.873956 1.785485
C 1.703756 4.180725 1.661940
C 1.820422 4.740232 1.308256
C 1.930589 4.085270 1.004712
C 1.983029 4.422973 1.540548
C 2.443422 3.926871 1.549911
C 2.434535 4.521051 1.020496
C 2.138208 4.189178 1.217661
C 2.183989 4.813583 1.810558
C 2.860507 4.277421 1.718316
C 2.706920 4.651821 1.183470
C 3.064334 3.862659 1.004035
C 2.952303 4.512025 1.457458
C 3.525341 4.077432 1.416496
C 3.471142 4.501231 1.047534
C 3.294687 4.345571 1.266844
C 3.151350 4.816031 1.749209
C 3.755142 4.247918 1.714929
C 3.711345 4.668376 1.152607
C 3.977251 3.924797 0.983025
C 4.043898 4.500182 1.469534
C 4.595962 4.110425 1.526601
C 4.490227 4.645135 1.061615
C 4.307382 4.237523 1.134533
C 4.119338 4.717050 1.711289
C 4.722658 4.287968 1.888727
C 4.686158 4.793647 1.275623
C 4.887161 3.934734 1.075969
C 4.977132 4.416057 1.484079
C 5.461149 3.970373 1.423468
C 5.417359 4.565526 0.943884
C 5.264927 4.189717 1.205350
C 5.181754 4.816589 1.720064
C 5.748796 4.260988 1.801124
C 5.694685 4.746912 1.271644
C 0.047967 5.176623 1.024679
C 0.060351 5.414456 1.466141
C 0.465963 5.053522 1.530095
C 0.480074 5.449060 1.040664
C 0.305992 5.231699 1.219695
C 0.376377 5.740110 1.664998
C 0.677214 5.262721 1.687226
C 0.704028 5.709010 1.351132
C 0.933129 5.020024 0.977631
C 0.915792 5.527547 1.574243
C 1.485870 4.911694 1.567837
C 1.420112 5.580114 1.002163
C 1.330701 5.307292 1.275951
C 1.226452 5.623079 1.733349
C 1.769440 5.320343 1.722181
C 1.699384 5.599324 1.199260
C 2.012754 5.108089 0.924868
C 1.994056 5.537857 1.492542
C 2.437709 5.054351 1.527886
C 2.430539 5.583059 1.043112
C 2.242444 5.242073 1.273537
C 2.141084 5.740752 1.685427
C 2.648998 5.205265 1.784955
C 2.811830 5.720389 1.377868
C 2.986699 4.946085 0.992437
C 3.085915 5.539435 1.475395
C 3.369062 4.987781 1.531844
C 3.454657 5.403029 0.948036
C 3.292510 5.237551 1.330357
C 3.331010 5.732071 1.681004
C 3.674217 5.323356 1.843521
C 3.771843 5.731292 1.326389
C 3.997412 5.008855 0.946108
C 3.984158 5.371046 1.454229
C 4.527115 5.012214 1.443118
C 4.491275 5.397804 0.902755
C 4.223534 5.265874 1.278225
C 4.382984 5.743242 1.727324
C 4.641138 5.266340 1.702315
C 4.819560 5.732699 1.159240
C 5.059293 4.926963 0.925568
C 5.013408 5.489674 1.444228
C 5.628994 5.023555 1.577230
C 5.611196 5.425044 0.914678
C 5.296331 5.230132 1.337470
C 5.217917 5.619917 1.687347
C 5.706698 5.375011 1.791196
C 5.604386 5.689434 1.226037
C 0.117669 0.001420 2.109118
C 0.073770 0.592351 2.545315
C 0.419752 0.065163 2.600267
C 0.505856 0.632868 1.930901
C 0.275476 0.278923 2.137726
C 0.255331 0.817840 2.856876
C 0.678753 0.253265 2.705658
C 0.718678 0.632155 2.187503
C 0.999090 0.033605 1.861699
C 1.021149 0.470078 2.630846
C 1.420296 0.025392 2.618809
C 1.428744 0.445745 2.093950
C 1.211603 0.169108 2.280392
C 1.270323 0.771495 2.692758
C 1.806843 0.229488 2.830486
C 1.601923 0.722427 2.270544
C 1.930908 0.011638 2.013342
C 2.085889 0.627816 2.488002
C 2.507902 0.079778 2.461850
C 2.566762 0.444231 2.100344
C 2.268687 0.333058 2.304939
C 2.212127 0.736371 2.779987
C 2.750330 0.339257 2.775583
C 2.753424 0.719250 2.371321
C 2.901891 0.043606 1.961124
C 3.029651 0.446288 2.431422
C 3.535911 0.113722 2.488831
C 3.522713 0.556736 2.109465
C 3.224181 0.401314 2.213005
C 3.307031 0.710745 2.893533
C 3.896712 0.170862 2.771113
C 3.743897 0.792480 2.336484
C 3.977765 0.045310 2.085187
C 4.084082 0.513838 2.525479
C 4.456469 0.059292 2.575378
C 4.576343 0.474942 1.980593
C 4.223772 0.255422 2.144632
C 4.347272 0.738146 2.790268
C 4.735946 0.265460 2.690558
C 4.717056 0.829262 2.158239
C 4.975043 0.103797 2.017101
C 5.104998 0.526736 2.474571
C 5.514107 0.071764 2.380147
C 5.476128 0.546797 1.988310
C 5.198185 0.299576 2.226278
C 5.299076 0.834070 2.741688
C 5.710371 0.137783 2.595270
C 5.749514 0.773751 2.110629
C 0.022238 0.909710 1.981026
C 0.042899 1.435890 2.408409
C 0.560573 0.913465 2.465606
C 0.413107 1.544536 1.914092
C 0.413872 1.251073 2.281524
C 0.239606 1.771985 2.688241
C 0.746030 1.138748 2.763569
C 0.743904 1.683428 2.347926
C 1.067385 0.968834 1.910278
C 1.050705 1.537869 2.512964
C 1.509699 1.057414 2.523378
C 1.435698 1.494243 2.001058
C 1.288229 1.276792 2.273028
C 1.193466 1.728558 2.858172
C 1.758341 1.172231 2.818719
C 1.717494 1.713918 2.353890
C 1.951864 1.075932 2.019713
C 1.921129 1.483231 2.488300
C 2.494723 0.995074 2.478445
C 2.444007 1.468760 1.991990
C 2.236758 1.360736 2.203116
C 2.204469 1.716045 2.703411
C 2.739416 1.206299 2.780695
C 2.874428 1.788926 2.284417
C 2.928795 0.947966 1.927026
C 3.101821 1.502059 2.549518
C 3.595963 1.040364 2.502498
C 3.533065 1.517730 2.069544
C 3.244046 1.182455 2.175665
C 3.235407 1.753980 2.695012
C 3.780719 1.166601 2.794489
C 3.673043 1.746617 2.292238
C 3.948973 1.108425 1.904121
C 3.971051 1.518512 2.627930
C 4.445826 1.010806 2.499276
C 4.400431 1.533749 2.084674
C 4.291524 1.311555 2.323754
C 4.319216 1.630471 2.787884
C 4.829456 1.261056 2.845850
C 4.773868 1.704112 2.274257
C 4.952280 0.909936 1.951135
C 4.975222 1.524430 2.459490
C 5.517431 1.005625 2.576243
C 5.472462 1.482559 1.919376
C 5.316104 1.328648 2.266667
C 5.274417 1.681691 2.810220
C 5.651929 1.261353 2.710854
C 5.739211 1.824362 2.337894
C 0.066790 2.095743 2.063205
C 0.096381 2.448250 2.577970
C 0.592349 1.930324 2.536420
C 0.533625 2.559215 2.035536
C 0.257755 2.264786 2.257141
C 0.205692 2.731169 2.710425
C 0.774736 2.215909 2.725149
C 0.819652 2.616250 2.193026
C 0.905315 1.959086 1.943536
C 1.014575 2.484301 2.497004
C 1.442471 1.890235 2.504338
C 1.577194 2.498807 2.019051
C 1.160409 2.152223 2.296864
C 1.229849 2.676454 2.803094
C 1.738583 2.159853 2.839025
C 1.800384 2.800260 2.341096
C 1.981380 2.000335 2.004269
C 1.972458 2.404470 2.444815
C 2.634225 2.005818 2.446399
C 2.577574 2.446655 2.044387
C 2.284442 2.291798 2.304861
C 2.206187 2.760040 2.862978
C 2.658072 2.158218 2.685490
C 2.789986 2.764238 2.347940
C 2.933475 1.891894 1.970234
C 3.009112 2.570248 2.621677
C 3.547655 2.121048 2.504392
C 3.481586 2.539148 2.144719
C 3.352376 2.273547 2.162839
C 3.262030 2.687586 2.606658
C 3.794779 2.335243 2.807170
C 3.779975 2.696694 2.275529
C 3.909224 2.012998 2.010197
C 3.958617 2.525050 2.549841
C 4.468078 1.977781 2.477575
C 4.527713 2.501664 1.898445
C 4.201071 2.337943 2.247996
C 4.330257 2.782701 2.842410
C 4.651310 2.356099 2.765615
C 4.765477 2.654873 2.338947
C 5.008804 1.950786 1.977811
C 5.054309 2.619001 2.568094
C 5.463801 2.040184 2.554524
C 5.511275 2.618110 2.053632
C 5.311782 2.158342 2.235020
C 5.218716 2.834403 2.849716
C 5.681779 2.310482 2.724967
C 5.736828 2.755013 2.286321
C 0.043072 2.933494 2.047067
C 0.002021 3.506971 2.448637
C 0.489407 2.974581 2.524282
C 0.482900 3.618793 1.960186
C 0.150796 3.174336 2.260911
C 0.226623 3.687659 2.728867
C 0.694054 3.212918 2.854013
C 0.732924 3.734433 2.119247
C 0.985613 2.918322 2.040149
C 0.908964 3.606664 2.458656
C 1.507016 3.032656 2.485932
C 1.432201 3.549234 2.122481
C 1.137500 3.294484 2.247610
C 1.212524 3.778049 2.856642
C 1.739621 3.269203 2.732156
C 1.679548 3.797297 2.187770
C 1.897282 3.018007 2.090249
C 1.930149 3.599071 2.436179
C 2.480728 3.077207 2.545628
C 2.476458 3.594884 1.912796
C 2.363493 3.260293 2.286294
C 2.145386 3.789049 2.676465
C 2.854855 3.233138 2.805962
C 2.668539 3.756525 2.210339
C 2.961290 3.047880 2.101354
C 2.962279 3.485700 2.623282
C 3.469043 2.885137 2.471826
C 3.399705 3.449821 2.078536
C 3.410907 3.195388 2.273860
C 3.243666 3.689912 2.705343
C 3.746216 3.145932 2.694503
C 3.778054 3.740024 2.355673
C 4.092849 3.027541 1.934637
C 4.007061 3.504978 2.479187
C 4.559172 3.082834 2.470939
C 4.415872 3.424841 2.025055
C 4.182847 3.210908 2.229616
C 4.201664 3.754916 2.856560
C 4.786054 3.304586 2.600868
C 4.698581 3.648441 2.176985
C 4.910973 2.943753 2.087927
C 4.946793 3.570910 2.494639
C 5.480170 3.010199 2.411538
C 5.457594 3.550615 1.947607
C 5.147497 3.205802 2.195890
C 5.295503 3.669896 2.767249
C 5.664845 3.181028 2.812709
C 5.700964 3.864510 2.338701
C 0.031522 3.975035 1.892711
C 0.093478 4.423321 2.529644
C 0.604895 3.922761 2.459778
C 0.443328 4.415731 1.955249
C 0.317956 4.177123 2.225125
C 0.280319 4.780039 2.868985
C 0.681801 4.213201 2.594324
C 0.694872 4.736704 2.160439
C 0.975859 4.083921 1.999515
C 1.054132 4.454999 2.532675
C 1.566527 4.003210 2.593469
C 1.547520 4.404003 1.910441
C 1.230761 4.374290 2.225330
C 1.186575 4.713325 2.710981
C 1.690807 4.334318 2.735827
C 1.766176 4.835156 2.279421
C 2.048289 4.080819 2.091563
C 2.001835 4.466629 2.439032
C 2.528022 3.956568 2.469444
C 2.578882 4.529515 1.897353
C 2.280996 4.283113 2.299853
C 2.153548 4.753845 2.765972
C 2.876551 4.221147 2.784253
C 2.750368 4.674774 2.185836
C 3.028478 4.088886 1.971928
C 3.015002 4.460361 2.539066
C 3.525435 4.073644 2.518956
C 3.459879 4.424697 1.988201
C 3.211127 4.285520 2.201239
C 3.216679 4.671127 2.768081
C 3.824457 4.229125 2.768542
C 3.765478 4.750182 2.234840
C 3.988012 4.002856 1.941121
C 4.069726 4.541686 2.522287
C 4.599445 3.992071 2.398987
C 4.506219 4.601665 2.051216
C 4.267457 4.378483 2.246588
C 4.252349 4.720167 2.721309
C 4.712210 4.337018 2.796818
C 4.653390 4.690138 2.316373
C 4.949231 3.955381 2.015374
C 5.116881 4.516981 2.446275
C 5.441536 3.873771 2.497046
C 5.565179 4.623292 2.015165
C 5.332596 4.289053 2.197395
C 5.313925 4.746421 2.660224
C 5.657018 4.224237 2.796699
C 5.724364 4.755945 2.270638
C 0.048926 5.112703 2.093482
C 0.032423 5.413244 2.377649
C 0.469509 5.030161 2.498487
C 0.463168 5.543094 2.013632
C 0.366191 5.279116 2.287808
C 0.235765 5.731373 2.672444
C 0.706492 5.353868 2.703301
C 0.678774 5.734749 2.279398
C 0.988258 5.049004 2.052368
C 0.924810 5.507979 2.436540
C 1.461665 5.089695 2.365842
C 1.392723 5.502433 2.080940
C 1.198187 5.269862 2.112181
C 1.283342 5.650689 2.764633
C 1.700077 5.212026 2.822205
C 1.729240 5.599124 2.313954
C 2.033085 5.084113 1.920024
C 1.952702 5.503379 2.584937
C 2.462630 4.974036 2.463353
C 2.520155 5.609708 2.074682
C 2.362361 5.324870 2.182394
C 2.310475 5.633499 2.816352
C 2.678425 5.292483 2.728700
C 2.635587 5.742844 2.397354
C 2.938565 4.998322 1.932540
C 3.065172 5.452575 2.577191
C 3.578336 5.034314 2.462807
C 3.461237 5.448327 2.065217
C 3.226274 5.310677 2.291713
C 3.162794 5.705847 2.765790
C 3.674728 5.283330 2.825523
C 3.781107 5.733534 2.159114
C 3.867719 5.059076 2.010501
C 3.914309 5.446947 2.530155
C 4.490856 4.966000 2.405313
C 4.513629 5.544714 1.998216
C 4.184227 5.312716 2.281531
C 4.280875 5.628550 2.639504
C 4.701381 5.187824 2.659105
C 4.772004 5.721181 2.417540
C 4.967874 5.004799 2.018911
C 5.011458 5.508560 2.441094
C 5.420205 5.019921 2.478507
C 5.524288 5.486187 2.022759
C 5.313040 5.268360 2.327711
C 5.352699 5.701107 2.701461
C 5.729808 5.240721 2.851785
C 5.610460 5.686567 2.339259
C 0.012123 0.134734 2.980652
C 0.134468 0.367183 3.479404
C 0.459460 0.051300 3.481282
C 0.596061 0.470535 3.046442
C 0.318004 0.115144 3.216288
C 0.327489 0.781291 3.756885
C 0.679717 0.272905 3.629335
C 0.857484 0.727297 3.187676
C 1.078458 0.006149 2.935484
C 1.029092 0.462358 3.481286
C 1.437675 0.029568 3.516562
C 1.588609 0.427592 3.092341
C 1.191755 0.187902 3.306172
C 1.234678 0.712555 3.809431
C 1.836693 0.258539 3.739749
C 1.802447 0.791077 3.246562
C 1.960903 0.088976 3.098085
C 1.930930 0.531454 3.476734
C 2.492375 0.061178 3.621434
C 2.514375 0.466267 3.090901
C 2.357851 0.178727 3.242821
C 2.265091 0.704854 3.834010
C 2.687560 0.276702 3.686089
C 2.821386 0.732886 3.257872
C 3.001506 0.034547 2.970572
C 2.997412 0.483809 3.435709
C 3.466456 0.061526 3.469446
C 3.535751 0.445326 2.918553
C 3.231855 0.284493 3.341858
C 3.149185 0.691768 3.756894
C 3.660130 0.346384 3.739752
C 3.764783 0.715598 3.195500
C 4.099215 0.024473 2.973646
C 3.971029 0.431891 3.548582
C 4.452375 0.100372 3.526719
C 4.602812 0.477462 3.105049
C 4.229598 0.300381 3.139504
C 4.205208 0.797401 3.863371
C 4.871724 0.229699 3.715153
C 4.765692 0.731261 3.222813
C 5.063252 0.086210 2.924668
C 5.025022 0.436532 3.463359
C 5.630240 0.013377 3.600197
C 5.512546 0.391238 2.948499
C 5.186693 0.272258 3.243591
C 5.264667 0.723992 3.657191
C 5.716494 0.332691 3.903241
C 5.734078 0.602684 3.241958
C 0.047548 0.983832 3.040361
C 0.029491 1.510178 3.593031
C 0.601989 1.038210 3.584397
C 0.501368 1.610433 2.968608
C 0.268106 1.362817 3.342446
C 0.338286 1.697111 3.781720
C 0.779435 1.337184 3.730059
C 0.733539 1.868653 3.133971
C 1.076448 1.092590 3.051985
C 0.997047 1.521218 3.600343
C 1.462617 1.052509 3.485819
C 1.574615 1.519570 2.971686
C 1.390518 1.306054 3.309817
C 1.277787 1.669978 3.822963
C 1.672754 1.307110 3.740938
C 1.869009 1.699417 3.201079
C 1.984045 1.075648 3.113287
C 1.975329 1.345688 3.461283
C 2.405864 1.067522 3.540633
C 2.503504 1.562612 3.057308
C 2.316616 1.278632 3.223028
C 2.331711 1.774586 3.763467
C 2.624279 1.296179 3.691645
C 2.778801 1.860797 3.183788
C 3.067508 0.969303 2.899226
C 3.099243 1.561001 3.489886
C 3.547627 1.091006 3.457681
C 3.534886 1.536804 3.065862
C 3.255087 1.316476 3.322767
C 3.162529 1.882432 3.816659
C 3.713921 1.153015 3.815797
C 3.745669 1.758653 3.287762
C 3.993731 1.061506 3.012902
C 3.959523 1.465775 3.572844
C 4.544168 0.932427 3.611943
C 4.492332 1.485995 3.022880
C 4.228361 1.251177 3.355955
C 4.244160 1.769050 3.732523
C 4.711712 1.284316 3.840350
C 4.754810 1.809725 3.346045
C 5.067004 0.988046 3.006676
C 4.989304 1.569323 3.436157
C 5.436750 1.058079 3.554188
C 5.528223 1.494397 2.982837
C 5.128813 1.231945 3.236942
C 5.312663 1.745541 3.848402
C 5.675342 1.174168 3.762775
C 5.650821 1.609381 3.314615
C 0.024115 1.971624 2.900405
C 0.025368 2.443644 3.527445
C 0.440920 2.087310 3.483643
C 0.469997 2.608634 3.048671
C 0.351563 2.292829 3.263789
C 0.200918 2.714437 3.739795
C 0.808669 2.348312 3.725280
C 0.732946 2.654384 3.164171
C 0.947171 2.051934 2.967826
C 1.003202 2.623042 3.513562
C 1.426486 1.992251 3.547327
C 1.463184 2.456072 3.021858
C 1.313456 2.249699 3.325320
C 1.238408 2.821483 3.665698
C 1.745755 2.341926 3.751324
C 1.648965 2.798854 3.185417
C 2.014416 1.955769 3.022768
C 2.009787 2.582269 3.558376
C 2.490294 1.993690 3.499285
C 2.552200 2.492092 3.086964
C 2.293951 2.188211 3.281129
C 2.214007 2.738452 3.772458
C 2.738129 2.296310 3.793418
C 2.771942 2.685575 3.218543
C 3.054127 2.089545 3.005642
C 2.955515 2.459455 3.425086
C 3.428080 2.018700 3.565378
C 3.530960 2.480563 2.945068
C 3.380973 2.207771 3.308686
C 3.209116 2.658603 3.700553
C 3.773718 2.291401 3.831846
C 3.801514 2.830180 3.291858
C 3.970985 2.154099 3.000892
C 4.040892 2.455743 3.393002
C 4.543670 1.930909 3.615926
C 4.414768 2.536668 3.017122
C 4.296093 2.321594 3.303169
C 4.292819 2.823559 3.712884
C 4.725652 2.150187 3.643445
C 4.784889 2.751406 3.379628
C 4.964883 1.998831 3.022509
C 5.047066 2.471875 3.471327
C 5.542264 2.099725 3.446904
C 5.505986 2.524519 3.084023
C 5.249969 2.277026 3.316544
C 5.345318 2.799238 3.775363
C 5.746125 2.281623 3.666937
C 5.747212 2.636122 3.250223
C 0.012526 2.936179 2.920840
C 0.051211 3.478647 3.448555
C 0.429611 3.048276 3.614519
C 0.456500 3.424899 3.045408
C 0.239514 3.316251 3.241275
C 0.161526 3.731513 3.649304
C 0.755568 3.257276 3.831319
C 0.705168 3.684663 3.230300
C 1.004285 2.960409 3.125565
C 0.917292 3.525792 3.532660
C 1.445039 3.017066 3.515947
C 1.363148 3.473299 2.955549
C 1.303258 3.202037 3.281024
C 1.294249 3.832318 3.735616
C 1.720261 3.357182 3.768401
C 1.823118 3.741917 3.309917
C 2.019055 3.043757 3.036297
C 1.917123 3.484296 3.389647
C 2.554670 3.068312 3.552456
C 2.506794 3.534453 2.929079
C 2.323841 3.344500 3.151315
C 2.205036 3.854005 3.820232
C 2.755280 3.258769 3.830540
C 2.810670 3.668000 3.185663
C 3.132382 2.964824 2.989158
C 2.986703 3.604665 3.458916
C 3.575170 2.977806 3.575057
C 3.541005 3.434736 3.061445
C 3.207730 3.167878 3.255728
C 3.295247 3.739477 3.790736
C 3.740627 3.231779 3.681860
C 3.649117 3.686706 3.290603
C 3.955680 3.059011 3.093760
C 3.991825 3.415294 3.483200
C 4.455598 3.048340 3.423299
C 4.415261 3.519517 2.886743
C 4.159726 3.328769 3.233850
C 4.369993 3.716578 3.804128
C 4.683045 3.149671 3.779322
C 4.695870 3.751580 3.264091
C 4.904245 2.882273 3.006383
C 4.938350 3.499461 3.403732
C 5.525178 3.074624 3.460039
C 5.452000 3.410300 2.971413
C 5.261939 3.184068 3.160697
C 5.373375 3.700061 3.709471
C 5.630251 3.218750 3.804565
C 5.661404 3.707224 3.123726
C 0.071025 4.029519 3.015036
C 0.005042 4.493003 3.420866
C 0.477196 4.018773 3.523237
C 0.454973 4.451426 2.954746
C 0.218844 4.336640 3.162266
C 0.229110 4.799083 3.654966
C 0.750306 4.269999 3.698194
C 0.695645 4.804772 3.142992
C 0.972259 3.916756 2.998465
C 1.042145 4.520930 3.585685
C 1.543263 4.077793 3.456574
C 1.526567 4.548903 2.901467
C 1.267674 4.278771 3.238993
C 1.353942 4.665501 3.729983
C 1.728358 4.275991 3.758937
C 1.783982 4.736601 3.225783
C 2.012178 3.887922 3.073281
C 1.991692 4.526087 3.425064
C 2.516858 4.087532 3.513252
C 2.491197 4.416717 2.945490
C 2.115182 4.297519 3.247844
C 2.222644 4.862737 3.791264
C 2.764616 4.275180 3.675134
C 2.703683 4.833496 3.183187
C 3.035111 4.077460 3.035714
C 3.059360 4.431505 3.484157
C 3.505050 3.893634 3.552093
C 3.511900 4.496905 2.943032
C 3.315384 4.239637 3.331679
C 3.344778 4.687322 3.795308
C 3.772455 4.373895 3.804984
C 3.669626 4.688497 3.172294
C 4.012607 4.088260 3.013633
C 4.006432 4.409931 3.384426
C 4.501703 4.014036 3.444468
C 4.427630 4.622646 3.020004
C 4.227325 4.111317 3.238246
C 4.233970 4.682834 3.669039
C 4.869176 4.243316 3.823684
C 4.681860 4.712898 3.208334
C 4.996293 3.925222 3.100995
C 5.073467 4.513636 3.514514
C 5.429956 3.948632 3.514847
C 5.569850 4.415582 3.030979
C 5.224523 4.318634 3.275148
C 5.328299 4.762761 3.832123
C 5.721645 4.283997 3.667310
C 5.632564 4.700251 3.178041
C 0.061783 5.089195 3.035679
C 0.007414 5.546936 3.645430
C 0.476020 4.987395 3.625809
C 0.527477 5.431757 2.992600
C 0.138908 5.313389 3.228278
C 0.294303 5.736994 3.666097
C 0.696109 5.236558 3.878047
C 0.707746 5.676533 3.353840
C 0.958726 4.901038 2.958809
C 1.052051 5.515566 3.537116
C 1.521038 5.063414 3.543035
C 1.560761 5.513255 2.966167
C 1.287042 5.240048 3.319502
C 1.219576 5.649272 3.778553
C 1.765020 5.171340 3.784012
C 1.788544 5.705240 3.199466
C 1.882752 4.995480 3.017369
C 1.919135 5.596634 3.469545
C 2.450907 4.931462 3.512487
C 2.493347 5.408555 3.109463
C 2.182226 5.278313 3.253403
C 2.195595 5.728901 3.878915
C 2.829307 5.261824 3.764218
C 2.687244 5.728136 3.200119
C 2.996862 4.927277 3.025469
C 2.988120 5.496141 3.409508
C 3.453094 5.007282 3.571353
C 3.376968 5.449980 2.981426
C 3.281436 5.165395 3.331351
C 3.311538 5.667124 3.817806
C 3.841180 5.172208 3.758340
C 3.685343 5.598647 3.298167
C 4.071732 4.894233 2.968172
C 3.989055 5.421596 3.407936
C 4.561704 4.995160 3.584078
C 4.536683 5.568299 2.922058
C 4.139777 5.184616 3.237203
C 4.341337 5.736654 3.746171
C 4.866162 5.274434 3.728711
C 4.706773 5.707779 3.289405
C 4.916287 5.065348 2.922163
C 5.039436 5.514787 3.455862
C 5.564303 4.991324 3.422392
C 5.452950 5.560659 3.002260
C 5.140532 5.256130 3.307886
C 5.142039 5.735092 3.759466
C 5.718169 5.192686 3.691768
C 5.670112 5.726478 3.217034
C 0.080648 0.086709 3.892707
C 0.016993 0.568199 4.611003
C 0.511949 0.085637 4.511416
C 0.441804 0.556321 3.980879
C 0.194992 0.156673 4.183002
C 0.288484 0.867665 4.701554
C 0.852819 0.281057 4.785926
C 0.722704 0.755106 4.248205
C 0.925449 0.079077 3.964782
C 1.050293 0.616662 4.551216
C 1.585885 0.068286 4.453896
C 1.511537 0.590599 4.003929
C 1.282618 0.204756 4.315861
C 1.392546 0.787409 4.743785
C 1.752821 0.273375 4.693122
C 1.713885 0.729358 4.266998
C 1.974979 0.078137 4.027055
C 1.996091 0.565433 4.551732
C 2.404422 0.039420 4.368334
C 2.471673 0.440236 3.952380
C 2.282904 0.359209 4.243838
C 2.279731 0.821541 4.689893
C 2.663688 0.183911 4.820779
C 2.741182 0.650979 4.187895
C 3.094814 0.082062 3.910633
C 2.967515 0.511400 4.633310
C 3.505456 0.124664 4.474152
C 3.565983 0.428710 4.005877
C 3.213441 0.180788 4.274025
C 3.174921 0.785705 4.828072
C 3.839799 0.206234 4.690608
C 3.808506 0.732257 4.156969
C 4.083860 0.006205 3.868436
C 3.948309 0.533246 4.535382
C 4.511977 0.045537 4.409602
C 4.498198 0.477731 3.997422
C 4.287850 0.297332 4.220214
C 4.257410 0.796487 4.787030
C 4.748203 0.325099 4.749262
C 4.879727 0.736797 4.201777
C 4.900011 0.075481 4.021356
C 4.898356 0.542009 4.538498
C 5.610033 0.081280 4.535363
C 5.581522 0.549414 3.883445
C 5.280081 0.142020 4.225326
C 5.241480 0.726081 4.827184
C 5.617192 0.209179 4.776328
C 5.643727 0.708825 4.302215
C 0.008939 0.919360 4.047221
C 0.054851 1.568264 4.371533
C 0.562376 0.976616 4.643227
C 0.639230 1.490696 4.063487
C 0.278615 1.150837 4.294830
C 0.200541 1.629268 4.719875
C 0.670648 1.258161 4.744850
C 0.816705 1.809538 4.271202
C 1.045654 1.042290 3.897098
C 0.936043 1.530927 4.386529
C 1.455829 0.917121 4.456143
C 1.443237 1.413459 4.114079
C 1.175083 1.201482 4.180099
C 1.194757 1.626596 4.687001
C 1.649024 1.258367 4.717242
C 1.745324 1.793509 4.203618
C 2.040153 1.079131 4.070204
C 1.843555 1.483872 4.503547
C 2.553640 1.059452 4.552310
C 2.599919 1.455708 3.930648
C 2.344613 1.194713 4.247412
C 2.151601 1.685061 4.801945
C 2.746142 1.267875 4.728153
C 2.871876 1.791915 4.280846
C 2.916059 1.089719 3.962145
C 2.928994 1.439998 4.499498
C 3.503065 0.895517 4.440437
C 3.485117 1.631204 3.957100
C 3.299106 1.217436 4.262722
C 3.265412 1.723512 4.725932
C 3.720683 1.233691 4.744782
C 3.718586 1.834165 4.144946
C 3.922274 0.960359 3.968868
C 3.914792 1.461434 4.520434
C 4.503019 0.968235 4.366546
C 4.457155 1.564713 3.916750
C 4.174345 1.221455 4.302159
C 4.191275 1.730335 4.700695
C 4.810384 1.253141 4.688061
C 4.853814 1.753293 4.302250
C 4.925440 0.987414 3.987557
C 4.895998 1.482594 4.485379
C 5.539755 0.984612 4.395136
C 5.613437 1.581632 3.950799
C 5.269729 1.257351 4.381345
C 5.284109 1.806545 4.869908
C 5.739718 1.314192 4.812977
C 5.641942 1.635243 4.202513
C 0.028483 1.794323 3.957067
C 0.049939 2.497681 4.443383
C 0.409043 2.000539 4.531611
C 0.447847 2.398504 3.997813
C 0.180359 2.178512 4.236783
C 0.266015 2.717568 4.689115
C 0.800995 2.268733 4.762151
C 0.793875 2.753609 4.265000
C 0.927843 2.001578 4.019959
C 0.934117 2.441856 4.518369
C 1.411991 2.001900 4.471127
C 1.509860 2.498920 3.953137
C 1.185960 2.311578 4.296618
C 1.124466 2.715248 4.737765
C 1.754304 2.278590 4.806003
C 1.768544 2.773952 4.112659
C 2.047484 2.050456 4.052614
C 1.907720 2.543573 4.558126
C 2.575849 2.015322 4.475427
C 2.392839 2.510029 4.079552
C 2.199770 2.243974 4.270202
C 2.273322 2.687463 4.735438
C 2.806537 2.266584 4.698295
C 2.644082 2.730080 4.293785
C 3.065385 1.992066 4.110634
C 2.901750 2.497831 4.494778
C 3.554674 1.921225 4.477556
C 3.562058 2.503377 3.931370
C 3.313354 2.295285 4.242009
C 3.307783 2.757228 4.772911
C 3.791635 2.292517 4.841737
C 3.669924 2.809438 4.331731
C 4.024128 1.889896 3.931229
C 4.000487 2.602482 4.569889
C 4.513668 1.934511 4.566246
C 4.486098 2.520528 3.953138
C 4.270226 2.185724 4.225720
C 4.220905 2.655633 4.763995
C 4.684870 2.323799 4.805051
C 4.845798 2.770952 4.218529
C 4.931626 1.915197 4.046144
C 4.992700 2.594048 4.519063
C 5.528139 2.071267 4.492675
C 5.521174 2.416425 3.961577
C 5.288879 2.229238 4.398453
C 5.258356 2.813929 4.807868
C 5.713904 2.231780 4.693858
C 5.705391 2.578654 4.332341
C 0.046208 2.928790 3.964971
C 0.077761 3.543375 4.453149
C 0.454473 3.087578 4.541129
C 0.406161 3.516857 4.078083
C 0.247923 3.238328 4.290422
C 0.173438 3.786593 4.682773
C 0.761806 3.230622 4.681367
C 0.766850 3.839191 4.185552
C 1.039412 2.942560 4.040044
C 0.947718 3.437556 4.450312
C 1.507873 3.054822 4.561146
C 1.463927 3.504238 3.996889
C 1.282744 3.320428 4.213570
C 1.204410 3.708794 4.863837
C 1.659492 3.315192 4.738184
C 1.775128 3.757234 4.245148
C 2.081339 2.960864 4.025758
C 2.051193 3.545675 4.547851
C 2.423009 3.063154 4.428984
C 2.501749 3.436784 3.951710
C 2.250134 3.254949 4.122969
C 2.269399 3.619904 4.774114
C 2.790665 3.279396 4.810213
C 2.757047 3.764372 4.302569
C 2.986220 3.067050 4.019506
C 2.937348 3.481723 4.460433
C 3.448507 2.998880 4.457042
C 3.619238 3.535927 4.012838
C 3.236349 3.234752 4.127940
C 3.340240 3.695065 4.832365
C 3.809090 3.230404 4.642948
C 3.813910 3.866593 4.276106
C 4.089043 3.020260 3.952398
C 4.048459 3.597197 4.461128
C 4.516141 3.108579 4.518300
C 4.440943 3.544881 4.098184
C 4.168440 3.211878 4.204458
C 4.117574 3.757434 4.743932
C 4.677991 3.325738 4.808002
C 4.742186 3.770099 4.166687
C 5.058767 3.063835 4.006149
C 5.002066 3.548352 4.385150
C 5.543772 2.941677 4.455646
C 5.536391 3.510173 3.963936
C 5.240062 3.151932 4.252773
C 5.170851 3.796296 4.630024
C 5.728617 3.260426 4.824766
C 5.717561 3.852423 4.245971
C 0.010983 3.893806 3.927491
C 0.020590 4.420493 4.383252
C 0.508693 3.982785 4.602206
C 0.541510 4.486648 3.894179
C 0.288138 4.234705 4.185290
C 0.340155 4.663116 4.765524
C 0.782889 4.282713 4.748187
C 0.779477 4.720742 4.193989
C 1.127706 3.981337 4.108411
C 1.068848 4.446991 4.437533
C 1.467569 4.070512 4.547873
C 1.541065 4.400524 4.071151
C 1.290066 4.230894 4.196620
C 1.339532 4.703544 4.804677
C 1.621577 4.287786 4.808963
C 1.825627 4.781421 4.305146
C 1.939478 3.897441 3.997460
C 2.077068 4.498766 4.461838
C 2.602641 4.063379 4.491435
C 2.525937 4.483654 4.081234
C 2.172646 4.252009 4.290315
C 2.343763 4.721757 4.847763
C 2.728613 4.279696 4.816194
C 2.820037 4.689798 4.251150
C 3.033277 4.081411 3.947502
C 3.040629 4.547568 4.593689
C 3.579561 4.094065 4.512816
C 3.585959 4.507565 4.021045
C 3.364773 4.281257 4.260611
C 3.338994 4.722113 4.670329
C 3.796089 4.312840 4.827302
C 3.815128 4.729489 4.272698
C 3.988409 4.091830 3.924369
C 3.893964 4.427983 4.506942
C 4.605188 3.977660 4.501666
C 4.479640 4.588507 3.956403
C 4.278459 4.198581 4.153231
C 4.332220 4.845910 4.700587
C 4.707301 4.306829 4.650043
C 4.763306 4.752819 4.290912
C 5.065008 3.963558 3.948596
C 5.049881 4.436661 4.433610
C 5.425833 4.074740 4.548422
C 5.403349 4.424157 3.996841
C 5.224090 4.219175 4.205298
C 5.271206 4.683705 4.710927
C 5.688890 4.304808 4.599261
C 5.644770 4.859973 4.231685
C 0.077200 5.095646 4.071014
C 0.073660 5.493771 4.405356
C 0.475059 4.989048 4.499015
C 0.517359 5.605267 3.913992
C 0.315577 5.221510 4.310961
C 0.333382 5.740954 4.762590
C 0.761287 5.276118 4.668907
C 0.835251 5.676486 4.174565
C 1.077902 5.018232 4.008279
C 1.092385 5.489490 4.426610
C 1.386725 4.869918 4.484398
C 1.480495 5.404621 3.907762
C 1.287669 5.241520 4.169086
C 1.198895 5.661437 4.712042
C 1.655012 5.299810 4.790208
C 1.826550 5.741717 4.207923
C 2.041663 5.050066 4.082862
C 1.872863 5.438956 4.542672
C 2.578936 4.945326 4.435940
C 2.557909 5.416718 4.003585
C 2.212554 5.314149 4.368898
C 2.249482 5.719770 4.890889
C 2.862810 5.216021 4.708380
C 2.671361 5.650838 4.223770
C 3.042306 5.054813 4.091292
C 2.940918 5.392053 4.370619
C 3.411787 4.972057 4.500868
C 3.602119 5.502903 4.076569
C 3.310723 5.322801 4.161986
C 3.284006 5.710899 4.865983
C 3.717752 5.244306 4.684977
C 3.867844 5.660052 4.217006
C 3.972218 5.027719 4.051697
C 3.991441 5.485694 4.574785
C 4.494703 5.019167 4.476751
C 4.484130 5.576133 4.077493
C 4.229233 5.231776 4.276175
C 4.161496 5.733051 4.791537
C 4.761146 5.255788 4.733435
C 4.724465 5.704612 4.332030
C 4.993521 5.034195 3.996696
C 5.025344 5.455993 4.552286
C 5.404442 4.978096 4.479122
C 5.446026 5.443585 3.915963
C 5.197933 5.223675 4.335465
C 5.371014 5.702216 4.720256
C 5.706067 5.219959 4.803207
C 5.709827 5.724269 4.199447
C 0.046765 0.118190 4.901767
C 0.033491 0.453803 5.588870
C 0.357389 0.073878 5.508105
C 0.546129 0.379497 5.044511
C 0.233768 0.168901 5.249763
C 0.337520 0.680288 5.663003
C 0.679621 0.233266 5.740631
C 0.880950 0.751481 5.270905
C 1.115383 0.018894 4.925703
C 1.005662 0.520339 5.470425
C 1.520425 0.051466 5.483117
C 1.582453 0.619552 4.974804
C 1.204847 0.235376 5.190295
C 1.318058 0.845190 5.671190
C 1.840510 0.260200 5.694430
C 1.797657 0.736813 5.251843
C 2.116479 0.028199 5.049785
C 1.968970 0.418399 5.447000
C 2.338985 0.054051 5.553108
C 2.546032 0.467623 4.948938
C 2.230626 0.229580 5.316279
C 2.328716 0.698847 5.715453
C 2.664416 0.209703 5.707534
C 2.784652 0.664739 5.164425
C 2.981105 0.082151 4.958372
C 2.916219 0.475799 5.579701
C 3.411841 0.031144 5.528338
C 3.579886 0.500329 4.879160
C 3.365820 0.198448 5.149839
C 3.314640 0.644332 5.746741
C 3.807227 0.215702 5.666439
C 3.769271 0.748577 5.212882
C 4.046704 0.056275 5.045391
C 4.010685 0.396304 5.428162
C 4.408455 0.005853 5.528672
C 4.518456 0.642686 5.018276
C 4.309040 0.250816 5.276330
C 4.315722 0.675602 5.602990
C 4.858507 0.324664 5.733140
C 4.760980 0.792290 5.198730
C 5.078568 0.073183 5.116456
C 4.933562 0.571140 5.524801
C 5.489151 0.050576 5.590327
C 5.550757 0.476728 4.903634
C 5.354892 0.286736 5.120595
C 5.218191 0.763623 5.593118
C 5.691472 0.266418 5.692729
C 5.648833 0.649652 5.231957
C 0.110161 0.903212 4.948760
C 0.029700 1.560884 5.392950
C 0.420498 0.993082 5.565060
C 0.501123 1.452577 5.033333
C 0.208833 1.313020 5.243709
C 0.246738 1.744935 5.737497
C 0.870035 1.256801 5.741880
C 0.664680 1.679410 5.226428
C 1.031842 1.021889 4.995640
C 1.052482 1.445669 5.478699
C 1.520759 1.003681 5.483329
C 1.484218 1.584754 5.063577
C 1.218198 1.166705 5.295008
C 1.255585 1.582369 5.718798
C 1.736967 1.275366 5.640954
C 1.663118 1.778122 5.287820
C 1.976296 0.991811 5.083344
C 2.095289 1.497844 5.551682
C 2.493145 1.052392 5.628420
C 2.417969 1.519091 4.966593
C 2.087252 1.247052 5.254163
C 2.375958 1.703123 5.725680
C 2.831462 1.122431 5.676989
C 2.745628 1.720689 5.365264
C 2.906575 1.017714 5.098878
C 3.029887 1.556180 5.422054
C 3.545737 1.070248 5.558915
C 3.463000 1.519275 5.008579
C 3.182267 1.217623 5.377887
C 3.343273 1.855910 5.741295
C 3.792148 1.213386 5.702210
C 3.875242 1.755357 5.293881
C 4.033529 1.106845 5.006374
C 4.120914 1.447187 5.408783
C 4.377225 0.977787 5.471230
C 4.548741 1.419048 4.996992
C 4.334102 1.235430 5.272517
C 4.288144 1.806711 5.695057
C 4.612300 1.202108 5.680435
C 4.749572 1.701982 5.173179
C 5.019450 1.071827 4.960530
C 4.994100 1.424209 5.581479
C 5.543402 1.024836 5.490153
C 5.548003 1.405185 5.055683
C 5.326993 1.208227 5.259084
C 5.352215 1.680488 5.749461
C 5.703782 1.349917 5.723839
C 5.729671 1.719735 5.351945
C 0.068096 1.977044 5.080504
C 0.007975 2.523713 5.622013
C 0.539534 1.954196 5.476009
C 0.439256 2.507739 5.045529
C 0.247963 2.314174 5.308459
C 0.216117 2.670139 5.574564
C 0.658666 2.308414 5.649060
C 0.798484 2.687730 5.146195
C 1.073513 2.010419 5.005902
C 1.085261 2.473303 5.464603
C 1.592018 2.016566 5.477075
C 1.463414 2.533371 4.863232
C 1.381021 2.282489 5.317859
C 1.269611 2.898557 5.733809
C 1.830058 2.151778 5.745975
C 1.868082 2.777892 5.216820
C 2.013979 2.045930 4.901860
C 2.068327 2.588407 5.459919
C 2.452521 2.069410 5.536389
C 2.454230 2.547568 4.991980
C 2.190698 2.239025 5.193396
C 2.162960 2.726851 5.737627
C 2.790407 2.234523 5.645865
C 2.810336 2.691472 5.180663
C 3.130353 1.933130 5.018723
C 2.947765 2.497601 5.493955
C 3.511839 2.093775 5.476391
C 3.537941 2.509365 5.002722
C 3.152376 2.204761 5.274626
C 3.185069 2.807178 5.676494
C 3.837166 2.327141 5.665706
C 3.744712 2.868247 5.310905
C 4.029253 2.048259 5.010822
C 4.118519 2.551582 5.483031
C 4.601434 1.922907 5.462126
C 4.436170 2.449399 4.992040
C 4.350741 2.234810 5.348189
C 4.357883 2.696775 5.645547
C 4.793856 2.184206 5.645858
C 4.781483 2.633583 5.271702
C 5.039339 1.994945 4.920321
C 5.059236 2.535911 5.399146
C 5.631761 1.966558 5.496078
C 5.634248 2.497903 5.025068
C 5.238290 2.177304 5.181651
C 5.361319 2.690231 5.747248
C 5.613748 2.179760 5.699299
C 5.687692 2.749734 5.273361
C 0.034010 3.001817 5.104924
C 0.070227 3.368064 5.502679
C 0.483131 3.001286 5.589405
C 0.544418 3.434147 5.064756
C 0.294108 3.169403 5.267765
C 0.177014 3.632187 5.742452
C 0.657824 3.273568 5.718000
C 0.805936 3.823067 5.312837
C 0.922670 2.988994 4.917671
C 1.025242 3.506131 5.508175
C 1.529700 2.876289 5.450692
C 1.533885 3.393237 5.078612
C 1.189957 3.190046 5.341574
C 1.362406 3.818770 5.689707
C 1.730417 3.288447 5.708892
C 1.738919 3.792683 5.322872
C 1.980862 3.063578 5.124969
C 1.995953 3.635404 5.468857
C 2.439758 3.069723 5.594948
C 2.536824 3.407117 5.030297
C 2.235107 3.290924 5.146519
C 2.266876 3.680071 5.584467
C 2.796981 3.325286 5.702268
C 2.707172 3.759285 5.234014
C 2.989051 3.039031 5.085767
C 3.046623 3.596880 5.535927
C 3.457833 2.922796 5.525174
C 3.610149 3.516339 5.056013
C 3.288808 3.297575 5.278559
C 3.418153 3.792644 5.737748
C 3.824254 3.245121 5.727172
C 3.816817 3.772594 5.265825
C 3.961279 2.978488 5.032050
C 3.994353 3.618622 5.573611
C 4.435289 2.972933 5.624666
C 4.506703 3.529029 5.060170
C 4.280947 3.227501 5.342142
C 4.277230 3.789429 5.692948
C 4.750026 3.262458 5.635504
C 4.683510 3.898167 5.291393
C 5.046896 3.014574 5.005953
C 5.035081 3.619109 5.449464
C 5.509211 2.857304 5.523670
C 5.578522 3.560490 4.979862
C 5.183218 3.227561 5.199462
C 5.090534 3.707886 5.731767
C 5.735583 3.223556 5.650056
C 5.721673 3.770125 5.360018
C 0.042097 4.167758 4.926119
C 0.062037 4.461218 5.586226
C 0.504631 3.966822 5.468506
C 0.452328 4.606284 5.048328
C 0.325859 4.180456 5.268794
C 0.308480 4.767025 5.738874
C 0.779813 4.338772 5.739296
C 0.668392 4.713799 5.318745
C 0.984520 3.946745 4.899779
C 1.083868 4.604194 5.545340
C 1.420959 3.966977 5.422046
C 1.637961 4.501294 4.959326
C 1.204220 4.213143 5.262689
C 1.124011 4.853901 5.724678
C 1.860925 4.286508 5.664305
C 1.773339 4.834394 5.234952
C 1.922194 3.913966 5.032077
C 1.914473 4.528953 5.427009
C 2.568782 3.934806 5.598287
C 2.451278 4.447508 4.885878
C 2.173900 4.219928 5.317594
C 2.272650 4.772062 5.731173
C 2.808641 4.335557 5.641561
C 2.869795 4.815722 5.336749
C 2.981146 4.060184 4.909926
C 3.050649 4.549902 5.571849
C 3.391841 3.981289 5.462607
C 3.507088 4.582108 5.015409
C 3.325472 4.248921 5.306898
C 3.243337 4.789040 5.711126
C 3.650555 4.208565 5.734530
C 3.755660 4.862650 5.230274
C 3.934206 3.928864 5.025156
C 3.998830 4.477582 5.607849
C 4.579637 4.010384 5.558932
C 4.428818 4.446950 4.960543
C 4.292200 4.172048 5.293020
C 4.168194 4.709101 5.662619
C 4.760656 4.247874 5.637317
C 4.793425 4.617211 5.161913
C 4.937024 3.937732 5.050059
C 4.947119 4.558592 5.455116
C 5.610419 4.054512 5.499312
C 5.471492 4.498401 5.057089
C 5.219511 4.340057 5.176683
C 5.265191 4.862296 5.704072
C 5.724602 4.444406 5.673912
C 5.732279 4.616676 5.223288
C 0.003216 4.846062 5.012482
C 0.117784 5.527292 5.485680
C 0.468356 5.012705 5.620831
C 0.412884 5.446118 4.961613
C 0.247908 5.181762 5.190252
C 0.296732 5.633792 5.717015
C 0.724940 5.110713 5.704405
C 0.709773 5.654272 5.330728
C 0.875124 4.971750 5.000280
C 0.985643 5.550420 5.428419
C 1.419128 4.980366 5.548153
C 1.555285 5.581919 4.980770
C 1.184136 5.253357 5.182601
C 1.243758 5.738723 5.748069
C 1.624403 5.265850 5.734253
C 1.862374 5.734800 5.265786
C 2.026196 5.000906 4.982931
C 2.021685 5.535912 5.619860
C 2.473876 5.047595 5.481184
C 2.512277 5.479214 4.945007
C 2.299552 5.149329 5.187938
C 2.382397 5.718110 5.733457
C 2.625105 5.256550 5.748151
C 2.698322 5.718966 5.232747
C 3.063431 4.986449 4.999739
C 3.021213 5.540758 5.595279
C 3.568656 5.057992 5.409215
C 3.513330 5.542701 5.105441
C 3.264860 5.274133 5.194460
C 3.354157 5.586562 5.716328
C 3.708431 5.253513 5.734103
C 3.752082 5.716355 5.331605
C 3.952367 5.072583 4.976858
C 3.909480 5.443855 5.417754
C 4.549865 4.847066 5.465481
C 4.541387 5.577853 5.045883
C 4.196489 5.275536 5.314799
C 4.223698 5.591243 5.720509
C 4.684320 5.227407 5.594834
C 4.729313 5.686975 5.297525
C 4.944116 4.973317 4.879855
C 5.019411 5.570674 5.531886
C 5.642582 4.995214 5.433503
C 5.476159 5.544688 4.995202
C 5.110255 5.189870 5.211879
C 5.276433 5.746542 5.589510
C 5.648878 5.243661 5.712759
C 5.709750 5.714595 5.299173
1728
Frame 8/10
C 0.120524 0.003778 0.072182
C 0.097186 0.452178 0.486519
C 0.611399 0.125042 0.490981
C 0.510121 0.468457 0.115933
C 0.332210 0.231048 0.264570
C 0.227068 0.749063 0.677862
C 0.693840 0.183587 0.801667
C 0.786255 0.876123 0.255260
C 0.987352 0.072285 0.082213
C 0.975940 0.584133 0.463173
C 1.544272 0.083518 0.536538
C 1.612657 0.433422 0.014172
C 1.128825 0.282468 0.238426
C 1.243681 0.722821 0.747449
C 1.801351 0.319222 0.603194
C 1.699879 0.711916 0.129316
C 2.078995 0.029448 0.008930
C 1.894197 0.582290 0.496500
C 2.638989 0.030525 0.574004
C 2.630913 0.451856 0.027660
C 2.309460 0.109350 0.255957
C 2.222235 0.706437 0.896713
C 2.847091 0.184311 0.741776
C 2.838622 0.702730 0.328515
C 2.917276 0.070343 0.052384
C 3.045205 0.541229 0.524772
C 3.587498 0.088757 0.442947
C 3.636045 0.554987 0.023857
C 3.343547 0.258142 0.276366
C 3.201645 0.772086 0.620830
C 3.640120 0.213857 0.703585
C 3.809580 0.763466 0.211346
C 4.116726 0.006630 0.106679
C 4.060217 0.595816 0.524488
C 4.490064 0.097559 0.390218
C 4.485526 0.484787 0.033213
C 4.160649 0.229232 0.358147
C 4.191224 0.776302 0.758353
C 4.758787 0.252497 0.881394
C 4.725074 0.744563 0.185116
C 4.845960 0.108611 0.049761
C 4.963192 0.472827 0.347678
C 5.388686 0.094456 0.603883
C 5.616209 0.503682 0.018240
C 5.253026 0.240862 0.111674
C 5.200544 0.690181 0.799218
C 5.703777 0.270258 0.751977
C 5.607884 0.701938 0.220029
C 0.015113 0.956727 0.099012
C 0.005734 1.460857 0.570266
C 0.472709 0.906347 0.417624
C 0.484214 1.478970 0.041682
C 0.251203 1.154904 0.253364
C 0.141445 1.761640 0.849109
C 0.792774 1.359180 0.753445
C 0.756410 1.643706 0.165644
C 1.021005 0.860329 0.078231
C 1.036059 1.594483 0.502692
C 1.445967 0.965181 0.495709
C 1.458708 1.407935 0.034175
C 1.269095 1.161941 0.219791
C 1.227721 1.746776 0.802763
C 1.787802 1.157709 0.695642
C 1.741315 1.711142 0.101349
C 1.984607 1.025902 0.001160
C 1.991979 1.558017 0.442745
C 2.517972 1.024179 0.626088
C 2.351547 1.537767 0.009885
C 2.255390 1.175972 0.156119
C 2.136963 1.684854 0.743137
C 2.692692 1.242730 0.620029
C 2.851396 1.681774 0.175612
C 2.903383 1.061793 0.139169
C 2.985547 1.423586 0.598667
C 3.498924 1.003835 0.420126
C 3.543430 1.674124 0.037435
C 3.154871 1.185895 0.196209
C 3.273421 1.662363 0.870303
C 3.725656 1.232227 0.681356
C 3.808399 1.703334 0.170261
C 4.060214 0.912050 0.004854
C 4.135359 1.514126 0.538964
C 4.570694 0.952888 0.413911
C 4.641159 1.386541 0.026065
C 4.332843 1.242958 0.311197
C 4.221494 1.778655 0.838383
C 4.680901 1.272923 0.883743
C 4.706624 1.900576 0.285537
C 4.852106 1.009696 0.027746
C 5.116806 1.470766 0.529061
C 5.395911 1.020360 0.545454
C 5.595974 1.530891 0.000296
C 5.230414 1.341834 0.253562
C 5.218433 1.732369 0.626618
C 5.706473 1.163415 0.768663
C 5.625274 1.741826 0.206442
C 0.173238 2.016370 0.108440
C 0.051956 2.453806 0.637665
C 0.517187 1.990562 0.429370
C 0.456574 2.525351 0.105594
C 0.194623 2.311934 0.175690
C 0.236303 2.659669 0.797838
C 0.816530 2.296881 0.835256
C 0.860948 2.760790 0.193464
C 0.987227 2.124993 0.007588
C 0.936213 2.595724 0.421923
C 1.536805 2.093976 0.517304
C 1.486815 2.612117 0.125828
C 1.268114 2.205067 0.225391
C 1.234017 2.833337 0.671781
C 1.807676 2.156675 0.729371
C 1.782392 2.789347 0.375478
C 2.117355 1.968703 0.078472
C 2.126305 2.563191 0.479190
C 2.524533 1.979706 0.573691
C 2.588727 2.643464 0.029042
C 2.180269 2.226598 0.167430
C 2.361892 2.890263 0.718956
C 2.810190 2.154736 0.732296
C 2.778258 2.567641 0.213395
C 2.930744 2.096351 0.043844
C 3.069926 2.392169 0.541353
C 3.608507 2.082680 0.533780
C 3.509081 2.433900 0.040995
C 3.243563 2.354672 0.162779
C 3.220225 2.835099 0.688489
C 3.777559 2.117395 0.846554
C 3.634843 2.667549 0.221921
C 3.881223 1.970623 0.012476
C 4.074995 2.370033 0.405108
C 4.402048 1.976013 0.461944
C 4.619676 2.652432 0.028647
C 4.140451 2.259709 0.144236
C 4.163523 2.789590 0.826713
C 4.647353 2.171941 0.762185
C 4.854861 2.698630 0.287610
C 5.025551 1.911415 0.053442
C 5.072019 2.538091 0.597596
C 5.360406 1.973274 0.506977
C 5.508502 2.307244 0.041065
C 5.333830 2.150262 0.246624
C 5.321072 2.765408 0.815035
C 5.681420 2.313038 0.830264
C 5.663969 2.736106 0.177877
C 0.083273 2.908250 0.019595
C 0.021278 3.501982 0.359525
C 0.484396 2.903542 0.440597
C 0.490341 3.596880 0.005075
C 0.213061 3.287772 0.186633
C 0.349586 3.744181 0.663671
C 0.654024 3.194677 0.790621
C 0.850470 3.784210 0.262060
C 0.830409 2.961586 0.022910
C 0.923300 3.416742 0.446129
C 1.539271 3.007506 0.542729
C 1.615712 3.484896 0.120842
C 1.094483 3.296101 0.210864
C 1.322714 3.697469 0.699785
C 1.709754 3.253197 0.823551
C 1.840959 3.823600 0.167356
C 1.945489 3.082496 0.032314
C 2.055732 3.383730 0.593070
C 2.559700 2.989414 0.433626
C 2.502099 3.506989 0.044118
C 2.157972 3.297616 0.282398
C 2.145446 3.728296 0.733783
C 2.835050 3.137522 0.782620
C 2.897586 3.761407 0.210577
C 2.932163 2.999156 0.015033
C 3.053954 3.394978 0.378385
C 3.625971 2.997451 0.410730
C 3.422277 3.524035 0.123403
C 3.292800 3.243922 0.274331
C 3.226912 3.873297 0.730661
C 3.844599 3.283241 0.753491
C 3.729228 3.797456 0.151524
C 3.866533 2.955643 0.056091
C 3.975374 3.444839 0.496252
C 4.464282 2.943099 0.365665
C 4.496389 3.503262 0.108103
C 4.116306 3.335497 0.163473
C 4.261412 3.644006 0.680226
C 4.846310 3.283587 0.662478
C 4.764828 3.827916 0.124255
C 5.009061 3.068452 0.005300
C 4.866866 3.516024 0.491245
C 5.534937 3.093573 0.526517
C 5.505277 3.420021 0.134619
C 5.148405 3.298950 0.229276
C 5.246884 3.594991 0.732312
C 5.726394 3.196493 0.824095
C 5.745387 3.700200 0.328951
C 0.011020 4.060633 0.105780
C 0.001058 4.417984 0.395746
C 0.578735 4.055537 0.614145
C 0.547519 4.567613 0.080616
C 0.227311 4.236518 0.219500
C 0.173109 4.822099 0.744847
C 0.744075 4.278412 0.832290
C 0.770356 4.637676 0.288080
C 0.996351 4.178238 0.103698
C 0.975074 4.484012 0.562307
C 1.611381 4.085191 0.436314
C 1.318549 4.444462 0.017581
C 1.223364 4.103450 0.291277
C 1.188512 4.898319 0.668930
C 1.653326 4.287594 0.746967
C 1.676111 4.795780 0.376507
C 2.139201 4.109977 0.035231
C 2.000933 4.587963 0.391966
C 2.542497 3.938323 0.608982
C 2.395072 4.611588 0.105105
C 2.278714 4.345359 0.147358
C 2.332640 4.723139 0.758707
C 2.662331 4.284479 0.686300
C 2.750926 4.759138 0.336381
C 3.058319 4.016778 0.032805
C 3.007586 4.409685 0.512666
C 3.493613 3.984484 0.626503
C 3.503854 4.659351 0.021488
C 3.373011 4.211475 0.231390
C 3.258203 4.810182 0.774353
C 3.859080 4.212794 0.791463
C 3.727945 4.731833 0.222818
C 4.006050 3.964542 0.009130
C 4.068033 4.510808 0.526317
C 4.437780 3.873671 0.397227
C 4.564824 4.605286 0.118288
C 4.339144 4.182505 0.321912
C 4.374806 4.657602 0.648094
C 4.789750 4.187184 0.777484
C 4.670126 4.779428 0.341334
C 5.070593 3.888413 0.055533
C 4.985829 4.414169 0.517500
C 5.533748 3.944414 0.612126
C 5.462872 4.462128 0.014797
C 5.213826 4.275076 0.325129
C 5.335884 4.863534 0.685302
C 5.639266 4.279148 0.688973
C 5.718998 4.807470 0.308636
C 0.000761 5.112112 0.157229
C 0.013798 5.405070 0.366490
C 0.505690 4.927205 0.518539
C 0.483991 5.618325 0.012431
C 0.299987 5.209240 0.232139
C 0.224268 5.684357 0.833546
C 0.634825 5.288133 0.701412
C 0.740376 5.716246 0.350209
C 1.098675 4.896075 0.048184
C 1.025072 5.612306 0.525630
C 1.400707 4.963711 0.409125
C 1.613375 5.382943 0.041372
C 1.350528 5.299179 0.247065
C 1.223116 5.575412 0.724708
C 1.793933 5.307713 0.899942
C 1.784340 5.734769 0.281776
C 1.867062 5.036566 0.007093
C 1.950318 5.514090 0.664121
C 2.554998 5.075673 0.598709
C 2.627279 5.440774 0.083578
C 2.234208 5.357023 0.258983
C 2.213493 5.714520 0.754142
C 2.869793 5.297744 0.696143
C 2.638878 5.704072 0.184671
C 3.063732 4.889713 0.001284
C 3.005641 5.549366 0.558886
C 3.505951 4.929241 0.437363
C 3.405402 5.573608 0.103111
C 3.118249 5.201308 0.254547
C 3.414923 5.647983 0.637571
C 3.701277 5.267107 0.800525
C 3.729920 5.654486 0.363313
C 3.849681 5.048095 0.004351
C 3.923096 5.375434 0.558805
C 4.606740 5.015046 0.555428
C 4.443420 5.382322 0.054157
C 4.408337 5.203752 0.278160
C 4.220047 5.657909 0.699616
C 4.704901 5.302264 0.649126
C 4.929247 5.658710 0.291186
C 4.942238 4.972135 0.109902
C 5.068811 5.453993 0.537185
C 5.476491 4.979559 0.383578
C 5.529530 5.390038 0.037116
C 5.195465 5.186433 0.298310
C 5.385382 5.662043 0.739532
C 5.740510 5.197886 0.614896
C 5.734305 5.655028 0.127312
C 0.038408 0.047269 0.992454
C 0.053609 0.436862 1.378063
C 0.453144 0.090873 1.374798
C 0.537563 0.399879 0.931257
C 0.305980 0.104902 1.135985
C 0.135783 0.676723 1.757602
C 0.647251 0.293152 1.843451
C 0.623565 0.792452 1.243188
C 0.888463 0.001497 0.987943
C 1.144576 0.500267 1.518091
C 1.486141 0.065575 1.513432
C 1.433192 0.507894 1.079834
C 1.384644 0.282518 1.276525
C 1.324002 0.699591 1.677610
C 1.667165 0.173464 1.740375
C 1.873178 0.645030 1.237274
C 2.085519 0.019464 0.973392
C 2.085799 0.517304 1.549466
C 2.699524 0.064909 1.480129
C 2.499226 0.369175 0.979896
C 2.256929 0.399053 1.194962
C 2.303230 0.682338 1.892572
C 2.806908 0.324587 1.709593
C 2.651683 0.796399 1.275290
C 2.955634 0.034697 1.191901
C 3.023379 0.389981 1.444719
C 3.399500 0.092226 1.507752
C 3.486073 0.494726 1.018300
C 3.329836 0.324315 1.213684
C 3.187312 0.847441 1.755428
C 3.846242 0.287382 1.829164
C 3.722998 0.809722 1.212800
C 4.168966 0.067952 1.029150
C 4.013437 0.546598 1.535802
C 4.501341 0.041843 1.534837
C 4.409525 0.479040 1.085990
C 4.260795 0.323967 1.330743
C 4.172571 0.620003 1.802840
C 4.835100 0.309959 1.818663
C 4.851465 0.779421 1.309671
C 5.143235 0.017632 0.994211
C 4.954536 0.467187 1.550237
C 5.306046 0.035368 1.565025
C 5.454072 0.618509 1.030976
C 5.184960 0.244218 1.162422
C 5.221283 0.665875 1.701193
C 5.729137 0.228907 1.577950
C 5.725905 0.806295 1.139278
C 0.029604 1.052728 1.036241
C 0.102401 1.552414 1.397347
C 0.463038 0.927749 1.573989
C 0.483547 1.673634 1.046367
C 0.278559 1.150949 1.173164
C 0.369168 1.800138 1.752154
C 0.731796 1.307800 1.805689
C 0.844013 1.841522 1.191337
C 0.958608 0.901601 1.039967
C 0.986708 1.481152 1.609891
C 1.626375 1.079120 1.536864
C 1.402617 1.454015 0.970905
C 1.288964 1.351166 1.226909
C 1.261757 1.631977 1.793825
C 1.654655 1.154549 1.797086
C 1.777639 1.665635 1.311473
C 2.034091 0.915527 0.942878
C 2.013427 1.555904 1.609931
C 2.473782 1.000287 1.397043
C 2.480113 1.595909 1.038535
C 2.376996 1.191083 1.170372
C 2.267316 1.751664 1.636985
C 2.795668 1.292420 1.692958
C 2.882065 1.822945 1.223454
C 3.113381 1.049771 1.017689
C 2.860230 1.595352 1.458376
C 3.626303 1.072313 1.531057
C 3.330697 1.416657 1.001350
C 3.143316 1.158390 1.314518
C 3.256603 1.852610 1.893105
C 3.654579 1.403186 1.680219
C 3.746914 1.735065 1.388980
C 3.958175 0.917055 0.922621
C 3.966292 1.401851 1.575752
C 4.416681 0.932987 1.555063
C 4.455679 1.482939 0.998444
C 4.230166 1.387551 1.168412
C 4.153517 1.820593 1.801024
C 4.708694 1.396622 1.775319
C 4.718026 1.792762 1.224214
C 4.973508 1.086664 0.943707
C 5.018860 1.494217 1.565044
C 5.511888 1.099426 1.419403
C 5.363045 1.498268 0.952594
C 5.311846 1.296552 1.357023
C 5.137415 1.727147 1.770303
C 5.738585 1.435520 1.843504
C 5.680149 1.691171 1.327331
C 0.015505 1.916796 1.111547
C 0.106463 2.530454 1.424177
C 0.474567 2.139367 1.566191
C 0.460620 2.646525 0.957748
C 0.328972 2.186107 1.179730
C 0.204469 2.816693 1.684932
C 0.739728 2.194712 1.865103
C 0.701803 2.655400 1.152620
C 0.953914 1.924069 0.931441
C 1.021240 2.617378 1.421171
C 1.597040 2.041366 1.515089
C 1.475989 2.502969 1.030969
C 1.300294 2.136481 1.257596
C 1.158859 2.810848 1.726830
C 1.730088 2.342911 1.751691
C 1.758215 2.710373 1.179481
C 1.974778 1.956061 0.977062
C 2.033411 2.508226 1.594008
C 2.557270 2.115458 1.563271
C 2.497582 2.664693 0.987654
C 2.171441 2.222759 1.230387
C 2.380473 2.704898 1.815048
C 2.806269 2.366338 1.741682
C 2.688673 2.681147 1.323273
C 2.925015 2.078365 1.050653
C 3.032203 2.632746 1.595943
C 3.609247 2.009420 1.523683
C 3.496226 2.550195 1.025951
C 3.260030 2.169294 1.177515
C 3.338697 2.736592 1.842510
C 3.704765 2.192149 1.755428
C 3.655620 2.718274 1.236961
C 4.045114 1.974281 1.006692
C 3.923572 2.488041 1.420477
C 4.469781 1.972134 1.316751
C 4.536813 2.410433 1.033836
C 4.181880 2.354816 1.269792
C 4.204309 2.665618 1.660615
C 4.729365 2.316546 1.640215
C 4.721337 2.778598 1.305669
C 4.963128 1.931993 1.124087
C 5.098736 2.480543 1.543057
C 5.478005 1.945249 1.420773
C 5.380850 2.448240 0.986026
C 5.238964 2.116542 1.285224
C 5.259973 2.849000 1.860730
C 5.713070 2.267918 1.674330
C 5.729707 2.681927 1.145877
C 0.004183 2.946635 0.893479
C 0.119368 3.419198 1.561384
C 0.541219 3.108671 1.515282
C 0.417747 3.556628 1.094080
C 0.389965 3.301531 1.341713
C 0.272954 3.719762 1.580445
C 0.877643 3.222583 1.867798
C 0.793408 3.608159 1.315834
C 0.946451 2.944864 1.059670
C 0.987366 3.495845 1.542066
C 1.479056 2.900297 1.580145
C 1.442791 3.469950 0.922948
C 1.225745 3.219556 1.197068
C 1.351197 3.771486 1.798422
C 1.650424 3.366634 1.779075
C 1.782314 3.624877 1.246780
C 1.924656 3.012962 1.048016
C 2.002505 3.415531 1.344644
C 2.538248 2.933713 1.453579
C 2.530318 3.445761 1.101249
C 2.155065 3.171359 1.373130
C 2.165092 3.697584 1.687519
C 2.745425 3.180406 1.730025
C 2.728000 3.665781 1.346166
C 2.983173 2.904281 0.970097
C 2.909665 3.459836 1.475952
C 3.466837 2.910377 1.535932
C 3.595646 3.397931 0.904309
C 3.170838 3.213917 1.281141
C 3.310435 3.708872 1.702391
C 3.880319 3.279322 1.669813
C 3.708456 3.640173 1.269978
C 3.890059 2.911334 0.944531
C 4.087767 3.548922 1.546856
C 4.514628 3.102973 1.373110
C 4.500525 3.419225 1.101362
C 4.201093 3.333119 1.279589
C 4.337105 3.697930 1.771423
C 4.802105 3.210319 1.894652
C 4.807654 3.618573 1.352385
C 5.074206 3.064692 0.883952
C 5.083941 3.473717 1.402601
C 5.528577 2.914292 1.455853
C 5.419772 3.426313 0.967490
C 5.414082 3.254445 1.246962
C 5.249338 3.709497 1.777419
C 5.704892 3.228675 1.852664
C 5.722721 3.843739 1.390682
C 0.020740 4.039573 0.961610
C 0.001448 4.645348 1.548083
C 0.452277 3.971021 1.563822
C 0.643154 4.582907 0.980962
C 0.156963 4.294897 1.127233
C 0.353565 4.839284 1.788682
C 0.667519 4.272728 1.753236
C 0.794752 4.856553 1.222525
C 1.023751 4.033828 1.012242
C 0.925370 4.439242 1.547644
C 1.376840 3.950797 1.542543
C 1.533445 4.511731 1.023993
C 1.294291 4.259728 1.327682
C 1.252817 4.894615 1.791399
C 1.696049 4.169179 1.647263
C 1.832159 4.738604 1.317965
C 1.919020 4.099482 1.005497
C 1.980201 4.410135 1.547306
C 2.433993 3.914682 1.558230
C 2.423624 4.524559 1.023912
C 2.119576 4.179041 1.212271
C 2.172988 4.824180 1.820651
C 2.878925 4.281991 1.713035
C 2.699740 4.635458 1.172381
C 3.075056 3.839769 1.004707
C 2.944353 4.514029 1.450368
C 3.529564 4.090337 1.402579
C 3.466332 4.501436 1.055456
C 3.302135 4.361500 1.269651
C 3.134909 4.827036 1.749077
C 3.755998 4.247571 1.709084
C 3.704903 4.654772 1.136375
C 3.973459 3.912263 0.980195
C 4.051215 4.500212 1.464457
C 4.611956 4.128830 1.531034
C 4.488599 4.669325 1.071884
C 4.316946 4.235444 1.115288
C 4.097561 4.711558 1.704837
C 4.718101 4.294296 1.911848
C 4.675518 4.800922 1.279893
C 4.868354 3.923856 1.088631
C 4.973321 4.402067 1.481425
C 5.454674 3.965435 1.410713
C 5.403586 4.576447 0.934531
C 5.267414 4.179670 1.197909
C 5.170380 4.827688 1.715075
C 5.748595 4.262819 1.809644
C 5.685465 4.746397 1.275252
C 0.055962 5.206060 1.028793
C 0.070410 5.400198 1.460498
C 0.460290 5.062442 1.535111
C 0.476753 5.440570 1.047441
C 0.315325 5.228649 1.214644
C 0.397440 5.738461 1.650832
C 0.665083 5.264842 1.676764
C 0.696366 5.702178 1.367987
C 0.921983 5.023361 0.973903
C 0.901757 5.532138 1.586617
C 1.483515 4.896977 1.579143
C 1.406797 5.593467 1.002524
C 1.344151 5.316841 1.280276
C 1.222527 5.601926 1.730574
C 1.772680 5.332067 1.717545
C 1.690949 5.574211 1.190803
C 2.014880 5.126104 0.912346
C 1.993065 5.544167 1.491299
C 2.427327 5.063409 1.532534
C 2.418963 5.596902 1.050298
C 2.241185 5.240752 1.277459
C 2.122932 5.739211 1.674665
C 2.632165 5.197809 1.790781
C 2.822135 5.715454 1.399180
C 2.984483 4.937099 0.991177
C 3.100234 5.546007 1.471294
C 3.347239 4.985745 1.537151
C 3.447100 5.386867 0.939376
C 3.299595 5.235476 1.343749
C 3.344512 5.729082 1.669505
C 3.661586 5.335583 1.859108
C 3.775484 5.728174 1.339121
C 3.996981 5.010331 0.937126
C 3.981517 5.349553 1.446601
C 4.531634 5.014250 1.433637
C 4.489821 5.380771 0.886548
C 4.219123 5.268519 1.282929
C 4.405148 5.742115 1.723545
C 4.622994 5.269063 1.694368
C 4.831153 5.729815 1.144113
C 5.069176 4.914791 0.913162
C 5.015643 5.487953 1.434932
C 5.650493 5.027481 1.590101
C 5.629729 5.412551 0.900458
C 5.304053 5.226821 1.352049
C 5.212570 5.598237 1.676905
C 5.699482 5.395846 1.798063
C 5.580117 5.679340 1.222043
C 0.137281 0.001657 2.127304
C 0.086065 0.607743 2.552867
C 0.406377 0.076024 2.616978
C 0.506833 0.655013 1.919385
C 0.279723 0.283743 2.119014
C 0.256219 0.829146 2.874688
C 0.666879 0.253810 2.698267
C 0.713458 0.612514 2.177086
C 0.998938 0.039206 1.838649
C 1.024674 0.465091 2.652653
C 1.407013 0.029624 2.638610
C 1.416868 0.436702 2.109608
C 1.205204 0.155626 2.285457
C 1.273710 0.775077 2.683218
C 1.816317 0.226069 2.843900
C 1.577244 0.717832 2.273968
C 1.919392 0.013578 2.015565
C 2.100204 0.649119 2.486003
C 2.509219 0.093074 2.455492
C 2.577889 0.434936 2.117068
C 2.271802 0.346901 2.314095
C 2.205815 0.734099 2.784985
C 2.750385 0.354133 2.779846
C 2.753994 0.714125 2.391542
C 2.885540 0.050874 1.954645
C 3.034593 0.437337 2.419992
C 3.541896 0.132676 2.486970
C 3.526499 0.566192 2.127709
C 3.219877 0.426533 2.206839
C 3.316536 0.704202 2.917455
C 3.921163 0.157672 2.774632
C 3.742879 0.799560 2.350898
C 3.974059 0.052861 2.099385
C 4.098095 0.516144 2.529726
C 4.449214 0.069174 2.587940
C 4.589067 0.470766 1.977358
C 4.219400 0.256326 2.127071
C 4.363484 0.736170 2.796980
C 4.733604 0.268037 2.680650
C 4.711565 0.842473 2.142946
C 4.970884 0.121096 2.019951
C 5.122497 0.531192 2.470332
C 5.516458 0.083725 2.360171
C 5.472149 0.554596 1.986361
C 5.189549 0.307839 2.222325
C 5.307255 0.848082 2.740303
C 5.703766 0.119080 2.569482
C 5.749433 0.777709 2.087400
C 0.025944 0.894662 1.977863
C 0.050049 1.425205 2.393144
C 0.570669 0.899043 2.459874
C 0.398625 1.551958 1.899774
C 0.441184 1.251252 2.286777
C 0.237874 1.775649 2.677948
C 0.745368 1.120206 2.765831
C 0.742888 1.672333 2.364247
C 1.078616 0.963640 1.895324
C 1.059156 1.544181 2.515124
C 1.511315 1.066983 2.527274
C 1.424981 1.493284 2.001234
C 1.294601 1.281257 2.276866
C 1.184043 1.724984 2.876201
C 1.759731 1.159270 2.830172
C 1.712077 1.707904 2.371205
C 1.943841 1.088587 2.022998
C 1.907984 1.480437 2.486350
C 2.493843 0.994253 2.474852
C 2.434675 1.463554 1.990655
C 2.234551 1.379192 2.195302
C 2.196881 1.710385 2.695646
C 2.737652 1.199015 2.785811
C 2.895166 1.795413 2.290153
C 2.916927 0.939294 1.914864
C 3.118791 1.502403 2.557771
C 3.611957 1.047092 2.502915
C 3.538576 1.520685 2.081134
C 3.243054 1.171198 2.163276
C 3.232975 1.754644 2.685848
C 3.785839 1.152701 2.801904
C 3.660217 1.746053 2.299278
C 3.940468 1.126496 1.888141
C 3.966227 1.521597 2.649251
C 4.436797 1.012607 2.499155
C 4.383836 1.539374 2.098786
C 4.298445 1.321815 2.336046
C 4.330752 1.610550 2.794198
C 4.842699 1.262898 2.861825
C 4.777846 1.696464 2.278299
C 4.944327 0.894925 1.942990
C 4.971092 1.528501 2.452739
C 5.520336 1.006563 2.588950
C 5.467872 1.479652 1.905939
C 5.327122 1.341756 2.269445
C 5.278487 1.670306 2.820257
C 5.635584 1.263245 2.704330
C 5.737413 1.836756 2.352543
C 0.077921 2.111700 2.073739
C 0.112445 2.439625 2.590965
C 0.607740 1.918712 2.542490
C 0.539229 2.569084 2.041458
C 0.259048 2.267250 2.258331
C 0.198307 2.728031 2.703829
C 0.778858 2.210227 2.721007
C 0.831260 2.593958 2.183530
C 0.889535 1.952267 1.934125
C 1.017005 2.481685 2.496504
C 1.432882 1.871941 2.505061
C 1.590060 2.498608 2.022226
C 1.145477 2.135926 2.304675
C 1.226491 2.664196 2.811943
C 1.736680 2.144829 2.853863
C 1.808782 2.808637 2.356279
C 1.978276 2.000391 2.004980
C 1.967868 2.388549 2.435618
C 2.656596 2.006787 2.437466
C 2.590503 2.437764 2.051785
C 2.290183 2.298764 2.314005
C 2.198885 2.761713 2.881807
C 2.642750 2.142921 2.674738
C 2.796650 2.766611 2.364263
C 2.922388 1.873876 1.965272
C 3.010631 2.581956 2.641956
C 3.555597 2.141223 2.505124
C 3.478516 2.545673 2.168838
C 3.369439 2.277471 2.148313
C 3.264035 2.677183 2.582767
C 3.802242 2.349450 2.816698
C 3.784971 2.687810 2.279784
C 3.894095 2.015164 2.011896
C 3.951720 2.529225 2.558148
C 4.462758 1.974077 2.473838
C 4.532331 2.501941 1.881519
C 4.192916 2.352600 2.247662
C 4.343633 2.788152 2.857812
C 4.634861 2.373783 2.768218
C 4.768056 2.639018 2.353771
C 5.010271 1.942583 1.974113
C 5.063361 2.638835 2.579443
C 5.457768 2.046882 2.563611
C 5.513154 2.637795 2.062570
C 5.322079 2.143066 2.232523
C 5.213502 2.848471 2.866336
C 5.670409 2.320562 2.720795
C 5.734632 2.755848 2.292374
C 0.050250 2.922409 2.054912
C 0.002358 3.508132 2.440076
C 0.487642 2.970345 2.528329
C 0.480051 3.638591 1.953550
C 0.134262 3.161725 2.262730
C 0.222727 3.677269 2.725345
C 0.684730 3.206738 2.871348
C 0.730078 3.731839 2.097455
C 0.983216 2.904710 2.046840
C 0.893791 3.624441 2.451765
C 1.508186 3.038099 2.483587
C 1.420901 3.557439 2.142894
C 1.118750 3.301898 2.247212
C 1.206278 3.782724 2.874416
C 1.737891 3.272403 2.729181
C 1.667806 3.805179 2.177398
C 1.880162 3.021008 2.105290
C 1.918507 3.615582 2.425543
C 2.477516 3.090075 2.553232
C 2.472534 3.610698 1.898262
C 2.382409 3.262009 2.292343
C 2.127951 3.795557 2.664209
C 2.872331 3.230328 2.815289
C 2.654962 3.757612 2.203728
C 2.954839 3.055861 2.118246
C 2.955992 3.483317 2.643829
C 3.463884 2.865993 2.467130
C 3.382989 3.441458 2.091625
C 3.437725 3.186286 2.277837
C 3.242610 3.679897 2.697900
C 3.745585 3.128587 2.685254
C 3.782730 3.738361 2.373286
C 4.108323 3.032131 1.923743
C 4.008238 3.505808 2.475719
C 4.569035 3.096639 2.466096
C 4.401851 3.412315 2.029231
C 4.171655 3.204392 2.226218
C 4.193608 3.755736 2.874320
C 4.792062 3.313684 2.576013
C 4.690011 3.631515 2.164816
C 4.896135 2.934379 2.102581
C 4.937925 3.582729 2.493746
C 5.476865 3.011899 2.396795
C 5.450527 3.559051 1.938875
C 5.130413 3.198436 2.186872
C 5.303087 3.656546 2.770124
C 5.650652 3.169532 2.823160
C 5.692791 3.883594 2.353484
C 0.036776 3.970874 1.874829
C 0.109057 4.410541 2.534584
C 0.622378 3.909888 2.453074
C 0.433883 4.401686 1.947791
C 0.329283 4.164977 2.220979
C 0.285372 4.785046 2.888816
C 0.670435 4.207067 2.568377
C 0.685684 4.734488 2.145512
C 0.971836 4.097908 1.999434
C 1.063154 4.447499 2.538121
C 1.577615 4.003744 2.609047
C 1.555440 4.388004 1.895514
C 1.227555 4.395005 2.221219
C 1.176005 4.707212 2.704478
C 1.680942 4.348371 2.733465
C 1.768873 4.849349 2.284325
C 2.056337 4.094288 2.106824
C 2.002140 4.461067 2.428871
C 2.532693 3.949329 2.464351
C 2.592029 4.534434 1.880245
C 2.286162 4.288632 2.308161
C 2.137472 4.754486 2.768634
C 2.897643 4.216338 2.789962
C 2.750430 4.662237 2.175142
C 3.033225 4.103701 1.967250
C 3.017503 4.453755 2.545577
C 3.529674 4.085918 2.522115
C 3.453193 4.412146 1.986235
C 3.204648 4.291441 2.193113
C 3.211126 4.657982 2.771095
C 3.836867 4.225646 2.771632
C 3.768058 4.750213 2.232313
C 3.986014 4.003332 1.931308
C 4.081347 4.548634 2.526002
C 4.616019 3.990749 2.382152
C 4.507256 4.618609 2.059752
C 4.270367 4.399897 2.246019
C 4.252741 4.715195 2.716527
C 4.705912 4.351521 2.804621
C 4.637288 4.680161 2.327436
C 4.940769 3.947944 2.017937
C 5.136361 4.519811 2.437321
C 5.431792 3.852733 2.496553
C 5.576042 4.643841 2.017693
C 5.346362 4.295562 2.188627
C 5.324579 4.745824 2.645262
C 5.641521 4.219944 2.804482
C 5.720091 4.756936 2.274078
C 0.057081 5.131487 2.109063
C 0.037827 5.398784 2.357257
C 0.464427 5.035188 2.498235
C 0.457029 5.550276 2.015904
C 0.385556 5.283969 2.294109
C 0.233393 5.728268 2.659518
C 0.699240 5.371179 2.695517
C 0.666903 5.732207 2.284298
C 0.986301 5.057171 2.061097
C 0.912278 5.509309 2.425963
C 1.455276 5.104644 2.343483
C 1.374844 5.502838 2.094430
C 1.189551 5.273173 2.089211
C 1.288899 5.634137 2.767072
C 1.691756 5.205697 2.834239
C 1.725780 5.573978 2.324613
C 2.038599 5.098131 1.906694
C 1.944818 5.503942 2.599094
C 2.456402 4.969708 2.457245
C 2.523514 5.627992 2.087128
C 2.381088 5.337348 2.171127
C 2.320554 5.614082 2.827410
C 2.666495 5.299564 2.725150
C 2.616518 5.741651 2.421913
C 2.928325 4.998042 1.921296
C 3.076034 5.444671 2.590056
C 3.591392 5.040033 2.456608
C 3.454777 5.439715 2.076086
C 3.222320 5.320789 2.298665
C 3.148259 5.698489 2.768422
C 3.662182 5.288885 2.838110
C 3.786292 5.730789 2.143967
C 3.845672 5.068923 2.012252
C 3.900027 5.438105 2.535181
C 4.489332 4.960334 2.389532
C 4.515900 5.552166 1.997918
C 4.173264 5.323169 2.286786
C 4.286021 5.608308 2.621088
C 4.693278 5.177461 2.643955
C 4.775671 5.716377 2.445464
C 4.962519 5.005599 2.022062
C 5.013367 5.509986 2.431276
C 5.406906 5.023242 2.474925
C 5.528336 5.483885 2.026552
C 5.323547 5.271420 2.340662
C 5.369816 5.692958 2.693371
C 5.726442 5.239175 2.868749
C 5.587204 5.675995 2.354135
C 0.014144 0.157189 2.977427
C 0.156880 0.345047 3.475972
C 0.452703 0.059850 3.478163
C 0.612071 0.465624 3.054182
C 0.329338 0.092668 3.210669
C 0.340404 0.786506 3.758032
C 0.668003 0.276722 3.609224
C 0.875398 0.723513 3.177289
C 1.091534 0.007174 2.924731
C 1.033941 0.456085 3.478167
C 1.427287 0.034496 3.519322
C 1.603378 0.415524 3.107731
C 1.182048 0.177553 3.315534
C 1.232124 0.706314 3.819337
C 1.851142 0.259962 3.738041
C 1.811188 0.797923 3.245988
C 1.954387 0.103806 3.114433
C 1.919418 0.536696 3.472856
C 2.491104 0.071374 3.641673
C 2.516770 0.460644 3.106051
C 2.375826 0.166849 3.241625
C 2.267606 0.697330 3.848012
C 2.677153 0.281153 3.675437
C 2.833284 0.730034 3.259184
C 3.001757 0.040305 2.965667
C 2.996981 0.481110 3.424994
C 3.460865 0.071781 3.464354
C 3.541710 0.436213 2.904978
C 3.228831 0.290242 3.357168
C 3.132383 0.682063 3.758043
C 3.645152 0.362448 3.738044
C 3.767247 0.709864 3.186417
C 4.115750 0.028552 2.969254
C 3.966201 0.420539 3.556680
C 4.444437 0.117101 3.531172
C 4.619947 0.473706 3.122557
C 4.226198 0.308778 3.121087
C 4.197743 0.805301 3.882266
C 4.892011 0.226315 3.709345
C 4.768307 0.728137 3.218281
C 5.073794 0.100578 2.912113
C 5.029192 0.425954 3.457252
C 5.651947 0.015607 3.616897
C 5.514637 0.373111 2.939916
C 5.176142 0.275967 3.242523
C 5.267111 0.719657 3.641723
C 5.710910 0.346472 3.928781
C 5.731425 0.578132 3.240618
C 0.055473 0.981137 3.047088
C 0.034406 1.511874 3.608536
C 0.618987 1.044578 3.598464
C 0.501596 1.628838 2.963376
C 0.271123 1.381620 3.357854
C 0.353001 1.688297 3.787007
C 0.784341 1.351715 3.726735
C 0.730795 1.888428 3.114633
C 1.089189 1.108021 3.060649
C 0.996555 1.524755 3.617067
C 1.456387 1.061260 3.483456
C 1.587051 1.522831 2.966967
C 1.413938 1.315396 3.319786
C 1.282418 1.656641 3.835124
C 1.659879 1.316628 3.739428
C 1.888844 1.690987 3.192926
C 1.981386 1.088256 3.132168
C 1.971217 1.319970 3.454830
C 2.390175 1.078776 3.547405
C 2.504088 1.573047 3.066859
C 2.327718 1.283403 3.218532
C 2.345330 1.778683 3.765712
C 2.603325 1.303876 3.681919
C 2.783601 1.879263 3.172752
C 3.078760 0.964187 2.882430
C 3.115783 1.571167 3.488201
C 3.555564 1.106173 3.450627
C 3.540700 1.542938 3.076839
C 3.255934 1.327556 3.334894
C 3.147950 1.904505 3.827768
C 3.707908 1.136850 3.826763
C 3.744947 1.760095 3.294056
C 3.992686 1.071757 3.015053
C 3.952777 1.460071 3.584984
C 4.551530 0.921165 3.630600
C 4.491054 1.483661 3.026693
C 4.224755 1.251374 3.373614
C 4.243187 1.772225 3.729611
C 4.705331 1.290036 3.855409
C 4.755612 1.819679 3.362053
C 5.078171 0.986054 3.007789
C 4.987521 1.580877 3.425516
C 5.426208 1.067759 3.563219
C 5.532927 1.493463 2.979977
C 5.108615 1.228936 3.234766
C 5.323107 1.744797 3.864802
C 5.662899 1.161530 3.764905
C 5.634291 1.585944 3.325384
C 0.028135 1.966895 2.883806
C 0.029596 2.434251 3.532019
C 0.431074 2.101861 3.480917
C 0.464996 2.626740 3.056783
C 0.368490 2.299968 3.266087
C 0.192738 2.708509 3.738094
C 0.818447 2.364697 3.721160
C 0.730104 2.638448 3.149866
C 0.938367 2.060590 2.962464
C 1.003736 2.643549 3.515822
C 1.414233 1.990960 3.555215
C 1.457048 2.448750 3.025501
C 1.324032 2.249649 3.337873
C 1.236476 2.833397 3.651648
C 1.745048 2.357247 3.751545
C 1.632126 2.806997 3.174653
C 2.016818 1.948397 3.026563
C 2.011418 2.595981 3.568106
C 2.488676 1.992638 3.499166
C 2.560900 2.490774 3.101457
C 2.301277 2.177913 3.286317
C 2.208008 2.736528 3.776201
C 2.736150 2.304028 3.800655
C 2.775599 2.674838 3.213300
C 3.063148 2.104469 3.006582
C 2.948101 2.452697 3.412600
C 3.416093 2.021817 3.576274
C 3.536120 2.477323 2.935913
C 3.402802 2.200732 3.318467
C 3.202302 2.643370 3.692312
C 3.777671 2.298301 3.845487
C 3.810100 2.843543 3.298835
C 3.966149 2.179783 3.001041
C 4.047707 2.448367 3.375169
C 4.550948 1.919394 3.635247
C 4.400563 2.542780 3.019976
C 4.303775 2.333526 3.312030
C 4.299955 2.835819 3.706698
C 4.721594 2.133551 3.625685
C 4.790704 2.751640 3.401232
C 4.959030 1.998636 3.026261
C 5.054910 2.467188 3.466548
C 5.549308 2.116346 3.438054
C 5.506984 2.528606 3.098027
C 5.249964 2.281530 3.327635
C 5.361204 2.807445 3.779590
C 5.745480 2.286894 3.653093
C 5.746747 2.617143 3.250261
C 0.014614 2.925542 2.907647
C 0.059746 3.475088 3.439981
C 0.417880 3.056322 3.633605
C 0.449250 3.412382 3.052976
C 0.237766 3.327293 3.239820
C 0.146781 3.728432 3.632522
C 0.756497 3.258489 3.844872
C 0.697696 3.673773 3.227016
C 1.004999 2.953810 3.146493
C 0.903507 3.530090 3.538103
C 1.435879 3.019910 3.518605
C 1.340340 3.468849 2.948141
C 1.312134 3.194044 3.286195
C 1.301624 3.846038 3.733219
C 1.715304 3.375046 3.771468
C 1.835304 3.740570 3.319903
C 2.022231 3.051050 3.042347
C 1.903310 3.481679 3.371255
C 2.563781 3.079697 3.561199
C 2.507927 3.540196 2.917259
C 2.336147 3.360250 3.134868
C 2.197542 3.871339 3.831937
C 2.756160 3.260231 3.843963
C 2.820781 3.654333 3.174940
C 3.154446 2.958962 2.987351
C 2.984486 3.622109 3.452069
C 3.587698 2.974107 3.587566
C 3.547839 3.423858 3.071686
C 3.200685 3.154191 3.256683
C 3.302788 3.737723 3.797526
C 3.739065 3.228742 3.670503
C 3.632303 3.676157 3.297370
C 3.948294 3.068846 3.109386
C 3.990462 3.401177 3.480400
C 4.448197 3.056396 3.410515
C 4.401137 3.522770 2.867867
C 4.144680 3.341897 3.231158
C 4.389991 3.711007 3.813149
C 4.671886 3.132950 3.784210
C 4.686849 3.751843 3.266440
C 4.888286 2.862652 3.007447
C 4.928075 3.499371 3.387687
C 5.529374 3.087062 3.453378
C 5.444000 3.395350 2.966648
C 5.263929 3.173079 3.145814
C 5.393937 3.691738 3.702716
C 5.610293 3.213541 3.813659
C 5.646638 3.700094 3.102681
C 0.082863 4.034439 3.017542
C 0.005882 4.491837 3.407678
C 0.473395 4.021902 3.527110
C 0.447468 4.443331 2.947203
C 0.213652 4.351080 3.147643
C 0.225628 4.807263 3.639127
C 0.750357 4.273333 3.689560
C 0.686586 4.813901 3.125157
C 0.967635 3.902882 2.998209
C 1.049169 4.524418 3.599966
C 1.550474 4.090759 3.449336
C 1.530995 4.557054 2.885044
C 1.270620 4.283567 3.237159
C 1.371265 4.651417 3.726646
C 1.724751 4.280322 3.760427
C 1.789646 4.734367 3.221747
C 2.014207 3.869242 3.085495
C 1.990307 4.530435 3.412575
C 2.519668 4.102121 3.515460
C 2.489730 4.402836 2.936405
C 2.092713 4.305438 3.247485
C 2.218084 4.881527 3.798141
C 2.767053 4.279377 3.662657
C 2.695963 4.847412 3.172052
C 3.040963 4.090370 3.041666
C 3.069253 4.420089 3.481516
C 3.505892 3.875906 3.560775
C 3.513884 4.496390 2.933537
C 3.326282 4.237909 3.345293
C 3.360575 4.676876 3.802860
C 3.776198 4.394544 3.814148
C 3.656230 4.678247 3.159344
C 4.014708 4.102970 3.015906
C 4.007504 4.394920 3.365163
C 4.501987 4.016376 3.435212
C 4.415568 4.643087 3.023339
C 4.223545 4.088204 3.236287
C 4.231298 4.671640 3.655546
C 4.889038 4.242202 3.835964
C 4.670504 4.706715 3.201389
C 4.995676 3.912759 3.117828
C 5.085712 4.515908 3.516933
C 5.418282 3.940071 3.517321
C 5.581491 4.401512 3.036142
C 5.220277 4.330073 3.279340
C 5.341348 4.764887 3.845810
C 5.716919 4.289663 3.653528
C 5.612992 4.691960 3.166047
C 0.072081 5.104061 3.041626
C 0.008649 5.554759 3.669668
C 0.472023 4.985295 3.646777
C 0.532057 5.420383 2.991366
C 0.120393 5.323954 3.224657
C 0.301686 5.734826 3.652114
C 0.687127 5.234318 3.899388
C 0.700704 5.664289 3.371147
C 0.951847 4.884545 2.951944
C 1.060726 5.518160 3.543302
C 1.524544 5.073983 3.550207
C 1.570888 5.515465 2.960529
C 1.293215 5.238389 3.331085
C 1.214506 5.632484 3.783312
C 1.767524 5.158230 3.789681
C 1.794968 5.697780 3.191044
C 1.863210 4.994727 3.020264
C 1.905657 5.612739 3.464469
C 2.442725 4.920039 3.514568
C 2.492239 5.393314 3.127707
C 2.170930 5.283031 3.253970
C 2.186528 5.725385 3.900401
C 2.842525 5.263795 3.766587
C 2.676785 5.724492 3.191805
C 2.996339 4.915156 3.029714
C 2.986141 5.495498 3.394426
C 3.445276 5.008496 3.583245
C 3.356463 5.441644 2.978330
C 3.286675 5.151294 3.344910
C 3.321795 5.653311 3.829107
C 3.856377 5.159243 3.759730
C 3.674567 5.573422 3.306195
C 4.083688 4.876605 2.962867
C 3.987231 5.408528 3.392592
C 4.571988 4.994353 3.598091
C 4.542797 5.579682 2.909068
C 4.121406 5.173718 3.235070
C 4.356560 5.734429 3.745533
C 4.885522 5.278506 3.725162
C 4.699569 5.700743 3.295973
C 4.902334 5.076239 2.909190
C 5.046009 5.517252 3.448506
C 5.575020 4.989878 3.409457
C 5.445108 5.570768 3.002637
C 5.122287 5.257151 3.317534
C 5.124045 5.732607 3.761043
C 5.712864 5.183133 3.682063
C 5.656798 5.722558 3.211540
C 0.094090 0.101160 3.874825
C 0.019825 0.579566 4.629503
C 0.513941 0.099910 4.513318
C 0.432105 0.565708 3.977692
C 0.185824 0.141119 4.171836
C 0.294898 0.887276 4.693480
C 0.869956 0.286233 4.791914
C 0.718155 0.755957 4.247906
C 0.913024 0.092256 3.958912
C 1.058675 0.636106 4.559752
C 1.600199 0.079667 4.446212
C 1.513460 0.605699 4.004584
C 1.288054 0.197215 4.326837
C 1.416303 0.793643 4.742750
C 1.753291 0.277270 4.683643
C 1.707866 0.725917 4.269831
C 1.970809 0.091159 4.031564
C 1.995440 0.576339 4.560354
C 2.388492 0.045990 4.346390
C 2.466952 0.430275 3.944444
C 2.288388 0.377411 4.242811
C 2.284687 0.833464 4.679875
C 2.649303 0.172896 4.832576
C 2.739713 0.634476 4.177544
C 3.110617 0.095739 3.895739
C 2.962101 0.513300 4.655529
C 3.506365 0.145442 4.469844
C 3.576980 0.416828 4.006857
C 3.207348 0.169253 4.278030
C 3.162407 0.791656 4.841084
C 3.854765 0.198939 4.680709
C 3.818258 0.729300 4.141464
C 4.097837 0.007239 3.846509
C 3.939694 0.538787 4.541279
C 4.513973 0.053127 4.394536
C 4.497898 0.474020 3.996992
C 4.294158 0.305221 4.215250
C 4.258645 0.804235 4.793201
C 4.747904 0.337616 4.749139
C 4.901348 0.734597 4.193740
C 4.883346 0.088061 4.024915
C 4.881415 0.549011 4.544915
C 5.628372 0.094826 4.541257
C 5.595109 0.557650 3.864019
C 5.285095 0.124023 4.221214
C 5.240060 0.722094 4.840048
C 5.595057 0.202375 4.780716
C 5.626015 0.701963 4.310917
C 0.010429 0.905920 4.055092
C 0.063993 1.579642 4.350122
C 0.572773 0.972719 4.667099
C 0.662435 1.489145 4.074068
C 0.283384 1.134310 4.302301
C 0.192298 1.609146 4.714854
C 0.657422 1.259521 4.743992
C 0.827823 1.819461 4.274735
C 1.053263 1.049338 3.879947
C 0.925383 1.536082 4.367617
C 1.448467 0.903307 4.448833
C 1.433776 1.399035 4.133092
C 1.162596 1.193396 4.168449
C 1.185550 1.606029 4.676501
C 1.632195 1.259761 4.711782
C 1.744544 1.800760 4.195888
C 2.046846 1.092319 4.081905
C 1.817481 1.481184 4.504138
C 2.562580 1.069361 4.561029
C 2.616572 1.448326 3.919089
C 2.360382 1.185499 4.246980
C 2.135202 1.674238 4.810602
C 2.745499 1.270855 4.724512
C 2.892189 1.798900 4.285988
C 2.902068 1.104672 3.955835
C 2.917160 1.429997 4.499414
C 3.503575 0.878103 4.430510
C 3.482636 1.653071 3.949949
C 3.307291 1.212008 4.264842
C 3.267981 1.719097 4.721921
C 3.715797 1.230973 4.743912
C 3.713351 1.848192 4.127437
C 3.909320 0.953752 3.963679
C 3.900591 1.455007 4.523840
C 4.503522 0.962941 4.344304
C 4.450014 1.575499 3.902875
C 4.161736 1.216698 4.310852
C 4.181488 1.727057 4.692477
C 4.820448 1.253664 4.677737
C 4.871116 1.753841 4.310958
C 4.913013 0.985317 3.985483
C 4.878665 1.479692 4.482942
C 5.546381 0.982047 4.377658
C 5.632343 1.595237 3.942599
C 5.273018 1.258576 4.403236
C 5.289794 1.815969 4.889892
C 5.738005 1.324890 4.823473
C 5.623932 1.616117 4.194599
C 0.033230 1.760043 3.949912
C 0.058262 2.497294 4.433947
C 0.393884 2.000629 4.536880
C 0.439155 2.381588 3.997449
C 0.168752 2.166598 4.234580
C 0.268685 2.712162 4.678967
C 0.809495 2.271855 4.764177
C 0.801187 2.754210 4.267500
C 0.915816 2.001841 4.023285
C 0.923136 2.432165 4.521430
C 1.397323 2.002217 4.466315
C 1.511503 2.498740 3.945326
C 1.175287 2.321841 4.304388
C 1.103544 2.709456 4.735726
C 1.755022 2.283355 4.815337
C 1.771634 2.777944 4.089768
C 2.055398 2.058865 4.061383
C 1.892340 2.550835 4.567814
C 2.588491 2.017875 4.471331
C 2.374979 2.511700 4.092811
C 2.191398 2.242969 4.273569
C 2.277209 2.677040 4.733010
C 2.815959 2.269348 4.689677
C 2.626429 2.726760 4.301082
C 3.076283 1.990744 4.129073
C 2.885375 2.497470 4.493908
C 3.563786 1.908096 4.473815
C 3.572401 2.503940 3.919931
C 3.323913 2.302832 4.240677
C 3.317413 2.758432 4.776730
C 3.798575 2.299604 4.857027
C 3.656578 2.819345 4.345353
C 4.028149 1.871546 3.919767
C 4.000568 2.619563 4.581537
C 4.515946 1.923596 4.577286
C 4.483781 2.523949 3.945328
C 4.273596 2.175011 4.221674
C 4.216056 2.639905 4.766328
C 4.674015 2.336099 4.814227
C 4.861764 2.774445 4.213284
C 4.920230 1.901064 4.053835
C 4.991483 2.609723 4.522240
C 5.532829 2.083144 4.491454
C 5.524703 2.402495 3.955173
C 5.295358 2.225778 4.423195
C 5.259749 2.824583 4.817513
C 5.707888 2.228743 4.684501
C 5.697956 2.550097 4.346064
C 0.053909 2.916922 3.959132
C 0.090721 3.550604 4.445340
C 0.446885 3.102174 4.547984
C 0.390521 3.519667 4.091097
C 0.247577 3.236383 4.297159
C 0.160678 3.792692 4.671569
C 0.763774 3.227392 4.669928
C 0.769658 3.854056 4.174811
C 1.045981 2.932987 4.046718
C 0.939004 3.427149 4.442030
C 1.509186 3.063959 4.571337
C 1.457915 3.504944 3.996371
C 1.288202 3.332166 4.207498
C 1.196811 3.701927 4.882810
C 1.644408 3.326058 4.736214
C 1.779316 3.758439 4.244340
C 2.094895 2.954341 4.030051
C 2.059725 3.553287 4.555826
C 2.410177 3.073679 4.417148
C 2.502041 3.426248 3.943661
C 2.250157 3.255774 4.101797
C 2.272632 3.598221 4.778133
C 2.797443 3.284295 4.820248
C 2.758222 3.766767 4.311331
C 2.983923 3.078225 4.022757
C 2.926906 3.478676 4.453839
C 3.439925 2.998694 4.449883
C 3.639111 3.541914 4.014977
C 3.234074 3.232211 4.107597
C 3.355279 3.685909 4.846092
C 3.818939 3.227138 4.625106
C 3.824562 3.886025 4.280457
C 4.103884 3.023637 3.944464
C 4.056535 3.613397 4.454650
C 4.518831 3.126675 4.521350
C 4.431100 3.552361 4.114548
C 4.154847 3.205524 4.196867
C 4.095503 3.758673 4.742921
C 4.665989 3.338361 4.817669
C 4.740883 3.773449 4.152802
C 5.068562 3.074474 4.007174
C 5.002410 3.556411 4.366009
C 5.551067 2.931957 4.448253
C 5.542456 3.511868 3.957926
C 5.238405 3.135588 4.253236
C 5.157660 3.804012 4.610029
C 5.725054 3.262164 4.837227
C 5.712154 3.869493 4.245299
C 0.012814 3.876107 3.915406
C 0.024022 4.407242 4.363794
C 0.510142 3.979916 4.619240
C 0.548428 4.484423 3.876542
C 0.294494 4.232156 4.174505
C 0.355181 4.648636 4.768111
C 0.788370 4.288165 4.747884
C 0.784389 4.715865 4.184654
C 1.148991 3.978226 4.126479
C 1.080323 4.438156 4.427122
C 1.462163 4.082264 4.555852
C 1.547909 4.383945 4.083010
C 1.296744 4.227709 4.187723
C 1.354454 4.695801 4.813790
C 1.600174 4.294083 4.818791
C 1.838231 4.786658 4.314337
C 1.929391 3.880347 3.997037
C 2.089913 4.498560 4.455477
C 2.619748 4.073942 4.490007
C 2.530260 4.480930 4.094772
C 2.159754 4.252344 4.297035
C 2.359390 4.717049 4.864057
C 2.725048 4.284646 4.827227
C 2.831710 4.679764 4.251341
C 3.038823 4.094980 3.938752
C 3.047401 4.555496 4.609304
C 3.592821 4.109743 4.514951
C 3.600286 4.508826 4.024553
C 3.383902 4.286466 4.262380
C 3.353827 4.717465 4.657050
C 3.803771 4.323314 4.840186
C 3.825983 4.726071 4.276481
C 3.986477 4.107135 3.911764
C 3.876291 4.415980 4.508099
C 4.622719 3.973937 4.501944
C 4.476246 4.603258 3.949137
C 4.283202 4.190011 4.137103
C 4.345924 4.861894 4.692351
C 4.700185 4.316300 4.633383
C 4.765523 4.753289 4.297730
C 5.075843 3.957484 3.940029
C 5.058194 4.426104 4.422544
C 5.413472 4.087197 4.556492
C 5.387241 4.411517 3.996315
C 5.219772 4.214037 4.197848
C 5.274740 4.672656 4.704415
C 5.678705 4.313942 4.574138
C 5.627231 4.878302 4.228632
C 0.090066 5.111587 4.082850
C 0.085937 5.492733 4.389583
C 0.470903 4.987223 4.498851
C 0.520252 5.622812 3.899657
C 0.326506 5.216762 4.321121
C 0.347279 5.739446 4.764688
C 0.763168 5.280471 4.655391
C 0.849460 5.664234 4.161993
C 1.090885 5.021271 4.009659
C 1.107783 5.487739 4.414378
C 1.367846 4.848238 4.481798
C 1.477245 5.388725 3.892389
C 1.293947 5.240107 4.155600
C 1.190378 5.646676 4.705715
C 1.639180 5.308112 4.796909
C 1.839309 5.740336 4.200910
C 2.048607 5.058410 4.096673
C 1.851673 5.428782 4.549784
C 2.592092 4.936213 4.425263
C 2.567561 5.402838 4.004182
C 2.206313 5.324841 4.388714
C 2.249396 5.714732 4.914371
C 2.881612 5.210358 4.701443
C 2.658254 5.634311 4.219399
C 3.049357 5.063948 4.106508
C 2.931071 5.374061 4.349055
C 3.397085 4.967400 4.501012
C 3.619138 5.503387 4.089330
C 3.320843 5.334935 4.147317
C 3.289674 5.704382 4.885314
C 3.712378 5.243357 4.674139
C 3.887485 5.645061 4.211507
C 3.967588 5.032339 4.060313
C 3.990014 5.483310 4.587249
C 4.493821 5.022361 4.472876
C 4.481484 5.588822 4.090408
C 4.225771 5.228739 4.280538
C 4.146745 5.730227 4.798459
C 4.763004 5.256753 4.730674
C 4.720210 5.697047 4.345702
C 4.992441 5.039894 3.996146
C 5.029568 5.448659 4.561001
C 5.388516 4.974445 4.475642
C 5.437030 5.434182 3.901957
C 5.189255 5.219288 4.349710
C 5.391183 5.694252 4.715299
C 5.698745 5.214952 4.812075
C 5.703131 5.719980 4.191021
C 0.054559 0.137888 4.885395
C 0.039073 0.446104 5.603682
C 0.333620 0.086191 5.509456
C 0.553818 0.359413 5.051930
C 0.231063 0.155385 5.249723
C 0.352106 0.668669 5.648504
C 0.667891 0.230477 5.739069
C 0.902775 0.751728 5.274389
C 1.134614 0.022043 4.913320
C 1.006605 0.523728 5.465496
C 1.523829 0.060044 5.480303
C 1.596195 0.639478 4.970605
C 1.197322 0.232938 5.180344
C 1.329401 0.861055 5.658054
C 1.855595 0.261900 5.685168
C 1.805600 0.734615 5.252150
C 2.135892 0.032899 5.058083
C 1.963798 0.404799 5.438166
C 2.312149 0.063060 5.561960
C 2.553704 0.462227 4.940428
C 2.227397 0.226176 5.327325
C 2.341835 0.690321 5.709695
C 2.650152 0.202987 5.700456
C 2.790428 0.650529 5.150162
C 2.977956 0.095842 4.951434
C 2.902255 0.471765 5.592984
C 3.397147 0.036335 5.533062
C 3.593201 0.500384 4.859020
C 3.385124 0.189856 5.133145
C 3.325414 0.626720 5.746198
C 3.816764 0.209986 5.652512
C 3.772483 0.748340 5.206696
C 4.054488 0.065654 5.052956
C 4.012466 0.379021 5.416189
C 4.393197 0.006829 5.533451
C 4.521532 0.666467 5.021322
C 4.318880 0.250953 5.280718
C 4.326675 0.663202 5.578489
C 4.876592 0.337108 5.730330
C 4.762810 0.799338 5.190185
C 5.091662 0.085380 5.135865
C 4.922489 0.582997 5.528935
C 5.487343 0.059006 5.605381
C 5.559216 0.472850 4.887573
C 5.372374 0.292858 5.099028
C 5.212890 0.765893 5.566971
C 5.681718 0.269155 5.683184
C 5.631971 0.632928 5.228950
C 0.128521 0.887081 4.940219
C 0.034650 1.571032 5.375108
C 0.407247 0.991929 5.575904
C 0.501310 1.444673 5.038889
C 0.201972 1.323523 5.242660
C 0.246194 1.744091 5.735414
C 0.890041 1.257935 5.740527
C 0.650460 1.667645 5.222500
C 1.037149 1.025537 4.994914
C 1.061230 1.436614 5.475149
C 1.524219 1.004294 5.480550
C 1.481588 1.598880 5.074173
C 1.212897 1.152822 5.302510
C 1.256516 1.554430 5.713597
C 1.734795 1.279593 5.622779
C 1.648638 1.782808 5.294124
C 1.972345 0.990446 5.097234
C 2.111171 1.497485 5.560296
C 2.492003 1.061124 5.649823
C 2.404297 1.522273 4.961025
C 2.060127 1.246561 5.254856
C 2.396951 1.695310 5.721627
C 2.845039 1.101169 5.664820
C 2.744899 1.715804 5.384474
C 2.891004 1.020666 5.115357
C 3.034868 1.565544 5.409063
C 3.553359 1.081956 5.568734
C 3.456833 1.522487 5.010008
C 3.170979 1.212227 5.399202
C 3.358819 1.873562 5.739844
C 3.799173 1.207283 5.694246
C 3.896116 1.756250 5.301194
C 4.039117 1.124653 5.007436
C 4.141067 1.438385 5.393580
C 4.356763 0.974084 5.466435
C 4.556865 1.405556 4.996490
C 4.348118 1.233001 5.276270
C 4.294502 1.816163 5.685899
C 4.589350 1.194126 5.668841
C 4.749500 1.693979 5.160375
C 5.022692 1.083798 4.953952
C 4.993117 1.411577 5.595059
C 5.550635 1.028976 5.488512
C 5.556004 1.389383 5.064964
C 5.339825 1.201265 5.260598
C 5.369251 1.668903 5.749372
C 5.696079 1.366570 5.719479
C 5.726283 1.714691 5.368935
C 0.079446 1.973218 5.093922
C 0.009304 2.527665 5.642348
C 0.546123 1.946562 5.472010
C 0.429132 2.509029 5.053117
C 0.247624 2.324870 5.318202
C 0.210470 2.656829 5.545325
C 0.643444 2.318149 5.632237
C 0.806564 2.677352 5.128894
C 1.085765 2.012155 5.006886
C 1.099472 2.468854 5.458704
C 1.607354 2.019327 5.473254
C 1.457316 2.538933 4.840437
C 1.402857 2.287903 5.329169
C 1.272879 2.923316 5.731111
C 1.843401 2.135408 5.745305
C 1.887762 2.782541 5.211291
C 2.016309 2.053586 4.885503
C 2.079715 2.603141 5.453239
C 2.444608 2.080978 5.542454
C 2.446602 2.555496 4.990643
C 2.180814 2.237195 5.183962
C 2.148453 2.722993 5.735565
C 2.797142 2.231943 5.628509
C 2.820392 2.681717 5.169107
C 3.152079 1.921985 5.021843
C 2.939060 2.497201 5.492947
C 3.513812 2.109404 5.472456
C 3.544265 2.510925 5.003175
C 3.136106 2.197221 5.278731
C 3.174247 2.816708 5.664244
C 3.851694 2.339998 5.651657
C 3.743831 2.887955 5.321055
C 4.034128 2.056302 5.012625
C 4.138273 2.560179 5.480203
C 4.618339 1.910058 5.455813
C 4.425532 2.440966 4.990713
C 4.367532 2.232278 5.364553
C 4.375863 2.687905 5.628138
C 4.801166 2.173240 5.628501
C 4.786730 2.614180 5.275319
C 5.045896 1.994102 4.907041
C 5.069109 2.541897 5.382337
C 5.653721 1.960984 5.495425
C 5.656622 2.497554 5.029246
C 5.236339 2.165188 5.170259
C 5.379872 2.680269 5.746790
C 5.591039 2.168053 5.690849
C 5.677308 2.749690 5.277254
C 0.039678 3.002120 5.122412
C 0.081932 3.346075 5.503126
C 0.480320 3.001501 5.604306
C 0.551821 3.423171 5.075549
C 0.301459 3.155970 5.270725
C 0.164850 3.612552 5.741194
C 0.642461 3.277496 5.712667
C 0.815259 3.835245 5.323310
C 0.909782 2.987160 4.903950
C 1.029449 3.507152 5.509538
C 1.534650 2.855671 5.442474
C 1.539533 3.375443 5.091715
C 1.179949 3.180054 5.356837
C 1.381141 3.830231 5.679659
C 1.727153 3.294855 5.702041
C 1.737072 3.799796 5.335017
C 1.977673 3.074174 5.145797
C 1.995278 3.657971 5.463667
C 2.429717 3.081343 5.610772
C 2.542962 3.391637 5.035346
C 2.232624 3.297745 5.129272
C 2.269688 3.668416 5.556878
C 2.804811 3.337833 5.694312
C 2.700034 3.760832 5.231350
C 2.987227 3.045536 5.100061
C 3.054393 3.613027 5.541915
C 3.450805 2.909929 5.529370
C 3.628507 3.519062 5.065348
C 3.295276 3.305504 5.283319
C 3.446179 3.799752 5.735706
C 3.836630 3.244308 5.723367
C 3.827953 3.776359 5.268462
C 3.954826 2.974902 5.037391
C 3.993412 3.638392 5.585880
C 4.424504 2.968422 5.645444
C 4.507820 3.533867 5.070198
C 4.286105 3.223751 5.357499
C 4.281768 3.796001 5.683439
C 4.750030 3.264535 5.616422
C 4.672429 3.922862 5.298292
C 5.054712 3.017003 5.006945
C 5.040928 3.638960 5.441042
C 5.510746 2.833521 5.527614
C 5.591609 3.570572 4.976506
C 5.172088 3.223821 5.191039
C 5.063957 3.700867 5.728728
C 5.733180 3.219149 5.633399
C 5.716952 3.773480 5.378355
C 0.049113 4.195717 4.913806
C 0.072376 4.454754 5.600597
C 0.505403 3.961292 5.463257
C 0.444383 4.623998 5.056383
C 0.338502 4.168866 5.271926
C 0.318227 4.769863 5.737020
C 0.784782 4.353568 5.737512
C 0.654790 4.707766 5.330203
C 0.981940 3.937869 4.883076
C 1.097846 4.621560 5.552896
C 1.407785 3.961473 5.409054
C 1.660955 4.501510 4.952547
C 1.196590 4.207000 5.264804
C 1.103013 4.871217 5.720458
C 1.879412 4.292593 5.650022
C 1.777229 4.848460 5.232444
C 1.909227 3.899628 5.037423
C 1.900218 4.533778 5.414844
C 2.580246 3.923940 5.614668
C 2.443158 4.438760 4.866858
C 2.161217 4.214916 5.328860
C 2.276425 4.775740 5.728035
C 2.818414 4.349816 5.623488
C 2.889761 4.826676 5.351207
C 2.978004 4.070215 4.894914
C 3.059090 4.558219 5.583823
C 3.373815 3.978170 5.456375
C 3.508269 4.595792 5.017977
C 3.338051 4.248742 5.316381
C 3.242226 4.795547 5.704647
C 3.633981 4.201659 5.731952
C 3.756603 4.881425 5.226987
C 3.923240 3.917008 5.029349
C 3.998635 4.473846 5.625824
C 4.592910 4.012115 5.568754
C 4.416954 4.438109 4.953967
C 4.299234 4.159056 5.300190
C 4.154560 4.702284 5.648056
C 4.762431 4.247520 5.618537
C 4.800663 4.595080 5.147232
C 4.926527 3.927354 5.058403
C 4.938306 4.568357 5.447636
C 5.628822 4.063598 5.499197
C 5.466741 4.498134 5.066604
C 5.214430 4.355067 5.164463
C 5.267723 4.881012 5.696417
C 5.720368 4.476808 5.661230
C 5.729325 4.594455 5.218837
C 0.003752 4.820405 5.014562
C 0.137414 5.531841 5.483293
C 0.463082 5.014822 5.640970
C 0.398365 5.437138 4.955215
C 0.247560 5.170389 5.180294
C 0.304521 5.614424 5.711518
C 0.720763 5.087499 5.696806
C 0.703068 5.638317 5.344182
C 0.854311 4.967042 5.000327
C 0.983250 5.558824 5.416489
C 1.405650 4.977093 5.556178
C 1.564500 5.595572 4.977565
C 1.173159 5.253916 5.171368
C 1.242717 5.736843 5.747747
C 1.603470 5.268491 5.731629
C 1.881103 5.732267 5.268417
C 2.030562 5.001057 4.980086
C 2.025299 5.541898 5.639837
C 2.469522 5.055527 5.478049
C 2.514324 5.475750 4.935841
C 2.307811 5.132550 5.177594
C 2.404463 5.712795 5.730700
C 2.604289 5.257641 5.747843
C 2.689709 5.713794 5.229871
C 3.074003 4.984191 4.999695
C 3.024749 5.547551 5.611159
C 3.580099 5.067657 5.394085
C 3.515552 5.549817 5.123014
C 3.267337 5.278155 5.185203
C 3.371517 5.559322 5.710716
C 3.701503 5.254098 5.731453
C 3.752429 5.710748 5.345205
C 3.944429 5.084681 4.973001
C 3.894393 5.434498 5.404046
C 4.558175 4.821577 5.459728
C 4.548285 5.590828 5.053531
C 4.187570 5.279792 5.325599
C 4.219314 5.564784 5.715594
C 4.673373 5.223641 5.568973
C 4.725865 5.676471 5.305446
C 4.934803 4.968869 4.859831
C 5.022646 5.582453 5.537200
C 5.666346 4.994417 5.422421
C 5.472186 5.552136 4.994402
C 5.086964 5.179848 5.205526
C 5.280838 5.745966 5.562761
C 5.632025 5.242605 5.706552
C 5.703042 5.708694 5.307368
1728
Frame 9/10
C 0.137742 0.004318 0.082494
C 0.111070 0.445346 0.484593
C 0.627313 0.142905 0.489693
C 0.511567 0.463950 0.132495
C 0.343954 0.228341 0.266651
C 0.223792 0.748929 0.667556
C 0.685817 0.174099 0.809047
C 0.791435 0.894140 0.256012
C 0.985545 0.082612 0.093957
C 0.972502 0.596152 0.457912
C 1.550596 0.095449 0.541758
C 1.628751 0.423911 0.016197
C 1.111514 0.287107 0.236772
C 1.242778 0.718938 0.747084
C 1.808686 0.329111 0.582222
C 1.692719 0.706475 0.112076
C 2.090280 0.033655 0.010206
C 1.879082 0.594046 0.496000
C 2.658845 0.034885 0.584576
C 2.649615 0.444979 0.031611
C 2.317954 0.089258 0.256808
C 2.218269 0.700214 0.917672
C 2.860961 0.174926 0.740601
C 2.851283 0.695977 0.339732
C 2.905458 0.080392 0.059868
C 3.051663 0.547118 0.528311
C 3.599997 0.101437 0.434797
C 3.655480 0.562842 0.027265
C 3.356911 0.259306 0.280133
C 3.194737 0.775241 0.602378
C 3.624422 0.208694 0.696954
C 3.818092 0.765390 0.205824
C 4.133401 0.007578 0.121919
C 4.068819 0.609504 0.527987
C 4.488645 0.111496 0.374535
C 4.483458 0.482613 0.037957
C 4.147885 0.226265 0.373597
C 4.182828 0.780059 0.759547
C 4.760043 0.252853 0.900165
C 4.721513 0.743786 0.175847
C 4.823954 0.124126 0.056870
C 4.957934 0.468946 0.325917
C 5.372784 0.107950 0.618724
C 5.632811 0.504208 0.020846
C 5.253459 0.239556 0.091913
C 5.193479 0.681636 0.806249
C 5.697173 0.273152 0.752259
C 5.587582 0.695072 0.215747
C 0.017272 0.950545 0.113157
C 0.006554 1.455265 0.580303
C 0.468811 0.892968 0.405856
C 0.481958 1.475965 0.047637
C 0.251375 1.141319 0.253844
C 0.125937 1.763303 0.863267
C 0.798884 1.374777 0.753938
C 0.757326 1.628521 0.153593
C 1.024005 0.840377 0.089407
C 1.041210 1.607980 0.503076
C 1.438248 0.960207 0.495097
C 1.452809 1.394783 0.039057
C 1.271822 1.149361 0.215475
C 1.224538 1.746315 0.810300
C 1.793202 1.144525 0.687876
C 1.740074 1.705591 0.080114
C 1.982408 1.029603 0.001325
C 1.990833 1.566305 0.434566
C 2.520540 1.027634 0.644101
C 2.330340 1.543162 0.011297
C 2.256160 1.165396 0.142707
C 2.120815 1.675547 0.742157
C 2.684506 1.241691 0.601462
C 2.865881 1.672027 0.164985
C 2.889581 1.070620 0.159050
C 2.983482 1.412670 0.612763
C 3.498770 1.004382 0.408715
C 3.549634 1.698999 0.042783
C 3.141281 1.176737 0.188524
C 3.276767 1.649843 0.887490
C 3.722178 1.229688 0.671549
C 3.816742 1.696668 0.158869
C 4.068817 0.899486 0.005547
C 4.154696 1.516144 0.544530
C 4.580794 0.946158 0.401612
C 4.661325 1.370333 0.029788
C 4.344678 1.241952 0.319940
C 4.217422 1.782748 0.851009
C 4.671030 1.276197 0.902849
C 4.700427 1.922087 0.290613
C 4.830978 1.011082 0.031710
C 5.133492 1.466590 0.533213
C 5.381041 1.023268 0.551948
C 5.609685 1.535304 0.000338
C 5.227616 1.354953 0.254071
C 5.213924 1.729850 0.608992
C 5.700254 1.151045 0.771329
C 5.607456 1.740658 0.200220
C 0.197986 2.018709 0.123931
C 0.059378 2.447207 0.657331
C 0.519642 1.989214 0.419281
C 0.450370 2.528972 0.120678
C 0.186712 2.320781 0.165075
C 0.234346 2.646765 0.804672
C 0.826034 2.303578 0.847436
C 0.876797 2.762332 0.185388
C 0.985403 2.142849 0.008672
C 0.927100 2.609399 0.410769
C 1.542063 2.107402 0.519776
C 1.484931 2.628134 0.143804
C 1.270702 2.198648 0.221875
C 1.231733 2.845242 0.660607
C 1.815916 2.143342 0.726424
C 1.787020 2.794968 0.393403
C 2.134120 1.964232 0.089682
C 2.144348 2.572218 0.476217
C 2.528038 1.976807 0.584219
C 2.601403 2.663959 0.033191
C 2.170308 2.223255 0.155634
C 2.377876 2.910300 0.714521
C 2.818788 2.141126 0.729767
C 2.782295 2.541590 0.208165
C 2.920851 2.110116 0.050107
C 3.079915 2.376765 0.547260
C 3.624008 2.094492 0.538606
C 3.510378 2.424457 0.046852
C 3.242644 2.369625 0.150319
C 3.215972 2.847256 0.679702
C 3.781496 2.098451 0.860347
C 3.618392 2.655770 0.217910
C 3.864255 1.966426 0.014258
C 4.085709 2.351466 0.391552
C 4.388055 1.972586 0.456508
C 4.636773 2.674208 0.032740
C 4.124801 2.261095 0.129127
C 4.151169 2.795246 0.837672
C 4.632689 2.160790 0.763926
C 4.869842 2.691291 0.292983
C 5.029201 1.898760 0.061077
C 5.082307 2.543532 0.611538
C 5.340464 1.969456 0.507973
C 5.509717 2.279707 0.046931
C 5.345806 2.136014 0.246141
C 5.331225 2.767609 0.824326
C 5.671623 2.322043 0.841731
C 5.651679 2.734121 0.167574
C 0.095169 2.895143 0.022395
C 0.024318 3.502266 0.339458
C 0.482166 2.889763 0.432111
C 0.488961 3.610720 0.005800
C 0.207784 3.293168 0.177580
C 0.363813 3.743349 0.651338
C 0.640313 3.186773 0.796424
C 0.864823 3.789098 0.263783
C 0.806182 2.956098 0.026183
C 0.912342 3.404848 0.438433
C 1.544881 3.008578 0.548833
C 1.632242 3.482738 0.138105
C 1.072267 3.302686 0.205273
C 1.333102 3.689964 0.692611
C 1.704004 3.253654 0.834058
C 1.853953 3.834115 0.155549
C 1.937701 3.094281 0.036930
C 2.063694 3.367119 0.606365
C 2.568228 2.987902 0.424144
C 2.502399 3.507987 0.050421
C 2.144825 3.304418 0.287026
C 2.130510 3.725196 0.731466
C 2.847199 3.121453 0.787280
C 2.918670 3.763037 0.204945
C 2.922472 2.999035 0.017180
C 3.061662 3.379975 0.361012
C 3.643967 2.997087 0.397977
C 3.411174 3.527468 0.141032
C 3.298914 3.243054 0.277807
C 3.223614 3.890911 0.727899
C 3.858114 3.287990 0.753990
C 3.726261 3.804236 0.137456
C 3.847466 2.949306 0.064104
C 3.971857 3.436959 0.495717
C 4.459179 2.934971 0.346474
C 4.495874 3.503728 0.123546
C 4.097207 3.347711 0.151113
C 4.263042 3.628865 0.670259
C 4.860069 3.288385 0.649975
C 4.766946 3.839047 0.106292
C 5.010355 3.078231 0.006057
C 4.847846 3.518313 0.489994
C 5.539927 3.106941 0.530306
C 5.506031 3.408595 0.153851
C 5.133892 3.305942 0.226315
C 5.246438 3.572847 0.729785
C 5.723021 3.188849 0.834680
C 5.744728 3.693086 0.340230
C 0.012595 4.069295 0.120892
C 0.001209 4.406268 0.380853
C 0.589983 4.063471 0.630451
C 0.554307 4.577272 0.092133
C 0.224070 4.234592 0.215143
C 0.162125 4.832399 0.744111
C 0.743228 4.282471 0.844045
C 0.773264 4.621630 0.293520
C 0.995829 4.203700 0.118512
C 0.971513 4.481728 0.571208
C 1.627292 4.097361 0.427216
C 1.292628 4.436528 0.020093
C 1.219558 4.082514 0.297174
C 1.179728 4.919507 0.657349
C 1.639515 4.292965 0.746533
C 1.665555 4.802320 0.394580
C 2.159087 4.125688 0.040264
C 2.001067 4.600529 0.376532
C 2.548568 3.929513 0.624551
C 2.380082 4.627529 0.120120
C 2.282816 4.358981 0.132695
C 2.344446 4.719302 0.759951
C 2.649806 4.289405 0.677199
C 2.751059 4.760444 0.348721
C 3.066651 4.019175 0.037491
C 3.008669 4.396783 0.514476
C 3.492701 3.982268 0.644574
C 3.504405 4.682116 0.024557
C 3.390584 4.205972 0.228731
C 3.259375 4.818780 0.777832
C 3.874663 4.207478 0.797386
C 3.724794 4.729238 0.218935
C 4.006914 3.959476 0.010435
C 4.077752 4.512352 0.530077
C 4.428891 3.855624 0.382545
C 4.574085 4.620327 0.135186
C 4.351879 4.172863 0.332185
C 4.392635 4.644403 0.633536
C 4.795429 4.178210 0.781411
C 4.658715 4.783632 0.354382
C 5.080678 3.872472 0.063466
C 4.983804 4.401908 0.520000
C 5.538569 3.936473 0.628144
C 5.457568 4.456718 0.016911
C 5.208658 4.278659 0.335862
C 5.348153 4.879754 0.676059
C 5.623447 4.283312 0.680255
C 5.714570 4.815680 0.317012
C 0.000870 5.128127 0.179690
C 0.015769 5.391508 0.347417
C 0.506503 4.916806 0.521188
C 0.481704 5.635228 0.014206
C 0.307128 5.203417 0.229587
C 0.220592 5.674980 0.845482
C 0.618372 5.293581 0.694471
C 0.739002 5.711424 0.364525
C 1.112772 4.881229 0.055067
C 1.028654 5.628350 0.529292
C 1.386522 4.958527 0.396143
C 1.629571 5.366221 0.047282
C 1.364889 5.306204 0.246646
C 1.219276 5.550471 0.721095
C 1.800209 5.315958 0.921362
C 1.789245 5.732593 0.286315
C 1.848070 5.041790 0.008107
C 1.943221 5.516103 0.687566
C 2.562854 5.086483 0.612810
C 2.645462 5.432313 0.095518
C 2.231952 5.372312 0.260266
C 2.208277 5.709452 0.754734
C 2.886907 5.304564 0.688449
C 2.623003 5.697511 0.175338
C 3.072837 4.873958 0.001467
C 3.006447 5.556418 0.567298
C 3.506801 4.919132 0.428415
C 3.391888 5.584123 0.117841
C 3.099428 5.194352 0.255196
C 3.438484 5.633409 0.621510
C 3.694316 5.269551 0.807743
C 3.727051 5.640841 0.379500
C 3.828207 5.054966 0.004973
C 3.912110 5.357639 0.567206
C 4.621988 5.017195 0.563347
C 4.435337 5.365511 0.061893
C 4.430957 5.197146 0.282182
C 4.215768 5.644753 0.692418
C 4.698458 5.309731 0.634716
C 4.954854 5.645668 0.297069
C 4.933986 4.968154 0.125602
C 5.078641 5.447420 0.542497
C 5.473133 4.976638 0.366946
C 5.533748 5.374329 0.042419
C 5.187674 5.177352 0.305211
C 5.404722 5.649477 0.738036
C 5.739155 5.190441 0.595595
C 5.732063 5.641460 0.109785
C 0.043895 0.054021 0.991376
C 0.061267 0.427843 1.360644
C 0.446450 0.103855 1.356912
C 0.542930 0.385576 0.921436
C 0.313977 0.084174 1.119698
C 0.119466 0.666255 1.758688
C 0.632572 0.299317 1.856801
C 0.605503 0.798517 1.242215
C 0.872530 0.001711 0.986221
C 1.165230 0.500305 1.520675
C 1.484161 0.074943 1.515351
C 1.423648 0.509022 1.091239
C 1.403879 0.287163 1.280314
C 1.334573 0.692389 1.667269
C 1.655331 0.162530 1.739000
C 1.890775 0.630035 1.235456
C 2.097736 0.022244 0.969591
C 2.098056 0.519776 1.556533
C 2.728028 0.074181 1.477290
C 2.499115 0.350486 0.977024
C 2.257918 0.420347 1.187100
C 2.310834 0.672672 1.912939
C 2.815037 0.335242 1.703820
C 2.637637 0.803027 1.278902
C 2.949296 0.039654 1.219315
C 3.026719 0.374264 1.436822
C 3.385143 0.105401 1.508859
C 3.484084 0.493972 1.020914
C 3.341241 0.334931 1.208496
C 3.178357 0.861361 1.756203
C 3.859990 0.292722 1.840474
C 3.719141 0.818254 1.207486
C 4.193104 0.077660 1.033315
C 4.015357 0.553255 1.540917
C 4.501533 0.047820 1.539814
C 4.396601 0.476045 1.098274
C 4.262337 0.334534 1.342278
C 4.161510 0.601432 1.810389
C 4.847257 0.318524 1.828472
C 4.865960 0.783624 1.318196
C 5.163697 0.020151 0.993384
C 4.948041 0.462499 1.557414
C 5.278338 0.040421 1.574314
C 5.447511 0.635439 1.035401
C 5.175669 0.243392 1.149911
C 5.217180 0.653857 1.694220
C 5.726156 0.225894 1.553372
C 5.722463 0.814337 1.123461
C 0.033834 1.060260 1.041419
C 0.117029 1.559902 1.382683
C 0.457758 0.917428 1.584559
C 0.481196 1.698439 1.052991
C 0.282639 1.136799 1.162187
C 0.386192 1.807300 1.752462
C 0.729195 1.316057 1.813645
C 0.857444 1.854596 1.182957
C 0.952695 0.887544 1.045677
C 0.984809 1.478460 1.625589
C 1.644428 1.090423 1.542131
C 1.388705 1.447446 0.966749
C 1.294531 1.365618 1.223610
C 1.263437 1.615116 1.800086
C 1.641035 1.140914 1.803812
C 1.781587 1.653583 1.320254
C 2.038961 0.903460 0.934717
C 2.015345 1.563891 1.625635
C 2.470037 1.000328 1.382334
C 2.477272 1.609611 1.044040
C 2.395138 1.182667 1.158997
C 2.269790 1.751902 1.620840
C 2.802192 1.298480 1.684810
C 2.900931 1.833366 1.219662
C 3.129579 1.056882 1.020216
C 2.840263 1.608973 1.452430
C 3.644346 1.082643 1.535493
C 3.306511 1.404751 1.001543
C 3.128075 1.145303 1.323735
C 3.257547 1.867268 1.913549
C 3.640948 1.425070 1.670251
C 3.746473 1.732931 1.408835
C 3.952200 0.905206 0.911566
C 3.961477 1.387829 1.586573
C 4.404778 0.923414 1.562929
C 4.449348 1.480501 0.998222
C 4.227332 1.407201 1.156756
C 4.139734 1.830678 1.808313
C 4.702793 1.417568 1.778936
C 4.713458 1.798871 1.220531
C 4.969724 1.099045 0.935665
C 5.021554 1.493391 1.574336
C 5.513587 1.113629 1.407889
C 5.343480 1.498021 0.945822
C 5.320681 1.303202 1.372312
C 5.121331 1.723882 1.773203
C 5.736954 1.462023 1.856861
C 5.670170 1.682767 1.338378
C 0.017720 1.904910 1.127482
C 0.121672 2.534804 1.413345
C 0.470934 2.159277 1.575647
C 0.454995 2.667457 0.951712
C 0.340254 2.176979 1.169691
C 0.197965 2.826221 1.675636
C 0.738261 2.186813 1.881546
C 0.694917 2.641886 1.138709
C 0.947331 1.913222 0.921647
C 1.024274 2.634146 1.409910
C 1.610903 2.047276 1.517244
C 1.472559 2.503393 1.035393
C 1.307478 2.120264 1.258681
C 1.145839 2.819541 1.723520
C 1.727244 2.356184 1.751933
C 1.759389 2.704712 1.169407
C 1.971175 1.949784 0.973785
C 2.038184 2.509401 1.607438
C 2.565452 2.131951 1.572309
C 2.497236 2.688221 0.985891
C 2.160218 2.218867 1.227586
C 2.399112 2.698454 1.824341
C 2.814307 2.382958 1.740494
C 2.679912 2.671311 1.333741
C 2.914302 2.089560 1.057889
C 3.036803 2.651710 1.609650
C 3.624854 2.010765 1.527067
C 3.495686 2.557366 1.029659
C 3.261463 2.157765 1.167160
C 3.351368 2.734677 1.855726
C 3.698303 2.183885 1.756203
C 3.642137 2.713741 1.235098
C 4.051559 1.970607 1.007648
C 3.912654 2.486333 1.409117
C 4.465464 1.968153 1.290572
C 4.542072 2.397638 1.038670
C 4.172149 2.369790 1.272619
C 4.197782 2.653563 1.647845
C 4.726417 2.326052 1.624531
C 4.717243 2.782684 1.313622
C 4.957861 1.922277 1.141814
C 5.112841 2.477763 1.549208
C 5.474863 1.937427 1.409455
C 5.363828 2.440846 0.984030
C 5.237387 2.097477 1.290256
C 5.261397 2.863143 1.876549
C 5.707794 2.270478 1.663520
C 5.726808 2.672202 1.131003
C 0.004781 2.939011 0.878262
C 0.136420 3.407655 1.570153
C 0.547107 3.124196 1.517465
C 0.405996 3.564717 1.107520
C 0.409960 3.308892 1.354815
C 0.276234 3.715442 1.556223
C 0.895878 3.218666 1.884627
C 0.799609 3.587896 1.325238
C 0.938801 2.936987 1.068194
C 0.985561 3.495251 1.548075
C 1.476064 2.886054 1.591595
C 1.434619 3.465657 0.911941
C 1.222280 3.215207 1.189507
C 1.365654 3.774555 1.805339
C 1.636199 3.383296 1.783228
C 1.786931 3.607002 1.246319
C 1.913893 3.014813 1.054876
C 2.002863 3.403464 1.322451
C 2.543712 2.924244 1.446947
C 2.534649 3.438013 1.115713
C 2.141503 3.160125 1.390720
C 2.152962 3.690096 1.678593
C 2.744771 3.170464 1.727171
C 2.724857 3.653750 1.359905
C 2.980769 2.890607 0.965825
C 2.896760 3.454098 1.472516
C 3.462100 2.897573 1.541065
C 3.609310 3.383350 0.890639
C 3.159529 3.208763 1.285590
C 3.319068 3.702996 1.695590
C 3.898936 3.283511 1.658358
C 3.702521 3.624484 1.272833
C 3.874353 2.898667 0.936607
C 4.100305 3.555911 1.553549
C 4.516717 3.117683 1.354983
C 4.500600 3.407685 1.115843
C 4.194107 3.344994 1.283816
C 4.349549 3.690491 1.774483
C 4.809549 3.204651 1.915317
C 4.815890 3.599798 1.367012
C 5.084807 3.073934 0.867374
C 5.095932 3.469962 1.388686
C 5.532660 2.902049 1.449546
C 5.408311 3.415786 0.962846
C 5.437522 3.255080 1.246528
C 5.249243 3.703711 1.781336
C 5.698448 3.225629 1.867330
C 5.718824 3.857130 1.410779
C 0.023703 4.045226 0.956126
C 0.001655 4.666112 1.554952
C 0.445460 3.966881 1.572940
C 0.663605 4.594751 0.978243
C 0.143672 4.301311 1.109695
C 0.368360 4.852039 1.794207
C 0.655735 4.275974 1.753699
C 0.801145 4.871775 1.218600
C 1.027144 4.038661 1.013991
C 0.914709 4.430562 1.554450
C 1.359246 3.943768 1.548620
C 1.538223 4.513407 1.027421
C 1.300618 4.261117 1.338779
C 1.253219 4.915274 1.797313
C 1.688341 4.157633 1.632587
C 1.843896 4.736976 1.327675
C 1.907452 4.113693 1.006282
C 1.977373 4.397297 1.554064
C 2.424563 3.902494 1.566549
C 2.412713 4.528068 1.027328
C 2.100944 4.168904 1.206881
C 2.161986 4.834777 1.830743
C 2.897342 4.286561 1.707754
C 2.692560 4.619095 1.161293
C 3.085779 3.816879 1.005380
C 2.936404 4.516033 1.443278
C 3.533788 4.103243 1.388661
C 3.461523 4.501641 1.063379
C 3.309583 4.377428 1.272458
C 3.118467 4.838042 1.748946
C 3.756855 4.247223 1.703239
C 3.698460 4.641168 1.120143
C 3.969668 3.899729 0.977366
C 4.058531 4.500243 1.459379
C 4.627950 4.147234 1.535468
C 4.486970 4.693514 1.082153
C 4.326510 4.233364 1.096044
C 4.075784 4.706067 1.698386
C 4.713544 4.300625 1.934969
C 4.664878 4.808196 1.284164
C 4.849548 3.912979 1.101293
C 4.969510 4.388076 1.478772
C 5.448199 3.960497 1.397957
C 5.389812 4.587368 0.925178
C 5.269902 4.169623 1.190467
C 5.159006 4.838786 1.710086
C 5.748395 4.264650 1.818165
C 5.676246 4.745882 1.278859
C 0.063956 5.235497 1.032906
C 0.080469 5.385941 1.454855
C 0.454617 5.071362 1.540127
C 0.473432 5.432080 1.054219
C 0.324657 5.225599 1.209593
C 0.418503 5.736813 1.636665
C 0.652952 5.266962 1.666301
C 0.688704 5.695346 1.384843
C 0.910838 5.026699 0.970175
C 0.887723 5.536730 1.598991
C 1.481160 4.882259 1.590449
C 1.393482 5.606819 1.002884
C 1.357601 5.326390 1.284601
C 1.218603 5.580772 1.727799
C 1.775919 5.343791 1.712909
C 1.682513 5.549098 1.182346
C 2.017006 5.144118 0.899824
C 1.992075 5.550476 1.490056
C 2.416945 5.072468 1.537181
C 2.407386 5.610745 1.057483
C 2.239926 5.239431 1.281382
C 2.104779 5.737670 1.663903
C 2.615331 5.190354 1.796607
C 2.832439 5.710518 1.420491
C 2.982266 4.928113 0.989916
C 3.114553 5.552579 1.467193
C 3.325416 4.983708 1.542458
C 3.439542 5.370706 0.930715
C 3.306680 5.233401 1.357142
C 3.358013 5.726094 1.658006
C 3.648956 5.347809 1.874695
C 3.779124 5.725056 1.351853
C 3.996550 5.011806 0.928144
C 3.978877 5.328061 1.438972
C 4.536153 5.016286 1.424157
C 4.488367 5.363738 0.870340
C 4.214712 5.271165 1.287633
C 4.427312 5.740989 1.719765
C 4.604851 5.271787 1.686420
C 4.842746 5.726931 1.128987
C 5.079058 4.902618 0.900757
C 5.017878 5.486232 1.425637
C 5.671992 5.031407 1.602973
C 5.648262 5.400058 0.886238
C 5.311774 5.223510 1.366627
C 5.207223 5.576557 1.666463
C 5.692265 5.416682 1.804929
C 5.555847 5.669246 1.218049
C 0.156892 0.001894 2.145490
C 0.098360 0.623135 2.560419
C 0.393002 0.086884 2.633690
C 0.507809 0.677158 1.907869
C 0.283969 0.288564 2.100302
C 0.257108 0.840453 2.892501
C 0.655005 0.254354 2.690877
C 0.708237 0.592873 2.166670
C 0.998787 0.044807 1.815599
C 1.028198 0.460103 2.674461
C 1.393729 0.033857 2.658412
C 1.404992 0.427660 2.125266
C 1.198804 0.142144 2.290523
C 1.277097 0.778660 2.673678
C 1.825791 0.222650 2.857314
C 1.552564 0.713237 2.277392
C 1.907877 0.015517 2.017789
C 2.114519 0.670421 2.484003
C 2.510536 0.106370 2.449133
C 2.589016 0.425641 2.133792
C 2.274916 0.360744 2.323251
C 2.199503 0.731828 2.789982
C 2.750440 0.369009 2.784110
C 2.754565 0.709000 2.411762
C 2.869189 0.058142 1.948165
C 3.039535 0.428385 2.408562
C 3.547881 0.151629 2.485108
C 3.530284 0.575648 2.145953
C 3.215574 0.451753 2.200673
C 3.326041 0.697660 2.941377
C 3.945615 0.144482 2.778151
C 3.741862 0.806640 2.365312
C 3.970353 0.060413 2.113583
C 4.112109 0.518450 2.533972
C 4.441959 0.079056 2.600503
C 4.601791 0.466589 1.974124
C 4.215029 0.257230 2.109509
C 4.379696 0.734194 2.803691
C 4.731262 0.270614 2.670743
C 4.706074 0.855683 2.127653
C 4.966724 0.138396 2.022801
C 5.139997 0.535647 2.466094
C 5.518809 0.095686 2.340195
C 5.468171 0.562395 1.984413
C 5.180913 0.316101 2.218371
C 5.315434 0.862094 2.738918
C 5.697161 0.100377 2.543694
C 5.749352 0.781668 2.064172
C 0.029650 0.879614 1.974701
C 0.057199 1.414520 2.377879
C 0.580765 0.884621 2.454142
C 0.384142 1.559381 1.885456
C 0.468496 1.251430 2.292031
C 0.236141 1.779313 2.667655
C 0.744707 1.101664 2.768092
C 0.741872 1.661238 2.380568
C 1.089847 0.958445 1.880371
C 1.067606 1.550492 2.517285
C 1.512932 1.076552 2.531171
C 1.414264 1.492324 2.001411
C 1.300972 1.285722 2.280703
C 1.174621 1.721410 2.894230
C 1.761121 1.146308 2.841625
C 1.706659 1.701891 2.388520
C 1.935819 1.101243 2.026283
C 1.894839 1.477642 2.484400
C 2.492964 0.993432 2.471259
C 2.425343 1.458347 1.989320
C 2.232344 1.397648 2.187488
C 2.189293 1.704726 2.687881
C 2.735888 1.191732 2.790926
C 2.915904 1.801901 2.295889
C 2.905060 0.930622 1.902702
C 3.135761 1.502746 2.566024
C 3.627951 1.053819 2.503331
C 3.544087 1.523640 2.092725
C 3.242061 1.159940 2.150886
C 3.230543 1.755307 2.676683
C 3.790959 1.138801 2.809319
C 3.647391 1.745489 2.306317
C 3.931964 1.144566 1.872161
C 3.961402 1.524682 2.670573
C 4.427768 1.014408 2.499034
C 4.367241 1.544999 2.112899
C 4.305366 1.332074 2.348338
C 4.342288 1.590628 2.800512
C 4.855941 1.264741 2.877800
C 4.781824 1.688816 2.282342
C 4.936373 0.879914 1.934846
C 4.966962 1.532573 2.445987
C 5.523241 1.007500 2.601657
C 5.463282 1.476746 1.892502
C 5.338139 1.354864 2.272223
C 5.282556 1.658921 2.830293
C 5.619239 1.265138 2.697806
C 5.735615 1.849150 2.367192
C 0.089053 2.127657 2.084274
C 0.128508 2.431000 2.603960
C 0.623132 1.907099 2.548560
C 0.544833 2.578953 2.047381
C 0.260340 2.269714 2.259521
C 0.190922 2.724893 2.697233
C 0.782981 2.204545 2.716865
C 0.842869 2.571666 2.174035
C 0.873754 1.945448 1.924715
C 1.019434 2.479069 2.496005
C 1.423294 1.853647 2.505784
C 1.602926 2.498409 2.025401
C 1.130545 2.119630 2.312486
C 1.223133 2.651938 2.820792
C 1.734777 2.129804 2.868701
C 1.817179 2.817014 2.371461
C 1.975173 2.000447 2.005692
C 1.963278 2.372627 2.426420
C 2.678967 2.007757 2.428532
C 2.603432 2.428873 2.059182
C 2.295923 2.305730 2.323148
C 2.191583 2.763387 2.900637
C 2.627429 2.127624 2.663986
C 2.803314 2.768984 2.380586
C 2.911301 1.855859 1.960311
C 3.012149 2.593664 2.662236
C 3.563540 2.161397 2.505856
C 3.475447 2.552197 2.192958
C 3.386502 2.281396 2.133786
C 3.266040 2.666781 2.558877
C 3.809706 2.363658 2.826226
C 3.789966 2.678926 2.284039
C 3.878966 2.017331 2.013596
C 3.944823 2.533400 2.566455
C 4.457438 1.970374 2.470100
C 4.536950 2.502218 1.864593
C 4.184762 2.367257 2.247328
C 4.357010 2.793602 2.873213
C 4.618413 2.391466 2.770821
C 4.770636 2.623164 2.368596
C 5.011738 1.934381 1.970414
C 5.072413 2.658668 2.590792
C 5.451735 2.053579 2.572699
C 5.515033 2.657480 2.071509
C 5.332376 2.127789 2.230027
C 5.208288 2.862538 2.882955
C 5.659039 2.330643 2.716623
C 5.732437 2.756684 2.298428
C 0.057429 2.911325 2.062757
C 0.002695 3.509294 2.431516
C 0.485876 2.966109 2.532376
C 0.477201 3.658390 1.946914
C 0.117728 3.149115 2.264548
C 0.218831 3.666879 2.721823
C 0.675406 3.200557 2.888683
C 0.727232 3.729244 2.075663
C 0.980818 2.891097 2.053532
C 0.878618 3.642218 2.444874
C 1.509355 3.043542 2.481242
C 1.409601 3.565645 2.163308
C 1.100000 3.309312 2.246814
C 1.200033 3.787399 2.892190
C 1.736161 3.275603 2.726207
C 1.656064 3.813062 2.167026
C 1.863043 3.024010 2.120332
C 1.906865 3.632094 2.414906
C 2.474304 3.102943 2.560837
C 2.468610 3.626512 1.883728
C 2.401324 3.263724 2.298392
C 2.110515 3.802065 2.651954
C 2.889807 3.227518 2.824616
C 2.641385 3.758700 2.197118
C 2.948387 3.063841 2.135139
C 2.949705 3.480934 2.664376
C 3.458724 2.846849 2.462435
C 3.366273 3.433095 2.104714
C 3.464543 3.177185 2.281813
C 3.241554 3.669883 2.690458
C 3.744954 3.111242 2.676004
C 3.787406 3.736698 2.390898
C 4.123798 3.036721 1.912849
C 4.009415 3.506638 2.472250
C 4.578897 3.110445 2.461253
C 4.387829 3.399789 2.033407
C 4.160463 3.197877 2.222821
C 4.185552 3.756555 2.892079
C 4.798071 3.322782 2.551158
C 4.681441 3.614588 2.152647
C 4.881297 2.925005 2.117236
C 4.929057 3.594547 2.492852
C 5.473560 3.013599 2.382051
C 5.443459 3.567486 1.930143
C 5.113330 3.191069 2.177854
C 5.310671 3.643195 2.772998
C 5.636460 3.158037 2.833611
C 5.684618 3.902679 2.368268
C 0.042029 3.966713 1.856948
C 0.124637 4.397761 2.539525
C 0.639860 3.897015 2.446370
C 0.424438 4.387641 1.940333
C 0.340609 4.152831 2.216833
C 0.290425 4.790052 2.908647
C 0.659068 4.200934 2.542431
C 0.676496 4.732272 2.130586
C 0.967812 4.111895 1.999353
C 1.072177 4.439999 2.543567
C 1.588703 4.004279 2.624625
C 1.563360 4.372004 1.880588
C 1.224349 4.415720 2.217107
C 1.165434 4.701099 2.697975
C 1.671076 4.362424 2.731103
C 1.771569 4.863542 2.289228
C 2.064385 4.107758 2.122084
C 2.002446 4.455505 2.418710
C 2.537363 3.942091 2.459259
C 2.605176 4.539354 1.863137
C 2.291328 4.294151 2.316470
C 2.121397 4.755127 2.771296
C 2.918734 4.211530 2.795671
C 2.750491 4.649699 2.164448
C 3.037971 4.118515 1.962571
C 3.020003 4.447148 2.552088
C 3.533913 4.098192 2.525275
C 3.446506 4.399596 1.984268
C 3.198169 4.297361 2.184986
C 3.205572 4.644836 2.774108
C 3.849276 4.222167 2.774722
C 3.770638 4.750243 2.229787
C 3.984016 4.003808 1.921495
C 4.092968 4.555582 2.529717
C 4.632593 3.989428 2.365317
C 4.508292 4.635553 2.068288
C 4.273276 4.421311 2.245450
C 4.253132 4.710223 2.711746
C 4.699614 4.366023 2.812424
C 4.621187 4.670184 2.338498
C 4.932308 3.940508 2.020499
C 5.155841 4.522641 2.428367
C 5.422048 3.831695 2.496061
C 5.586906 4.664390 2.020220
C 5.360128 4.302071 2.179860
C 5.335233 4.745227 2.630299
C 5.626024 4.215650 2.812265
C 5.715818 4.757927 2.277518
C 0.065235 5.150271 2.124643
C 0.043231 5.384325 2.336865
C 0.459346 5.040214 2.497983
C 0.450891 5.557458 2.018176
C 0.404921 5.288822 2.300410
C 0.231020 5.725163 2.646592
C 0.691989 5.388491 2.687734
C 0.655032 5.729665 2.289197
C 0.984344 5.065338 2.069825
C 0.899746 5.510639 2.415386
C 1.448886 5.119593 2.321123
C 1.356965 5.503244 2.107920
C 1.180916 5.276483 2.066242
C 1.294456 5.617585 2.769511
C 1.683436 5.199368 2.846273
C 1.722320 5.548832 2.335271
C 2.044114 5.112150 1.893365
C 1.936935 5.504506 2.613250
C 2.450173 4.965381 2.451137
C 2.526873 5.646277 2.099575
C 2.399815 5.349826 2.159859
C 2.330633 5.594665 2.838469
C 2.654566 5.306644 2.721599
C 2.597450 5.740458 2.446472
C 2.918086 4.997763 1.910053
C 3.086896 5.436767 2.602921
C 3.604448 5.045753 2.450409
C 3.448316 5.431103 2.086956
C 3.218366 5.330902 2.305617
C 3.133725 5.691130 2.771054
C 3.649637 5.294440 2.850698
C 3.791476 5.728045 2.128819
C 3.823625 5.078769 2.014002
C 3.885745 5.429263 2.540207
C 4.487808 4.954667 2.373751
C 4.518172 5.559619 1.997621
C 4.162302 5.333622 2.292041
C 4.291167 5.588067 2.602672
C 4.685175 5.167099 2.628806
C 4.779339 5.711574 2.473387
C 4.957165 5.006399 2.025214
C 5.015277 5.511413 2.421459
C 5.393607 5.026562 2.471343
C 5.532384 5.481583 2.030345
C 5.334054 5.274480 2.353614
C 5.386932 5.684809 2.685281
C 5.723077 5.237628 2.885713
C 5.563947 5.665423 2.369011
C 0.016165 0.179645 2.974203
C 0.179291 0.322911 3.472539
C 0.445947 0.068400 3.475043
C 0.628081 0.460714 3.061923
C 0.340672 0.070192 3.205050
C 0.353318 0.791721 3.759180
C 0.656289 0.280540 3.589113
C 0.893312 0.719730 3.166901
C 1.104611 0.008199 2.913979
C 1.038790 0.449811 3.475048
C 1.416900 0.039424 3.522082
C 1.618146 0.403456 3.123121
C 1.172340 0.167203 3.324896
C 1.229571 0.700073 3.829242
C 1.865590 0.261385 3.736332
C 1.819929 0.804769 3.245415
C 1.947870 0.118635 3.130781
C 1.907907 0.541939 3.468979
C 2.489833 0.081570 3.661912
C 2.519166 0.455022 3.121201
C 2.393802 0.154970 3.240429
C 2.270122 0.689805 3.862014
C 2.666746 0.285603 3.664786
C 2.845182 0.727181 3.260496
C 3.002008 0.046063 2.960762
C 2.996550 0.478412 3.414279
C 3.455275 0.082035 3.459262
C 3.547668 0.427101 2.891404
C 3.225807 0.295991 3.372477
C 3.115580 0.672358 3.759192
C 3.630174 0.378512 3.736336
C 3.769710 0.704131 3.177334
C 4.132286 0.032630 2.964862
C 3.961372 0.409188 3.564777
C 4.436499 0.133829 3.535626
C 4.637083 0.469950 3.140065
C 4.222798 0.317175 3.102671
C 4.190277 0.813201 3.901161
C 4.912298 0.222931 3.703537
C 4.770922 0.725014 3.213750
C 5.084336 0.114947 2.899558
C 5.033362 0.415377 3.451145
C 5.673653 0.017836 3.633596
C 5.516728 0.354984 2.931332
C 5.165591 0.279677 3.241455
C 5.269556 0.715323 3.626255
C 5.705326 0.360254 3.954321
C 5.728771 0.553579 3.239277
C 0.063398 0.978442 3.053815
C 0.039321 1.513570 3.624042
C 0.635985 1.050947 3.612530
C 0.501824 1.647244 2.958144
C 0.274141 1.400422 3.373262
C 0.367715 1.679482 3.792293
C 0.789247 1.366245 3.723412
C 0.728052 1.908204 3.095295
C 1.101930 1.123453 3.069313
C 0.996063 1.528291 3.633790
C 1.450156 1.070011 3.481092
C 1.599487 1.526093 2.962248
C 1.437357 1.324738 3.329755
C 1.287049 1.643304 3.847284
C 1.647005 1.326147 3.737917
C 1.908679 1.682556 3.184772
C 1.978727 1.100864 3.151050
C 1.967105 1.294251 3.448377
C 2.374485 1.090030 3.554177
C 2.504672 1.583483 3.076410
C 2.338821 1.288175 3.214037
C 2.358948 1.782781 3.767956
C 2.582372 1.311572 3.672193
C 2.788402 1.897729 3.161717
C 3.090011 0.959070 2.865635
C 3.132324 1.581334 3.486515
C 3.563502 1.121341 3.443574
C 3.546514 1.549073 3.087816
C 3.256782 1.338635 3.347022
C 3.133372 1.926577 3.838878
C 3.701895 1.120686 3.837730
C 3.744225 1.761537 3.300350
C 3.991641 1.082007 3.017203
C 3.946031 1.454367 3.597125
C 4.558891 0.909902 3.649257
C 4.489776 1.481326 3.030506
C 4.221149 1.251570 3.391273
C 4.242213 1.775400 3.726698
C 4.698950 1.295755 3.870467
C 4.756413 1.829633 3.378060
C 5.089339 0.984061 3.008902
C 4.985739 1.592431 3.414876
C 5.415667 1.077439 3.572250
C 5.537631 1.492529 2.977117
C 5.088417 1.225927 3.232589
C 5.333551 1.744054 3.881203
C 5.650456 1.148891 3.767034
C 5.617762 1.562508 3.336153
C 0.032154 1.962166 2.867207
C 0.033824 2.424858 3.536593
C 0.421227 2.116413 3.478191
C 0.459996 2.644845 3.064895
C 0.385417 2.307106 3.268385
C 0.184557 2.702582 3.736394
C 0.828225 2.381082 3.717040
C 0.727261 2.622512 3.135561
C 0.929562 2.069245 2.957101
C 1.004270 2.664056 3.518083
C 1.401981 1.989668 3.563103
C 1.450912 2.441429 3.029144
C 1.334609 2.249598 3.350427
C 1.234544 2.845311 3.637597
C 1.744340 2.372569 3.751765
C 1.615287 2.815139 3.163889
C 2.019221 1.941025 3.030358
C 2.013049 2.609692 3.577835
C 2.487059 1.991586 3.499047
C 2.569600 2.489456 3.115951
C 2.308602 2.167615 3.291505
C 2.202009 2.734603 3.779944
C 2.734171 2.311746 3.807891
C 2.779256 2.664100 3.208058
C 3.072169 2.119393 3.007523
C 2.940687 2.445940 3.400114
C 3.404106 2.024933 3.587170
C 3.541280 2.474083 2.926757
C 3.424631 2.193694 3.328248
C 3.195487 2.628138 3.684071
C 3.781624 2.305201 3.859128
C 3.818686 2.856906 3.305811
C 3.961314 2.205466 3.001189
C 4.054522 2.440991 3.357336
C 4.558226 1.907879 3.654568
C 4.386358 2.548891 3.022829
C 4.311457 2.345459 3.320891
C 4.307092 2.848079 3.700512
C 4.717536 2.116916 3.607926
C 4.796519 2.751874 3.422837
C 4.953177 1.998441 3.030013
C 5.062754 2.462500 3.461769
C 5.556352 2.132967 3.429205
C 5.507982 2.532692 3.112031
C 5.249959 2.286034 3.338726
C 5.377091 2.815651 3.783817
C 5.744834 2.292165 3.639249
C 5.746283 2.598163 3.250298
C 0.016701 2.914905 2.894453
C 0.068281 3.471529 3.431407
C 0.406148 3.064368 3.652692
C 0.442000 3.399865 3.060544
C 0.236019 3.338335 3.238366
C 0.132035 3.725351 3.615739
C 0.757425 3.259701 3.858425
C 0.690224 3.662884 3.223733
C 1.005713 2.947212 3.167420
C 0.889722 3.534389 3.543546
C 1.426719 3.022755 3.521263
C 1.317531 3.464399 2.940733
C 1.321010 3.186050 3.291366
C 1.308999 3.859757 3.730822
C 1.710348 3.392909 3.774535
C 1.847490 3.739223 3.329889
C 2.025407 3.058343 3.048396
C 1.889497 3.479062 3.352863
C 2.572893 3.091082 3.569941
C 2.509059 3.545938 2.905439
C 2.348454 3.376000 3.118420
C 2.190047 3.888673 3.843642
C 2.757040 3.261692 3.857387
C 2.830893 3.640666 3.164217
C 3.176510 2.953099 2.985545
C 2.982270 3.639553 3.445221
C 3.600226 2.970408 3.600075
C 3.554673 3.412981 3.081927
C 3.193640 3.140504 3.257637
C 3.310329 3.735969 3.804315
C 3.737502 3.225705 3.659147
C 3.615489 3.665608 3.304137
C 3.940907 3.078682 3.125013
C 3.989100 3.387059 3.477600
C 4.440797 3.064453 3.397731
C 4.387014 3.526022 2.848991
C 4.129634 3.355025 3.228466
C 4.409990 3.705437 3.822170
C 4.660727 3.116229 3.789097
C 4.677827 3.752107 3.268788
C 4.872327 2.843031 3.008511
C 4.917800 3.499281 3.371642
C 5.533571 3.099499 3.446718
C 5.436000 3.380400 2.961884
C 5.265918 3.162090 3.130930
C 5.414500 3.683415 3.695961
C 5.590335 3.208333 3.822753
C 5.631872 3.692965 3.081635
C 0.094700 4.039359 3.020048
C 0.006723 4.490670 3.394489
C 0.469595 4.025031 3.530983
C 0.439964 4.435235 2.939661
C 0.208459 4.365520 3.133021
C 0.222146 4.815443 3.623288
C 0.750408 4.276666 3.680925
C 0.677527 4.823030 3.107323
C 0.963012 3.889008 2.997953
C 1.056193 4.527907 3.614247
C 1.557684 4.103725 3.442099
C 1.535423 4.565204 2.868622
C 1.273565 4.288362 3.235324
C 1.388589 4.637334 3.723310
C 1.721144 4.284654 3.761916
C 1.795309 4.732134 3.217711
C 2.016237 3.850562 3.097708
C 1.988922 4.534783 3.400085
C 2.522478 4.116710 3.517669
C 2.488263 4.388955 2.927320
C 2.070243 4.313358 3.247125
C 2.213525 4.900316 3.805018
C 2.769489 4.283574 3.650179
C 2.688244 4.861328 3.160916
C 3.046814 4.103281 3.047619
C 3.079146 4.408674 3.478876
C 3.506734 3.858178 3.569457
C 3.515867 4.495874 2.924042
C 3.337179 4.236182 3.358906
C 3.376371 4.666430 3.810411
C 3.779940 4.415193 3.823312
C 3.642834 4.667996 3.146393
C 4.016809 4.117680 3.018178
C 4.008576 4.379909 3.345901
C 4.502271 4.018715 3.425957
C 4.403506 4.663528 3.026673
C 4.219766 4.065090 3.234328
C 4.228627 4.660446 3.642052
C 4.908901 4.241088 3.848245
C 4.659147 4.700531 3.194445
C 4.995058 3.900296 3.134660
C 5.097956 4.518181 3.519352
C 5.406608 3.931510 3.519796
C 5.593133 4.387443 3.041305
C 5.216031 4.341512 3.283531
C 5.354398 4.767014 3.859497
C 5.712194 4.295329 3.639747
C 5.593419 4.683669 3.154054
C 0.082378 5.118927 3.047572
C 0.009885 5.562581 3.693907
C 0.468026 4.983194 3.667745
C 0.536636 5.409009 2.990133
C 0.101877 5.334519 3.221037
C 0.309070 5.732658 3.638130
C 0.678145 5.232078 3.920729
C 0.693661 5.652045 3.388453
C 0.944968 4.868051 2.945079
C 1.069401 5.520754 3.549488
C 1.528051 5.084552 3.557380
C 1.581014 5.517674 2.954890
C 1.299389 5.236731 3.342669
C 1.209435 5.615696 3.788071
C 1.770027 5.145120 3.795349
C 1.801392 5.690320 3.182622
C 1.843669 4.993973 3.023158
C 1.892180 5.628845 3.459393
C 2.434543 4.908616 3.516650
C 2.491130 5.378073 3.145951
C 2.159635 5.287750 3.254537
C 2.177460 5.721868 3.921886
C 2.855743 5.265766 3.768957
C 2.666325 5.720848 3.183492
C 2.995816 4.903036 3.033958
C 2.984161 5.494855 3.379344
C 3.437459 5.009710 3.595137
C 3.335958 5.433307 2.975234
C 3.291915 5.137193 3.358468
C 3.332051 5.639498 3.840408
C 3.871573 5.146278 3.761120
C 3.663791 5.548196 3.314223
C 4.095643 4.858978 2.957562
C 3.985406 5.395461 3.377248
C 4.582272 4.993546 3.612104
C 4.548910 5.591065 2.896078
C 4.103036 5.162821 3.232937
C 4.371783 5.732205 3.744895
C 4.904882 5.282578 3.721614
C 4.692364 5.693706 3.302540
C 4.888382 5.087131 2.896217
C 5.052581 5.519716 3.441149
C 5.585737 4.988432 3.396523
C 5.437266 5.580878 3.003013
C 5.104042 5.258173 3.327182
C 5.106052 5.730122 3.762621
C 5.707559 5.173581 3.672358
C 5.643483 5.718637 3.206045
C 0.107531 0.115612 3.856943
C 0.022657 0.590932 4.648003
C 0.515932 0.114183 4.515221
C 0.422406 0.575094 3.974505
C 0.176656 0.125564 4.160669
C 0.301312 0.906887 4.685405
C 0.887093 0.291409 4.797901
C 0.713606 0.756808 4.247607
C 0.900598 0.105435 3.953043
C 1.067057 0.655549 4.568288
C 1.614514 0.091048 4.438528
C 1.515382 0.620799 4.005239
C 1.293491 0.189674 4.337814
C 1.440061 0.799878 4.741714
C 1.753761 0.281166 4.674163
C 1.701847 0.722477 4.272664
C 1.966639 0.104182 4.036073
C 1.994789 0.587244 4.568976
C 2.372562 0.052560 4.324445
C 2.462231 0.420314 3.936507
C 2.293872 0.395612 4.241784
C 2.289642 0.845388 4.669857
C 2.634918 0.161881 4.844372
C 2.738243 0.617972 4.167193
C 3.126419 0.109416 3.880845
C 2.956687 0.515199 4.677747
C 3.507274 0.166219 4.465536
C 3.587977 0.404947 4.007836
C 3.201255 0.157717 4.282034
C 3.149894 0.797607 4.854096
C 3.869731 0.191645 4.670811
C 3.828009 0.726343 4.125959
C 4.111814 0.008273 3.824582
C 3.931079 0.544328 4.547176
C 4.515970 0.060716 4.379470
C 4.497598 0.470308 3.996563
C 4.300466 0.313109 4.210286
C 4.259880 0.811982 4.799373
C 4.747605 0.350132 4.749016
C 4.922969 0.732397 4.185703
C 4.866681 0.100641 4.028474
C 4.864475 0.556012 4.551331
C 5.646711 0.108373 4.547151
C 5.608696 0.565886 3.844593
C 5.290108 0.106027 4.217101
C 5.238640 0.718108 4.852912
C 5.572922 0.195571 4.785105
C 5.608303 0.695100 4.319620
C 0.011919 0.892480 4.062962
C 0.073135 1.591019 4.328710
C 0.583169 0.968822 4.690970
C 0.685640 1.487594 4.084649
C 0.288153 1.117783 4.309773
C 0.184055 1.589024 4.709834
C 0.644197 1.260882 4.743134
C 0.838941 1.829384 4.278269
C 1.060872 1.056386 3.862797
C 0.914724 1.541236 4.348705
C 1.441105 0.889494 4.441523
C 1.424316 1.384611 4.152106
C 1.150110 1.185310 4.156799
C 1.176343 1.585462 4.666002
C 1.615366 1.261156 4.706323
C 1.743765 1.808012 4.188158
C 2.053538 1.105507 4.093606
C 1.791407 1.478496 4.504729
C 2.571520 1.079269 4.569747
C 2.633225 1.440944 3.907530
C 2.376151 1.176284 4.246549
C 2.118802 1.663414 4.819260
C 2.744856 1.273834 4.720871
C 2.912502 1.805886 4.291129
C 2.888078 1.119625 3.949526
C 2.905325 1.419997 4.499330
C 3.504086 0.860689 4.420582
C 3.480156 1.674939 3.942799
C 3.315475 1.206581 4.266962
C 3.270549 1.714682 4.717909
C 3.710910 1.228254 4.743043
C 3.708115 1.862220 4.109927
C 3.896366 0.947145 3.958490
C 3.886390 1.448579 4.527246
C 4.504025 0.957647 4.322062
C 4.442873 1.586285 3.889000
C 4.149127 1.211940 4.319545
C 4.171700 1.723780 4.684260
C 4.830512 1.254187 4.667414
C 4.888419 1.754390 4.319667
C 4.900586 0.983219 3.983410
C 4.861331 1.476791 4.480506
C 5.553006 0.979483 4.360181
C 5.651249 1.608842 3.934399
C 5.276306 1.259801 4.425126
C 5.295479 1.825393 4.909877
C 5.736291 1.335589 4.833969
C 5.605922 1.596991 4.186684
C 0.037978 1.725764 3.942756
C 0.066586 2.496908 4.424510
C 0.378724 2.000719 4.542148
C 0.430463 2.364672 3.997085
C 0.157146 2.154683 4.232377
C 0.271354 2.706757 4.668820
C 0.817994 2.274978 4.766202
C 0.808500 2.754811 4.270000
C 0.903790 2.002104 4.026612
C 0.912156 2.422474 4.524492
C 1.382655 2.002533 4.461503
C 1.513147 2.498560 3.937516
C 1.164613 2.332104 4.312158
C 1.082622 2.703664 4.733687
C 1.755739 2.288120 4.824671
C 1.774725 2.781936 4.066878
C 2.063312 2.067274 4.070152
C 1.876960 2.558098 4.577501
C 2.601133 2.020429 4.467235
C 2.357118 2.513372 4.106069
C 2.183027 2.241965 4.276936
C 2.281096 2.666618 4.730583
C 2.825382 2.272112 4.681060
C 2.608776 2.723440 4.308380
C 3.087180 1.989422 4.147512
C 2.869000 2.497108 4.493037
C 3.572899 1.894966 4.470074
C 3.582744 2.504502 3.908493
C 3.334472 2.310380 4.239345
C 3.327044 2.759637 4.780548
C 3.805514 2.306690 4.872316
C 3.643232 2.829251 4.358975
C 4.032170 1.853195 3.908305
C 4.000650 2.636643 4.593186
C 4.518224 1.912681 4.588327
C 4.481464 2.527371 3.937518
C 4.276967 2.164298 4.217627
C 4.211207 2.624177 4.768660
C 4.663159 2.348399 4.823402
C 4.877730 2.777937 4.208039
C 4.908834 1.886930 4.061526
C 4.990266 2.625398 4.525417
C 5.537518 2.095022 4.490233
C 5.528232 2.388566 3.948769
C 5.301838 2.222317 4.447937
C 5.261141 2.835238 4.827158
C 5.701872 2.225707 4.675144
C 5.690522 2.521539 4.359788
C 0.061610 2.905054 3.953294
C 0.103681 3.557833 4.437532
C 0.439297 3.116771 4.554839
C 0.374882 3.522476 4.104111
C 0.247231 3.234438 4.303896
C 0.147918 3.798791 4.660364
C 0.765742 3.224163 4.658489
C 0.772467 3.868921 4.164069
C 1.052550 2.923414 4.053392
C 0.930290 3.416741 4.433749
C 1.510498 3.073096 4.581528
C 1.451902 3.505650 3.995852
C 1.293659 3.343904 4.201427
C 1.189213 3.695059 4.901782
C 1.629323 3.336923 4.734245
C 1.783504 3.759645 4.243531
C 2.108451 2.947818 4.034344
C 2.068257 3.560900 4.563801
C 2.397345 3.084205 4.405311
C 2.502333 3.415712 3.935613
C 2.250179 3.256599 4.080625
C 2.275865 3.576538 4.782152
C 2.804221 3.289195 4.830284
C 2.759396 3.769163 4.320093
C 2.981626 3.089400 4.026008
C 2.916464 3.475630 4.447245
C 3.431342 2.998507 4.442723
C 3.658983 3.547902 4.017117
C 3.231799 3.229670 4.087254
C 3.370319 3.676753 4.859820
C 3.828787 3.223872 4.607264
C 3.835214 3.905457 4.284807
C 4.118725 3.027013 3.936530
C 4.064611 3.629596 4.448171
C 4.521521 3.144772 4.524401
C 4.421257 3.559842 4.130912
C 4.141253 3.199171 4.189277
C 4.073432 3.759911 4.741910
C 4.653988 3.350983 4.827336
C 4.739581 3.776799 4.138916
C 5.078357 3.085114 4.008198
C 5.002754 3.564470 4.346867
C 5.558362 2.922237 4.440861
C 5.548521 3.513564 3.951915
C 5.236749 3.119243 4.253698
C 5.144468 3.811728 4.590033
C 5.721490 3.263901 4.849688
C 5.706748 3.886563 4.244628
C 0.014645 3.858408 3.903321
C 0.027454 4.393991 4.344336
C 0.511591 3.977047 4.636275
C 0.555346 4.482198 3.858906
C 0.300851 4.229607 4.163720
C 0.370207 4.634155 4.770698
C 0.793852 4.293617 4.747582
C 0.789302 4.710989 4.175319
C 1.170275 3.975116 4.144547
C 1.091798 4.429321 4.416711
C 1.456758 4.094016 4.563831
C 1.554753 4.367366 4.094868
C 1.303422 4.224525 4.178827
C 1.369376 4.688059 4.822902
C 1.578770 4.300381 4.828618
C 1.850835 4.791895 4.323528
C 1.919304 3.863254 3.996614
C 2.102758 4.498354 4.449117
C 2.636854 4.084505 4.488580
C 2.534583 4.478206 4.108311
C 2.146862 4.252679 4.303754
C 2.375017 4.712342 4.880351
C 2.721484 4.289595 4.838259
C 2.843383 4.669730 4.251533
C 3.044369 4.108548 3.930002
C 3.054172 4.563424 4.624919
C 3.606082 4.125420 4.517087
C 3.614612 4.510087 4.028060
C 3.403031 4.291676 4.264149
C 3.368659 4.712817 4.643772
C 3.811452 4.333787 4.853070
C 3.836838 4.722652 4.280265
C 3.984545 4.122440 3.899159
C 3.858619 4.403977 4.509257
C 4.640251 3.970214 4.502222
C 4.472853 4.618009 3.941871
C 4.287945 4.181441 4.120974
C 4.359627 4.877879 4.684116
C 4.693069 4.325771 4.616723
C 4.767741 4.753759 4.304549
C 5.086678 3.951410 3.931461
C 5.066507 4.415548 4.411479
C 5.401111 4.099653 4.564562
C 5.371133 4.398876 3.995788
C 5.215454 4.208900 4.190397
C 5.278275 4.661607 4.697903
C 5.668520 4.323077 4.549015
C 5.609693 4.896630 4.225580
C 0.102933 5.127528 4.094686
C 0.098214 5.491695 4.373809
C 0.466746 4.985397 4.498687
C 0.523145 5.640356 3.885322
C 0.337436 5.212013 4.331281
C 0.361176 5.737939 4.766787
C 0.765049 5.284824 4.641876
C 0.863668 5.651982 4.149421
C 1.103869 5.024310 4.011038
C 1.123180 5.485987 4.402146
C 1.348967 4.826558 4.479198
C 1.473994 5.372829 3.877016
C 1.300226 5.238693 4.142114
C 1.181860 5.631916 4.699389
C 1.623349 5.316414 4.803611
C 1.852067 5.738956 4.193897
C 2.055550 5.066754 4.110483
C 1.830483 5.418609 4.556896
C 2.605247 4.927101 4.414587
C 2.577212 5.388958 4.004780
C 2.200072 5.335533 4.408530
C 2.249310 5.709694 4.937852
C 2.900413 5.204695 4.694507
C 2.645147 5.617784 4.215027
C 3.056408 5.073084 4.121723
C 2.921224 5.356070 4.327492
C 3.382383 4.962743 4.501157
C 3.636158 5.503871 4.102092
C 3.330964 5.347069 4.132648
C 3.295342 5.697865 4.904644
C 3.707003 5.242408 4.663302
C 3.907126 5.630070 4.206008
C 3.962958 5.036958 4.068929
C 3.988588 5.480926 4.599713
C 4.492938 5.025556 4.469002
C 4.478839 5.601511 4.103324
C 4.222310 5.225701 4.284901
C 4.131994 5.727402 4.805382
C 4.764862 5.257718 4.727913
C 4.715954 5.689483 4.359373
C 4.991361 5.045593 3.995595
C 5.033792 5.441325 4.569715
C 5.372590 4.970794 4.472162
C 5.428035 5.424780 3.887951
C 5.180578 5.214900 4.363954
C 5.411352 5.686288 4.710342
C 5.691423 5.209945 4.820943
C 5.696435 5.715691 4.182595
C 0.062354 0.157586 4.869022
C 0.044655 0.438404 5.618494
C 0.309852 0.098504 5.510807
C 0.561506 0.339329 5.059348
C 0.228358 0.141868 5.249684
C 0.366693 0.657050 5.634005
C 0.656161 0.227688 5.737508
C 0.924601 0.751975 5.277873
C 1.153844 0.025192 4.900937
C 1.007549 0.527118 5.460567
C 1.527233 0.068621 5.477490
C 1.609937 0.659403 4.966405
C 1.189796 0.230501 5.170393
C 1.340744 0.876920 5.644919
C 1.870680 0.263600 5.675907
C 1.813543 0.732417 5.252458
C 2.155305 0.037598 5.066380
C 1.958626 0.391199 5.429333
C 2.285313 0.072068 5.570811
C 2.561377 0.456830 4.931918
C 2.224168 0.222773 5.338372
C 2.354954 0.681796 5.703937
C 2.635888 0.196271 5.693378
C 2.796203 0.636319 5.135900
C 2.974807 0.109534 4.944496
C 2.888292 0.467732 5.606268
C 3.382454 0.041525 5.537785
C 3.606515 0.500438 4.838880
C 3.404427 0.181263 5.116452
C 3.336187 0.609109 5.745655
C 3.826302 0.204270 5.638585
C 3.775695 0.748103 5.200509
C 4.062272 0.075033 5.060521
C 4.014246 0.361738 5.404215
C 4.377940 0.007804 5.538229
C 4.524608 0.690248 5.024368
C 4.328719 0.251089 5.285107
C 4.337629 0.650803 5.553987
C 4.894676 0.349553 5.727520
C 4.764640 0.806386 5.181640
C 5.104757 0.097577 5.155274
C 4.911416 0.594854 5.533068
C 5.485534 0.067435 5.620435
C 5.567676 0.468971 4.871512
C 5.389856 0.298981 5.077461
C 5.207588 0.768164 5.540824
C 5.671963 0.271891 5.673639
C 5.615110 0.616203 5.225943
C 0.146881 0.870949 4.931679
C 0.039600 1.581179 5.357266
C 0.393997 0.990776 5.586747
C 0.501497 1.436769 5.044444
C 0.195111 1.334027 5.241611
C 0.245651 1.743247 5.733330
C 0.910047 1.259069 5.739173
C 0.636241 1.655879 5.218571
C 1.042457 1.029185 4.994187
C 1.069977 1.427559 5.471599
C 1.527679 1.004907 5.477772
C 1.478958 1.613006 5.084769
C 1.207597 1.138939 5.310011
C 1.257446 1.526492 5.708397
C 1.732622 1.283821 5.604605
C 1.634158 1.787495 5.300427
C 1.968395 0.989081 5.111125
C 2.127052 1.497126 5.568910
C 2.490860 1.069856 5.671226
C 2.390625 1.525454 4.955457
C 2.033002 1.246070 5.255550
C 2.417944 1.687498 5.717573
C 2.858616 1.079907 5.652652
C 2.744171 1.710919 5.403685
C 2.875434 1.023619 5.131837
C 3.039849 1.574907 5.396072
C 3.560982 1.093664 5.578553
C 3.450666 1.525700 5.011438
C 3.159690 1.206831 5.420517
C 3.374365 1.891214 5.738393
C 3.806198 1.201181 5.686281
C 3.916989 1.757143 5.308508
C 4.044706 1.142460 5.008498
C 4.161219 1.429583 5.378377
C 4.336301 0.970382 5.461640
C 4.564988 1.392065 4.995989
C 4.362135 1.230573 5.280022
C 4.300859 1.825615 5.676742
C 4.566401 1.186144 5.657247
C 4.749429 1.685976 5.147572
C 5.025934 1.095769 4.947374
C 4.992134 1.398945 5.608639
C 5.557869 1.033115 5.486871
C 5.564004 1.373581 5.074244
C 5.352657 1.194302 5.262112
C 5.386287 1.657317 5.749282
C 5.688376 1.383223 5.715119
C 5.722895 1.709647 5.385926
C 0.090795 1.969392 5.107339
C 0.010634 2.531617 5.662684
C 0.552712 1.938927 5.468012
C 0.419008 2.510319 5.060705
C 0.247284 2.335566 5.327946
C 0.204823 2.643518 5.516086
C 0.628222 2.327885 5.615414
C 0.814645 2.666973 5.111594
C 1.098017 2.013892 5.007870
C 1.113682 2.464404 5.452805
C 1.622691 2.022088 5.469433
C 1.451219 2.544495 4.817642
C 1.424694 2.293318 5.340479
C 1.276148 2.948076 5.728412
C 1.856744 2.119038 5.744634
C 1.907442 2.787190 5.205761
C 2.018638 2.061241 4.869147
C 2.091103 2.617876 5.446559
C 2.436695 2.092547 5.548518
C 2.438974 2.563424 4.989307
C 2.170930 2.235366 5.174528
C 2.133946 2.719135 5.733503
C 2.803876 2.229364 5.611153
C 2.830448 2.671963 5.157550
C 3.173804 1.910840 5.024964
C 2.930354 2.496801 5.491939
C 3.515785 2.125033 5.468521
C 3.550589 2.512486 5.003629
C 3.119835 2.189681 5.282835
C 3.163425 2.826237 5.651993
C 3.866221 2.352855 5.637608
C 3.742949 2.907663 5.331206
C 4.039004 2.064345 5.014429
C 4.158026 2.568776 5.477375
C 4.635245 1.897209 5.449501
C 4.414894 2.432533 4.989387
C 4.384322 2.229747 5.380918
C 4.393843 2.679034 5.610729
C 4.808475 2.162275 5.611144
C 4.791977 2.594777 5.278937
C 5.052453 1.993260 4.893761
C 5.078982 2.547882 5.365528
C 5.675681 1.955410 5.494771
C 5.678997 2.497204 5.033423
C 5.234387 2.153072 5.158868
C 5.398425 2.670308 5.746331
C 5.568330 2.156346 5.682399
C 5.666923 2.749645 5.281148
C 0.045346 3.002422 5.139899
C 0.093637 3.324086 5.503573
C 0.477508 3.001715 5.619207
C 0.559224 3.412196 5.086342
C 0.308811 3.142537 5.273686
C 0.152685 3.592916 5.739936
C 0.627098 3.281424 5.707334
C 0.824581 3.847423 5.333782
C 0.896893 2.985326 4.890228
C 1.033657 3.508174 5.510900
C 1.539599 2.835053 5.434256
C 1.545180 3.357650 5.104817
C 1.169942 3.170062 5.372099
C 1.399875 3.841693 5.669610
C 1.723889 3.301263 5.695190
C 1.735225 3.806910 5.347162
C 1.974483 3.084770 5.166625
C 1.994603 3.680538 5.458477
C 2.419677 3.092963 5.626597
C 2.549099 3.376157 5.040396
C 2.230142 3.304565 5.112025
C 2.272501 3.656761 5.529289
C 2.812641 3.350381 5.686357
C 2.692896 3.762379 5.228686
C 2.985402 3.052041 5.114355
C 3.062163 3.629173 5.547903
C 3.443777 2.897062 5.533566
C 3.646865 3.521785 5.074684
C 3.301744 3.313433 5.288079
C 3.474204 3.806859 5.733664
C 3.849005 3.243495 5.719563
C 3.839089 3.780125 5.271100
C 3.948372 2.971317 5.042733
C 3.992471 3.658162 5.598149
C 4.413718 2.963911 5.666221
C 4.508937 3.538705 5.080226
C 4.291263 3.220001 5.372856
C 4.286307 3.802572 5.673930
C 4.750034 3.266611 5.597339
C 4.661347 3.947557 5.305191
C 5.062528 3.019432 5.007938
C 5.046775 3.658812 5.432619
C 5.512281 2.809738 5.531559
C 5.604696 3.580653 4.973150
C 5.160958 3.220082 5.182616
C 5.037379 3.693848 5.725690
C 5.730777 3.214741 5.616742
C 5.712231 3.776834 5.396691
C 0.056129 4.223677 4.901492
C 0.082716 4.448290 5.614968
C 0.506175 3.955763 5.458007
C 0.436438 4.641712 5.064437
C 0.351145 4.157275 5.275059
C 0.327974 4.772700 5.735166
C 0.789751 4.368363 5.735728
C 0.641189 4.701732 5.341661
C 0.979359 3.928993 4.866373
C 1.111824 4.638926 5.560453
C 1.394612 3.955969 5.396062
C 1.683948 4.501726 4.945768
C 1.188960 4.200857 5.266919
C 1.082015 4.888534 5.716238
C 1.897900 4.298678 5.635739
C 1.781119 4.862526 5.229936
C 1.896259 3.885289 5.042769
C 1.885964 4.538604 5.402679
C 2.591710 3.913075 5.631049
C 2.435038 4.430011 4.847838
C 2.148533 4.209904 5.340125
C 2.280200 4.779417 5.724897
C 2.828188 4.364076 5.605414
C 2.909727 4.837629 5.365665
C 2.974861 4.080246 4.879902
C 3.067532 4.566536 5.595798
C 3.355788 3.975052 5.450143
C 3.509450 4.609477 5.020546
C 3.350629 4.248562 5.325864
C 3.241115 4.802053 5.698168
C 3.617407 4.194754 5.729373
C 3.757547 4.900199 5.223699
C 3.912275 3.905152 5.033541
C 3.998439 4.470110 5.643799
C 4.606183 4.013846 5.578576
C 4.405091 4.429267 4.947391
C 4.306267 4.146064 5.307360
C 4.140926 4.695467 5.633493
C 4.764207 4.247166 5.599756
C 4.807900 4.572949 5.132551
C 4.916031 3.916976 5.066746
C 4.929492 4.578123 5.440155
C 5.647225 4.072683 5.499083
C 5.461990 4.497868 5.076119
C 5.209349 4.370077 5.152244
C 5.270254 4.899728 5.688762
C 5.716135 4.509209 5.648549
C 5.726372 4.572234 5.214385
C 0.004288 4.794749 5.016642
C 0.157045 5.536389 5.480906
C 0.457808 5.016940 5.661108
C 0.383845 5.428157 4.948818
C 0.247211 5.159016 5.170337
C 0.312310 5.595056 5.706020
C 0.716586 5.064284 5.689206
C 0.696364 5.622363 5.357637
C 0.833498 4.962334 5.000373
C 0.980857 5.567227 5.404559
C 1.392171 4.973821 5.564204
C 1.573714 5.609226 4.974360
C 1.162181 5.254476 5.160135
C 1.241677 5.734964 5.747425
C 1.582537 5.271133 5.729004
C 1.899832 5.729734 5.271048
C 2.034928 5.001208 4.977241
C 2.028913 5.547883 5.659814
C 2.465167 5.063460 5.474913
C 2.516370 5.472285 4.926676
C 2.316070 5.115772 5.167251
C 2.426529 5.707480 5.727943
C 2.583474 5.258733 5.747535
C 2.681096 5.708622 5.226996
C 3.084575 4.981932 4.999652
C 3.028284 5.554344 5.627039
C 3.591542 5.077322 5.378954
C 3.517774 5.556934 5.140588
C 3.269813 5.282178 5.175946
C 3.388877 5.532082 5.705104
C 3.694574 5.254684 5.728804
C 3.752776 5.705140 5.358806
C 3.936490 5.096778 4.969144
C 3.879306 5.425140 5.390338
C 4.566486 4.796088 5.453975
C 4.555183 5.603803 5.061178
C 4.178652 5.284048 5.336399
C 4.214930 5.538324 5.710678
C 4.662426 5.219876 5.543112
C 4.722417 5.665967 5.313367
C 4.925489 4.964422 4.839806
C 5.025881 5.594231 5.542514
C 5.690109 4.993619 5.411338
C 5.468212 5.559584 4.993602
C 5.063673 5.169827 5.199172
C 5.285244 5.745389 5.536013
C 5.615171 5.241549 5.700345
C 5.696334 5.702794 5.315563
1728
Frame 10/10
C 0.154960 0.004858 0.092806
C 0.124953 0.438514 0.482667
C 0.643227 0.160768 0.488405
C 0.513013 0.459444 0.149057
C 0.355698 0.225633 0.268732
C 0.220517 0.748795 0.657251
C 0.677794 0.164611 0.816428
C 0.796614 0.912158 0.256763
C 0.983738 0.092938 0.105702
C 0.969065 0.608171 0.452651
C 1.556921 0.107380 0.546978
C 1.644845 0.414400 0.018222
C 1.094203 0.291745 0.235119
C 1.241875 0.715055 0.746720
C 1.816022 0.339000 0.561249
C 1.685559 0.701035 0.094835
C 2.101565 0.037862 0.011482
C 1.863967 0.605802 0.495500
C 2.678701 0.039246 0.595148
C 2.668317 0.438101 0.035563
C 2.326448 0.069165 0.257659
C 2.214302 0.693991 0.938631
C 2.874831 0.165542 0.739426
C 2.863943 0.689224 0.350948
C 2.893641 0.090442 0.067351
C 3.058121 0.553008 0.531850
C 3.612497 0.114116 0.426647
C 3.674915 0.570697 0.030673
C 3.370275 0.260469 0.283899
C 3.187829 0.778396 0.583925
C 3.608725 0.203530 0.690324
C 3.826603 0.767314 0.200303
C 4.150076 0.008525 0.137158
C 4.077422 0.623192 0.531485
C 4.487225 0.125433 0.358852
C 4.481390 0.480440 0.042702
C 4.135120 0.223298 0.389046
C 4.174431 0.783816 0.760740
C 4.761298 0.253210 0.918935
C 4.717952 0.743009 0.166578
C 4.801949 0.139642 0.063978
C 4.952676 0.465064 0.304157
C 5.356882 0.121443 0.633564
C 5.649412 0.504734 0.023451
C 5.253891 0.238251 0.072153
C 5.186414 0.673090 0.813280
C 5.690570 0.276046 0.752542
C 5.567279 0.688206 0.211466
C 0.019431 0.944363 0.127302
C 0.007373 1.449673 0.590341
C 0.464912 0.879589 0.394088
C 0.479703 1.472961 0.053591
C 0.251547 1.127734 0.254325
C 0.110430 1.764966 0.877426
C 0.804995 1.390375 0.754430
C 0.758242 1.613336 0.141542
C 1.027006 0.820424 0.100583
C 1.046362 1.621478 0.503461
C 1.430529 0.955233 0.494484
C 1.446910 1.381630 0.043939
C 1.274550 1.136781 0.211159
C 1.221355 1.745854 0.817838
C 1.798603 1.131341 0.680111
C 1.738834 1.700040 0.058878
C 1.980208 1.033303 0.001491
C 1.989688 1.574593 0.426386
C 2.523107 1.031088 0.662113
C 2.309132 1.548557 0.012709
C 2.256930 1.154821 0.129296
C 2.104666 1.666240 0.741176
C 2.676319 1.240653 0.582895
C 2.880366 1.662280 0.154358
C 2.875778 1.079448 0.178931
C 2.981417 1.401753 0.626858
C 3.498617 1.004930 0.397304
C 3.555838 1.723874 0.048131
C 3.127691 1.167579 0.180840
C 3.280113 1.637323 0.904676
C 3.718701 1.227149 0.661743
C 3.825084 1.690001 0.147478
C 4.077419 0.886922 0.006241
C 4.174033 1.518162 0.550096
C 4.590893 0.939428 0.389314
C 4.681491 1.354124 0.033512
C 4.356513 1.240946 0.328682
C 4.213350 1.786842 0.863635
C 4.661159 1.279472 0.921955
C 4.694231 1.943598 0.295690
C 4.809850 1.012467 0.035674
C 5.150179 1.462414 0.537364
C 5.366171 1.026177 0.558441
C 5.623396 1.539717 0.000380
C 5.224818 1.368072 0.254579
C 5.209414 1.727332 0.591366
C 5.694036 1.138676 0.773995
C 5.589638 1.739490 0.193997
C 0.222734 2.021047 0.139423
C 0.066800 2.440608 0.676997
C 0.522098 1.987865 0.409191
C 0.444167 2.532594 0.135763
C 0.178801 2.329629 0.154459
C 0.232389 2.633860 0.811506
C 0.835539 2.310276 0.859615
C 0.892647 2.763873 0.177311
C 0.983578 2.160705 0.009756
C 0.917988 2.623074 0.399616
C 1.547321 2.120827 0.522249
C 1.483048 2.644150 0.161779
C 1.273290 2.192229 0.218359
C 1.229450 2.857148 0.649433
C 1.824155 2.130010 0.723477
C 1.791647 2.800589 0.411328
C 2.150885 1.959761 0.100892
C 2.162392 2.581245 0.473244
C 2.531543 1.973908 0.594746
C 2.614078 2.684454 0.037340
C 2.160346 2.219911 0.143838
C 2.393861 2.930338 0.710086
C 2.827387 2.127517 0.727238
C 2.786331 2.515539 0.202936
C 2.910957 2.123880 0.056371
C 3.089905 2.361360 0.553168
C 3.639509 2.106303 0.543432
C 3.511675 2.415014 0.052708
C 3.241724 2.384578 0.137859
C 3.211718 2.859413 0.670915
C 3.785433 2.079508 0.874141
C 3.601941 2.643991 0.213898
C 3.847287 1.962229 0.016040
C 4.096422 2.332899 0.377996
C 4.374062 1.969159 0.451071
C 4.653869 2.695984 0.036832
C 4.109151 2.262482 0.114018
C 4.138815 2.800902 0.848631
C 4.618025 2.149638 0.765667
C 4.884822 2.683952 0.298356
C 5.032851 1.886105 0.068712
C 5.092595 2.548974 0.625481
C 5.320522 1.965638 0.508970
C 5.510931 2.252171 0.052798
C 5.357781 2.121766 0.245659
C 5.341378 2.769810 0.833616
C 5.661826 2.331049 0.853197
C 5.639389 2.732137 0.157271
C 0.107066 2.882036 0.025194
C 0.027358 3.502549 0.319390
C 0.479937 2.875983 0.423625
C 0.487582 3.624559 0.006525
C 0.202507 3.298564 0.168528
C 0.378039 3.742518 0.639005
C 0.626602 3.178870 0.802227
C 0.879176 3.793985 0.265506
C 0.781955 2.950610 0.029456
C 0.901385 3.392954 0.430737
C 1.550491 3.009650 0.554937
C 1.648773 3.480581 0.155368
C 1.050050 3.309272 0.199682
C 1.343489 3.682460 0.685438
C 1.698255 3.254110 0.844566
C 1.866947 3.844629 0.143743
C 1.929914 3.106066 0.041546
C 2.071655 3.350509 0.619661
C 2.576757 2.986390 0.414662
C 2.502698 3.508985 0.056724
C 2.131678 3.311221 0.291654
C 2.115574 3.722095 0.729149
C 2.859349 3.105385 0.791940
C 2.939754 3.764666 0.199313
C 2.912781 2.998915 0.019328
C 3.069370 3.364971 0.343638
C 3.661963 2.996723 0.385225
C 3.400070 3.530902 0.158661
C 3.305029 3.242186 0.281282
C 3.220316 3.908524 0.725136
C 3.871628 3.292739 0.754489
C 3.723293 3.811015 0.123388
C 3.828400 2.942969 0.072117
C 3.968339 3.429079 0.495181
C 4.454076 2.926842 0.327283
C 4.495358 3.504194 0.138989
C 4.078108 3.359925 0.138752
C 4.264673 3.613723 0.660291
C 4.873828 3.293183 0.637472
C 4.769064 3.850178 0.088328
C 5.011649 3.088009 0.006814
C 4.828827 3.520602 0.488743
C 5.544918 3.120308 0.534094
C 5.506785 3.397170 0.173082
C 5.119378 3.312935 0.223355
C 5.245993 3.550702 0.727259
C 5.719649 3.181206 0.845264
C 5.744069 3.685972 0.351508
C 0.014169 4.077957 0.136003
C 0.001361 4.394551 0.365960
C 0.601231 4.071405 0.646757
C 0.561096 4.586931 0.103650
C 0.220829 4.232666 0.210785
C 0.151141 4.842699 0.743375
C 0.742382 4.286530 0.855801
C 0.776172 4.605584 0.298960
C 0.995308 4.229163 0.133326
C 0.967952 4.479444 0.580110
C 1.643204 4.109532 0.418118
C 1.266706 4.428594 0.022604
C 1.215753 4.061579 0.303071
C 1.170944 4.940696 0.645768
C 1.625705 4.298335 0.746100
C 1.654999 4.808860 0.412652
C 2.178973 4.141399 0.045297
C 2.001200 4.613095 0.361099
C 2.554639 3.920702 0.640120
C 2.365092 4.643470 0.135135
C 2.286918 4.372604 0.118032
C 2.356251 4.715465 0.761195
C 2.637282 4.294330 0.668099
C 2.751191 4.761749 0.361061
C 3.074982 4.021572 0.042177
C 3.009753 4.383880 0.516285
C 3.491789 3.980051 0.662646
C 3.504955 4.704880 0.027627
C 3.408157 4.200468 0.226072
C 3.260547 4.827377 0.781311
C 3.890245 4.202163 0.803309
C 3.721643 4.726643 0.215052
C 4.007778 3.954411 0.011739
C 4.087471 4.513896 0.533837
C 4.420003 3.837577 0.367863
C 4.583345 4.635368 0.152085
C 4.364614 4.163221 0.342458
C 4.410465 4.631203 0.618978
C 4.801107 4.169236 0.785337
C 4.647304 4.787836 0.367430
C 5.090763 3.856531 0.071399
C 4.981780 4.389646 0.522500
C 5.543391 3.928533 0.644162
C 5.452264 4.451308 0.019025
C 5.203490 4.282241 0.346594
C 5.360422 4.895973 0.666817
C 5.607628 4.287476 0.671537
C 5.710141 4.823890 0.325389
C 0.000978 5.144143 0.202152
C 0.017741 5.377947 0.328344
C 0.507316 4.906407 0.523836
C 0.479417 5.652132 0.015982
C 0.314269 5.197594 0.227036
C 0.216916 5.665602 0.857417
C 0.601918 5.299028 0.687530
C 0.737627 5.706602 0.378841
C 1.126868 4.866382 0.061951
C 1.032236 5.644394 0.532953
C 1.372337 4.953342 0.383161
C 1.645768 5.349498 0.053192
C 1.379250 5.313230 0.246227
C 1.215435 5.525530 0.717482
C 1.806485 5.324203 0.942782
C 1.794151 5.730417 0.290854
C 1.829079 5.047013 0.009120
C 1.936123 5.518116 0.711012
C 2.570711 5.097293 0.626911
C 2.663645 5.423853 0.107457
C 2.229696 5.387601 0.261550
C 2.203062 5.704383 0.755326
C 2.904020 5.311385 0.680755
C 2.607128 5.690950 0.166005
C 3.081941 4.858203 0.001651
C 3.007252 5.563470 0.575710
C 3.507651 4.909024 0.419467
C 3.378374 5.594638 0.132571
C 3.080606 5.187396 0.255846
C 3.462044 5.618835 0.605448
C 3.687356 5.271995 0.814961
C 3.724182 5.627196 0.395688
C 3.806733 5.061837 0.005594
C 3.901124 5.339843 0.575607
C 4.637237 5.019345 0.571265
C 4.427254 5.348700 0.069630
C 4.453576 5.190539 0.286205
C 4.211489 5.631597 0.685220
C 4.692015 5.317197 0.620305
C 4.980461 5.632627 0.302953
C 4.925734 4.964173 0.141302
C 5.088471 5.440848 0.547809
C 5.469774 4.973718 0.350314
C 5.537967 5.358620 0.047721
C 5.179883 5.168271 0.312112
C 5.424063 5.636912 0.736541
C 5.737799 5.182996 0.576295
C 5.729821 5.627893 0.092258
C 0.049382 0.060774 0.990298
C 0.068926 0.418823 1.343224
C 0.439756 0.116837 1.339026
C 0.548296 0.371273 0.911616
C 0.321975 0.063445 1.103410
C 0.103149 0.655787 1.759774
C 0.617894 0.305481 1.870151
C 0.587441 0.804582 1.241242
C 0.856596 0.001925 0.984498
C 1.185884 0.500343 1.523260
C 1.482181 0.084311 1.517270
C 1.414104 0.510150 1.102644
C 1.423114 0.291809 1.284104
C 1.345145 0.685188 1.656927
C 1.643498 0.151596 1.737625
C 1.908372 0.615039 1.233638
C 2.109953 0.025025 0.965790
C 2.110312 0.522248 1.563599
C 2.756531 0.083454 1.474452
C 2.499004 0.331797 0.974152
C 2.258908 0.441640 1.179237
C 2.318439 0.663007 1.933307
C 2.823167 0.345897 1.698048
C 2.623592 0.809656 1.282515
C 2.942958 0.044611 1.246729
C 3.030059 0.358547 1.428925
C 3.370786 0.118576 1.509967
C 3.482094 0.493219 1.023528
C 3.352646 0.345548 1.203307
C 3.169401 0.875281 1.756979
C 3.873739 0.298063 1.851783
C 3.715284 0.826786 1.202171
C 4.217242 0.087367 1.037479
C 4.017277 0.559912 1.546032
C 4.501724 0.053798 1.544790
C 4.383676 0.473051 1.110559
C 4.263879 0.345101 1.353813
C 4.150449 0.582861 1.817937
C 4.859414 0.327090 1.838281
C 4.880455 0.787827 1.326720
C 5.184159 0.022670 0.992557
C 4.941546 0.457812 1.564590
C 5.250630 0.045474 1.583603
C 5.440949 0.652369 1.039826
C 5.166377 0.242565 1.137400
C 5.213078 0.641839 1.687248
C 5.723176 0.222880 1.528793
C 5.719021 0.822379 1.107643
C 0.038063 1.067793 1.046596
C 0.131658 1.567390 1.368018
C 0.452477 0.907106 1.595128
C 0.478846 1.723244 1.059615
C 0.286719 1.122649 1.151210
C 0.403216 1.814463 1.752769
C 0.726595 1.324315 1.821600
C 0.870874 1.867671 1.174577
C 0.946782 0.873487 1.051386
C 0.982911 1.475767 1.641288
C 1.662482 1.101726 1.547397
C 1.374793 1.440877 0.962593
C 1.300097 1.380070 1.220312
C 1.265117 1.598256 1.806347
C 1.627414 1.127278 1.810539
C 1.785535 1.641531 1.329036
C 2.043831 0.891392 0.926557
C 2.017263 1.571877 1.641340
C 2.466291 1.000369 1.367626
C 2.474431 1.623312 1.049545
C 2.413281 1.174250 1.147621
C 2.272263 1.752139 1.604695
C 2.808716 1.304540 1.676661
C 2.919798 1.843786 1.215870
C 3.145776 1.063992 1.022743
C 2.820296 1.622595 1.446483
C 3.662390 1.092974 1.539930
C 3.282325 1.392845 1.001736
C 3.112834 1.132216 1.332952
C 3.258490 1.881927 1.933993
C 3.627316 1.446953 1.660282
C 3.746032 1.730797 1.428689
C 3.946226 0.893357 0.900512
C 3.956661 1.373808 1.597395
C 4.392876 0.913840 1.570795
C 4.443016 1.478064 0.998000
C 4.224499 1.426852 1.145101
C 4.125951 1.840762 1.815603
C 4.696892 1.438514 1.782554
C 4.708891 1.804980 1.216847
C 4.965939 1.111425 0.927623
C 5.024248 1.492565 1.583628
C 5.515285 1.127833 1.396375
C 5.323915 1.497773 0.939050
C 5.329517 1.309852 1.387601
C 5.105248 1.720617 1.776103
C 5.735323 1.488526 1.870219
C 5.660191 1.674363 1.349425
C 0.019935 1.893024 1.143417
C 0.136881 2.539155 1.402513
C 0.467301 2.179186 1.585102
C 0.449369 2.688389 0.945676
C 0.351535 2.167852 1.159653
C 0.191460 2.835748 1.666341
C 0.736794 2.178915 1.897989
C 0.688032 2.628371 1.124798
C 0.940747 1.902374 0.911853
C 1.027308 2.650914 1.398649
C 1.624766 2.053185 1.519400
C 1.469128 2.503817 1.039817
C 1.314663 2.104047 1.259766
C 1.132819 2.828234 1.720210
C 1.724399 2.369457 1.752175
C 1.760563 2.699052 1.159333
C 1.967572 1.943507 0.970508
C 2.042957 2.510576 1.620867
C 2.573633 2.148445 1.581348
C 2.496891 2.711749 0.984127
C 2.148995 2.214975 1.224784
C 2.417751 2.692011 1.833634
C 2.822345 2.399577 1.739305
C 2.671151 2.661475 1.344208
C 2.903590 2.100755 1.065125
C 3.041404 2.670674 1.623356
C 3.640461 2.012111 1.530450
C 3.495147 2.564537 1.033366
C 3.262896 2.146235 1.156805
C 3.364039 2.732761 1.868941
C 3.691841 2.175621 1.756978
C 3.628654 2.709209 1.233235
C 4.058004 1.966933 1.008604
C 3.901736 2.484624 1.397756
C 4.461147 1.964172 1.264394
C 4.547331 2.384843 1.043504
C 4.162418 2.384764 1.275446
C 4.191255 2.641508 1.635076
C 4.723470 2.335559 1.608848
C 4.713148 2.786769 1.321574
C 4.952593 1.912562 1.159541
C 5.126946 2.474983 1.555359
C 5.471721 1.929606 1.398137
C 5.346807 2.433452 0.982034
C 5.235811 2.078411 1.295288
C 5.262822 2.877286 1.892368
C 5.702518 2.273037 1.652709
C 5.723909 2.662478 1.116128
C 0.005378 2.931387 0.863045
C 0.153473 3.396112 1.578922
C 0.552996 3.139720 1.519648
C 0.394246 3.572807 1.120960
C 0.429956 3.316254 1.367917
C 0.279513 3.711123 1.532001
C 0.914112 3.214750 1.901455
C 0.805810 3.567633 1.334643
C 0.931151 2.929110 1.076718
C 0.983756 3.494658 1.554084
C 1.473072 2.871811 1.603044
C 1.426446 3.461365 0.900933
C 1.218815 3.210858 1.181945
C 1.380111 3.777625 1.812256
C 1.621974 3.399959 1.787382
C 1.791547 3.589128 1.245859
C 1.903130 3.016665 1.061735
C 2.003221 3.391397 1.300257
C 2.549176 2.914774 1.440316
C 2.538980 3.430264 1.130177
C 2.127941 3.148891 1.408310
C 2.140832 3.682608 1.669667
C 2.744117 3.160523 1.724318
C 2.721715 3.641719 1.373643
C 2.978365 2.876933 0.961553
C 2.883855 3.448360 1.469081
C 3.457362 2.884770 1.546198
C 3.622974 3.368769 0.876969
C 3.148220 3.203608 1.290039
C 3.327702 3.697121 1.688789
C 3.917554 3.287700 1.646902
C 3.696586 3.608794 1.275687
C 3.858648 2.886001 0.928683
C 4.112843 3.562900 1.560243
C 4.518807 3.132393 1.336856
C 4.500675 3.396146 1.130323
C 4.187120 3.356868 1.288043
C 4.361992 3.683053 1.777543
C 4.816993 3.198982 1.935982
C 4.824126 3.581022 1.381638
C 5.095408 3.083175 0.850796
C 5.107924 3.466207 1.374772
C 5.536742 2.889805 1.443239
C 5.396850 3.405260 0.958201
C 5.460962 3.255715 1.246095
C 5.249148 3.697925 1.785253
C 5.692004 3.222582 1.881996
C 5.714927 3.870521 1.430876
C 0.026666 4.050880 0.950642
C 0.001862 4.686876 1.561822
C 0.438642 3.962741 1.582057
C 0.684055 4.606595 0.975523
C 0.130381 4.307725 1.092157
C 0.383155 4.864794 1.799733
C 0.643952 4.279221 1.754161
C 0.807539 4.886996 1.214675
C 1.030537 4.043494 1.015739
C 0.904047 4.421883 1.561257
C 1.341652 3.936739 1.554698
C 1.543001 4.515083 1.030848
C 1.306945 4.262507 1.349877
C 1.253622 4.935934 1.803227
C 1.680634 4.146088 1.617910
C 1.855633 4.735348 1.337384
C 1.895883 4.127905 1.007067
C 1.974544 4.384459 1.560822
C 2.415133 3.890306 1.574867
C 2.401802 4.531576 1.030744
C 2.082312 4.158767 1.201491
C 2.150984 4.845374 1.840836
C 2.915760 4.291131 1.702474
C 2.685380 4.602732 1.150204
C 3.096501 3.793989 1.006052
C 2.928454 4.518038 1.436188
C 3.538011 4.116148 1.374744
C 3.456713 4.501847 1.071301
C 3.317030 4.393357 1.275266
C 3.102025 4.849047 1.748814
C 3.757712 4.246876 1.697393
C 3.692018 4.627564 1.103911
C 3.965876 3.887195 0.974537
C 4.065847 4.500273 1.454301
C 4.643944 4.165638 1.539901
C 4.485341 4.717703 1.092422
C 4.336074 4.231285 1.076799
C 4.054007 4.700575 1.691934
C 4.708987 4.306953 1.958090
C 4.654237 4.815471 1.288434
C 4.830741 3.902101 1.113954
C 4.965698 4.374086 1.476118
C 5.441724 3.955559 1.385202
C 5.376039 4.598289 0.915826
C 5.272390 4.159576 1.183025
C 5.147631 4.849884 1.705097
C 5.748194 4.266481 1.826686
C 5.667027 4.745368 1.282467
C 0.071951 5.264934 1.037019
C 0.090527 5.371683 1.449212
C 0.448945 5.080283 1.545142
C 0.470111 5.423590 1.060996
C 0.333989 5.222549 1.204542
C 0.439566 5.735165 1.622498
C 0.640821 5.269082 1.655839
C 0.681042 5.688514 1.401698
C 0.899693 5.030036 0.966446
C 0.873688 5.541321 1.611365
C 1.478804 4.867541 1.601756
C 1.380167 5.620171 1.003245
C 1.371051 5.335939 1.288927
C 1.214678 5.559619 1.725024
C 1.779159 5.355514 1.708272
C 1.674077 5.523986 1.173889
C 2.019132 5.162133 0.887302
C 1.991084 5.556786 1.488813
C 2.406563 5.081526 1.541829
C 2.395809 5.624588 1.064668
C 2.238666 5.238110 1.285305
C 2.086627 5.736129 1.653140
C 2.598498 5.182898 1.802433
C 2.842744 5.705583 1.441802
C 2.980049 4.919127 0.988656
C 3.128873 5.559152 1.463092
C 3.303593 4.981672 1.547765
C 3.431985 5.354544 0.922055
C 3.313765 5.231326 1.370535
C 3.371515 5.723106 1.646506
C 3.636325 5.360035 1.890282
C 3.782765 5.721938 1.364584
C 3.996118 5.013282 0.919162
C 3.976236 5.306568 1.431344
C 4.540672 5.018322 1.414677
C 4.486913 5.346706 0.854133
C 4.210301 5.273811 1.292337
C 4.449476 5.739863 1.715986
C 4.586707 5.274510 1.678473
C 4.854339 5.724048 1.113860
C 5.088940 4.890445 0.888351
C 5.020113 5.484512 1.416342
C 5.693491 5.035332 1.615844
C 5.666795 5.387565 0.872018
C 5.319496 5.220198 1.381206
C 5.201876 5.554876 1.656020
C 5.685048 5.437517 1.811795
C 5.531578 5.659151 1.214055
C 0.176504 0.002131 2.163677
C 0.110655 0.638527 2.567972
C 0.379627 0.097745 2.650401
C 0.508785 0.699302 1.896352
C 0.288215 0.293384 2.081590
C 0.257996 0.851760 2.910313
C 0.643130 0.254898 2.683487
C 0.703017 0.573232 2.156254
C 0.998635 0.050408 1.792549
C 1.031723 0.455116 2.696268
C 1.380445 0.038089 2.678213
C 1.393116 0.418617 2.140924
C 1.192405 0.128662 2.295588
C 1.280484 0.782242 2.664138
C 1.835265 0.219231 2.870728
C 1.527885 0.708641 2.280816
C 1.896361 0.017457 2.020012
C 2.128834 0.691724 2.482003
C 2.511853 0.119666 2.442775
C 2.600143 0.416346 2.150516
C 2.278031 0.374587 2.332408
C 2.193191 0.729556 2.794980
C 2.750495 0.383886 2.788374
C 2.755135 0.703875 2.431982
C 2.852837 0.065409 1.941686
C 3.044477 0.419433 2.397132
C 3.553866 0.170583 2.483247
C 3.534070 0.585104 2.164197
C 3.211271 0.476972 2.194507
C 3.335546 0.691117 2.965299
C 3.970067 0.131293 2.781669
C 3.740845 0.813720 2.379726
C 3.966647 0.067965 2.127781
C 4.126122 0.520757 2.538219
C 4.434704 0.088938 2.613066
C 4.614515 0.462413 1.970889
C 4.210658 0.258133 2.091948
C 4.395908 0.732218 2.810402
C 4.728920 0.273190 2.660836
C 4.700583 0.868894 2.112359
C 4.962565 0.155695 2.025651
C 5.157496 0.540103 2.461856
C 5.521161 0.107647 2.320220
C 5.464192 0.570195 1.982464
C 5.172277 0.324364 2.214417
C 5.323614 0.876105 2.737533
C 5.690556 0.081674 2.517905
C 5.749271 0.785626 2.040943
C 0.033357 0.864566 1.971538
C 0.064349 1.403835 2.362614
C 0.590860 0.870198 2.448410
C 0.369660 1.566803 1.871138
C 0.495807 1.251609 2.297285
C 0.234409 1.782978 2.657362
C 0.744045 1.083122 2.770354
C 0.740856 1.650143 2.396889
C 1.101078 0.953251 1.865417
C 1.076057 1.556804 2.519445
C 1.514548 1.086121 2.535067
C 1.403547 1.491365 2.001587
C 1.307344 1.290188 2.284541
C 1.165198 1.717836 2.912258
C 1.762511 1.133347 2.853078
C 1.701241 1.695877 2.405835
C 1.927796 1.113898 2.029569
C 1.881694 1.474847 2.482450
C 2.492084 0.992612 2.467667
C 2.416011 1.453141 1.987985
C 2.230137 1.416104 2.179674
C 2.181704 1.699067 2.680116
C 2.734124 1.184448 2.796042
C 2.936642 1.808388 2.301626
C 2.893192 0.921950 1.890539
C 3.152731 1.503089 2.574277
C 3.643945 1.060547 2.503748
C 3.549598 1.526594 2.104315
C 3.241069 1.148683 2.138497
C 3.228111 1.755970 2.667519
C 3.796079 1.124901 2.816734
C 3.634565 1.744925 2.313357
C 3.923459 1.162637 1.856181
C 3.956577 1.527768 2.691895
C 4.418739 1.016209 2.498913
C 4.350646 1.550624 2.127011
C 4.312287 1.342333 2.360631
C 4.353824 1.570707 2.806826
C 4.869184 1.266584 2.893775
C 4.785802 1.681168 2.286385
C 4.928420 0.864904 1.926702
C 4.962833 1.536644 2.439235
C 5.526146 1.008438 2.614364
C 5.458693 1.473839 1.879064
C 5.349157 1.367972 2.275001
C 5.286626 1.647536 2.840330
C 5.602893 1.267030 2.691282
C 5.733817 1.861544 2.381841
C 0.100185 2.143615 2.094808
C 0.144572 2.422375 2.616955
C 0.638523 1.895487 2.554630
C 0.550437 2.588822 2.053303
C 0.261633 2.272179 2.260712
C 0.183537 2.721754 2.690638
C 0.787103 2.198863 2.712723
C 0.854478 2.549375 2.164539
C 0.857973 1.938629 1.915304
C 1.021863 2.476452 2.495505
C 1.413706 1.835353 2.506507
C 1.615792 2.498210 2.028576
C 1.115614 2.103334 2.320296
C 1.219774 2.639681 2.829641
C 1.732874 2.114780 2.883538
C 1.825576 2.825390 2.386644
C 1.972069 2.000503 2.006403
C 1.958688 2.356705 2.417223
C 2.701338 2.008726 2.419599
C 2.616361 2.419982 2.066580
C 2.301663 2.312696 2.332292
C 2.184281 2.765060 2.919466
C 2.612108 2.112327 2.653234
C 2.809978 2.771357 2.396909
C 2.900213 1.837841 1.955350
C 3.013668 2.605373 2.682515
C 3.571482 2.181572 2.506588
C 3.472378 2.558722 2.217078
C 3.403564 2.285320 2.119259
C 3.268045 2.656379 2.534987
C 3.817169 2.377865 2.835755
C 3.794962 2.670041 2.288293
C 3.863837 2.019497 2.015295
C 3.937925 2.537575 2.574762
C 4.452117 1.966671 2.466363
C 4.541569 2.502496 1.847667
C 4.176607 2.381914 2.246994
C 4.370386 2.799052 2.888615
C 4.601964 2.409149 2.773423
C 4.773215 2.607309 2.383420
C 5.013205 1.926179 1.966716
C 5.081464 2.678502 2.602142
C 5.445702 2.060276 2.581786
C 5.516912 2.677165 2.080448
C 5.342673 2.112513 2.227530
C 5.203074 2.876605 2.899575
C 5.647668 2.340723 2.712451
C 5.730241 2.757519 2.304481
C 0.064608 2.900241 2.070601
C 0.003032 3.510456 2.422955
C 0.484111 2.961872 2.536424
C 0.474351 3.678189 1.940278
C 0.101194 3.136504 2.266367
C 0.214935 3.656489 2.718301
C 0.666081 3.194377 2.906019
C 0.724386 3.726650 2.053871
C 0.978420 2.877484 2.060223
C 0.863445 3.659995 2.437984
C 1.510525 3.048984 2.478897
C 1.398301 3.573850 2.183721
C 1.081250 3.316726 2.246415
C 1.193787 3.792074 2.909963
C 1.734431 3.278804 2.723233
C 1.644322 3.820945 2.156655
C 1.845923 3.027011 2.135373
C 1.895223 3.648606 2.404269
C 2.471092 3.115811 2.568441
C 2.464686 3.642326 1.869194
C 2.420240 3.265440 2.304441
C 2.093079 3.808573 2.639698
C 2.907283 3.224707 2.833943
C 2.627809 3.759787 2.190508
C 2.941935 3.071821 2.152031
C 2.943418 3.478551 2.684923
C 3.453565 2.827705 2.457739
C 3.349558 3.424732 2.117804
C 3.491361 3.168083 2.285790
C 3.240498 3.659868 2.683015
C 3.744323 3.093897 2.666755
C 3.792081 3.735036 2.408510
C 4.139273 3.041312 1.901956
C 4.010592 3.507467 2.468781
C 4.588759 3.124250 2.456409
C 4.373808 3.387262 2.037583
C 4.149271 3.191362 2.219424
C 4.177496 3.757374 2.909839
C 4.804080 3.331880 2.526303
C 4.672871 3.597662 2.140478
C 4.866459 2.915630 2.131890
C 4.920189 3.606366 2.491959
C 5.470255 3.015299 2.367308
C 5.436392 3.575922 1.921410
C 5.096246 3.183703 2.168835
C 5.318255 3.629844 2.775873
C 5.622267 3.146542 2.844063
C 5.676445 3.921764 2.383051
C 0.047283 3.962552 1.839066
C 0.140216 4.384981 2.544466
C 0.657343 3.884142 2.439667
C 0.414993 4.373596 1.932874
C 0.351935 4.140685 2.212688
C 0.295478 4.795059 2.928478
C 0.647702 4.194801 2.516485
C 0.667308 4.730056 2.115659
C 0.963789 4.125882 1.999272
C 1.081199 4.432499 2.549013
C 1.599791 4.004814 2.640204
C 1.571280 4.356005 1.865661
C 1.221142 4.436435 2.212996
C 1.154863 4.694987 2.691472
C 1.661211 4.376477 2.728741
C 1.774265 4.877734 2.294132
C 2.072433 4.121228 2.137345
C 2.002752 4.449943 2.408549
C 2.542034 3.934852 2.454166
C 2.618323 4.544273 1.846029
C 2.296494 4.299670 2.324779
C 2.105321 4.755768 2.773958
C 2.939826 4.206721 2.801380
C 2.750552 4.637162 2.153754
C 3.042718 4.133330 1.957892
C 3.022503 4.440542 2.558599
C 3.538153 4.110466 2.528434
C 3.439819 4.387045 1.982302
C 3.191691 4.303281 2.176859
C 3.200019 4.631691 2.777122
C 3.861686 4.218688 2.777812
C 3.773217 4.750273 2.227260
C 3.982018 4.004285 1.911682
C 4.104589 4.562529 2.533431
C 4.649167 3.988106 2.348481
C 4.509329 4.652497 2.076824
C 4.276186 4.442725 2.244882
C 4.253524 4.705251 2.706964
C 4.693315 4.380526 2.820227
C 4.605085 4.660207 2.349560
C 4.923846 3.933071 2.023061
C 5.175321 4.525471 2.419413
C 5.412303 3.810657 2.495568
C 5.597769 4.684939 2.022748
C 5.373894 4.308580 2.171092
C 5.345888 4.744631 2.615336
C 5.610527 4.211356 2.820049
C 5.711545 4.758918 2.280958
C 0.073389 5.169054 2.140223
C 0.048635 5.369866 2.316473
C 0.454264 5.045241 2.497731
C 0.444752 5.564640 2.020448
C 0.424287 5.293675 2.306711
C 0.228648 5.722059 2.633666
C 0.684738 5.405802 2.679951
C 0.643162 5.727123 2.294097
C 0.982387 5.073506 2.078553
C 0.887214 5.511968 2.404810
C 1.442497 5.134542 2.298764
C 1.339085 5.503649 2.121410
C 1.172280 5.279793 2.043272
C 1.300013 5.601033 2.771950
C 1.675115 5.193039 2.858308
C 1.718860 5.523686 2.345930
C 2.049628 5.126169 1.880035
C 1.929052 5.505069 2.627406
C 2.443945 4.961053 2.445030
C 2.530232 5.664562 2.112022
C 2.418541 5.362305 2.148592
C 2.340712 5.575248 2.849528
C 2.642637 5.313725 2.718049
C 2.578381 5.739265 2.471031
C 2.907847 4.997483 1.898810
C 3.097758 5.428863 2.615787
C 3.617504 5.051472 2.444210
C 3.441856 5.422491 2.097825
C 3.214412 5.341015 2.312569
C 3.119191 5.683771 2.773685
C 3.637091 5.299995 2.863285
C 3.796661 5.725301 2.113671
C 3.801578 5.088615 2.015752
C 3.871464 5.420421 2.545233
C 4.486284 4.949000 2.357969
C 4.520443 5.567071 1.997323
C 4.151340 5.344075 2.297297
C 4.296313 5.567825 2.584256
C 4.677072 5.156736 2.613657
C 4.783006 5.706771 2.501311
C 4.951811 5.007199 2.028366
C 5.017187 5.512839 2.411641
C 5.380308 5.029882 2.467760
C 5.536432 5.479281 2.034138
C 5.344561 5.277540 2.366566
C 5.404049 5.676660 2.677191
C 5.719711 5.236082 2.902677
C 5.540691 5.654851 2.383888
C 0.018185 0.202100 2.970978
C 0.201703 0.300775 3.469106
C 0.439190 0.076950 3.471923
C 0.644091 0.455803 3.069663
C 0.352006 0.047716 3.199431
C 0.366233 0.796937 3.760327
C 0.644575 0.284357 3.569003
C 0.911226 0.715946 3.156514
C 1.117687 0.009224 2.903226
C 1.043638 0.443538 3.471929
C 1.406512 0.044352 3.524842
C 1.632914 0.391388 3.138511
C 1.162633 0.156853 3.334258
C 1.227017 0.693832 3.839147
C 1.880039 0.262808 3.734624
C 1.828670 0.811615 3.244842
C 1.941354 0.133464 3.147128
C 1.896395 0.547181 3.465101
C 2.488562 0.091766 3.682151
C 2.521562 0.449400 3.136351
C 2.411777 0.143091 3.239232
C 2.272637 0.682281 3.876015
C 2.656340 0.290054 3.654134
C 2.857080 0.724329 3.261808
C 3.002259 0.051820 2.955857
C 2.996118 0.475713 3.403564
C 3.449684 0.092289 3.454169
C 3.553627 0.417989 2.877829
C 3.222783 0.301739 3.387787
C 3.098778 0.662652 3.760341
C 3.615195 0.394576 3.734628
C 3.772174 0.698397 3.168250
C 4.148822 0.036709 2.960469
C 3.956544 0.397836 3.572874
C 4.428562 0.150558 3.540079
C 4.654218 0.466193 3.157573
C 4.219398 0.325572 3.084255
C 4.182812 0.821101 3.920056
C 4.932586 0.219548 3.697730
C 4.773538 0.721891 3.209219
C 5.094879 0.129315 2.887002
C 5.037533 0.404799 3.445038
C 5.695360 0.020066 3.650296
C 5.518819 0.336857 2.922749
C 5.155040 0.283386 3.240387
C 5.272000 0.710988 3.610787
C 5.699741 0.374036 3.979861
C 5.726118 0.529026 3.237937
C 0.071322 0.975748 3.060542
C 0.044237 1.515266 3.639547
C 0.652984 1.057315 3.626596
C 0.502052 1.665649 2.952912
C 0.277159 1.419225 3.388669
C 0.382429 1.670667 3.797580
C 0.794153 1.380776 3.720088
C 0.725308 1.927979 3.075957
C 1.114672 1.138884 3.077977
C 0.995571 1.531827 3.650514
C 1.443926 1.078763 3.478729
C 1.611923 1.529354 2.957528
C 1.460777 1.334081 3.339725
C 1.291680 1.629967 3.859445
C 1.634131 1.335665 3.736407
C 1.928513 1.674126 3.176619
C 1.976068 1.113472 3.169931
C 1.962993 1.268533 3.441924
C 2.358796 1.101283 3.560949
C 2.505256 1.593918 3.085961
C 2.349924 1.292947 3.209541
C 2.372567 1.786878 3.770201
C 2.561418 1.319269 3.662467
C 2.793202 1.916195 3.150681
C 3.101262 0.953954 2.848839
C 3.148864 1.591501 3.484829
C 3.571440 1.136508 3.436521
C 3.552329 1.555207 3.098793
C 3.257630 1.349714 3.359150
C 3.118793 1.948649 3.849988
C 3.695882 1.104522 3.848696
C 3.743503 1.762979 3.306644
C 3.990596 1.092258 3.019354
C 3.939284 1.448663 3.609266
C 4.566252 0.898640 3.667914
C 4.488498 1.478992 3.034319
C 4.217542 1.251766 3.408932
C 4.241240 1.778575 3.723785
C 4.692568 1.301475 3.885525
C 4.757215 1.839587 3.394068
C 5.100506 0.982069 3.010015
C 4.983956 1.603985 3.404235
C 5.405125 1.087118 3.581281
C 5.542334 1.491595 2.974256
C 5.068219 1.222918 3.230413
C 5.343995 1.743311 3.897603
C 5.638013 1.136252 3.769163
C 5.601232 1.539071 3.346922
C 0.036173 1.957436 2.850608
C 0.038052 2.415466 3.541167
C 0.411380 2.130964 3.475465
C 0.454995 2.662951 3.073007
C 0.402344 2.314244 3.270683
C 0.176377 2.696655 3.734693
C 0.838003 2.397468 3.712920
C 0.724419 2.606576 3.121256
C 0.920757 2.077901 2.951739
C 1.004804 2.684563 3.520343
C 1.389728 1.988377 3.570991
C 1.444775 2.434107 3.032787
C 1.345185 2.249548 3.362980
C 1.232612 2.857225 3.623547
C 1.743633 2.387890 3.751986
C 1.598447 2.823282 3.153125
C 2.021623 1.933653 3.034152
C 2.014680 2.623404 3.587564
C 2.485441 1.990534 3.498927
C 2.578300 2.488138 3.130445
C 2.315927 2.157317 3.296693
C 2.196011 2.732678 3.783687
C 2.732193 2.319465 3.815127
C 2.782913 2.653363 3.202815
C 3.081190 2.134317 3.008463
C 2.933273 2.439182 3.387629
C 3.392120 2.028050 3.598066
C 3.546440 2.470844 2.917602
C 3.446459 2.186656 3.338029
C 3.188673 2.612905 3.675830
C 3.785577 2.312101 3.872769
C 3.827272 2.870270 3.312787
C 3.956478 2.231149 3.001338
C 4.061337 2.433615 3.339503
C 4.565505 1.896364 3.673889
C 4.372152 2.555002 3.025683
C 4.319140 2.357391 3.329753
C 4.314228 2.860339 3.694326
C 4.713478 2.100280 3.590167
C 4.802333 2.752109 3.444441
C 4.947325 1.998246 3.033764
C 5.070598 2.457813 3.456991
C 5.563396 2.149588 3.420355
C 5.508980 2.536779 3.126035
C 5.249953 2.290539 3.349817
C 5.392977 2.823858 3.788044
C 5.744188 2.297435 3.625405
C 5.745818 2.579184 3.250335
C 0.018789 2.904268 2.881260
C 0.076816 3.467970 3.422832
C 0.394417 3.072414 3.671778
C 0.434750 3.387348 3.068112
C 0.234271 3.349377 3.236912
C 0.117290 3.722270 3.598957
C 0.758353 3.260914 3.871978
C 0.682752 3.651994 3.220449
C 1.006427 2.940613 3.188348
C 0.875937 3.538688 3.548989
C 1.417559 3.025599 3.523920
C 1.294723 3.459948 2.933324
C 1.329886 3.178056 3.296536
C 1.316374 3.873477 3.728425
C 1.705391 3.410773 3.777602
C 1.859677 3.737876 3.339875
C 2.028583 3.065636 3.054446
C 1.875685 3.476444 3.334471
C 2.582005 3.102467 3.578684
C 2.510191 3.551680 2.893619
C 2.360761 3.391751 3.101973
C 2.182553 3.906007 3.855348
C 2.757920 3.263154 3.870810
C 2.841005 3.627000 3.153495
C 3.198574 2.947237 2.983738
C 2.980054 3.656997 3.438374
C 3.612754 2.966710 3.612585
C 3.561507 3.402104 3.092168
C 3.186595 3.126817 3.258592
C 3.317870 3.734215 3.811105
C 3.735940 3.222668 3.647790
C 3.598675 3.655059 3.310904
C 3.933521 3.088517 3.140639
C 3.987737 3.372942 3.474800
C 4.433396 3.072510 3.384948
C 4.372891 3.529275 2.830115
C 4.114589 3.368153 3.225774
C 4.429989 3.699866 3.831192
C 4.649568 3.099507 3.793984
C 4.668805 3.752370 3.271137
C 4.856368 2.823410 3.009575
C 4.907525 3.499192 3.355598
C 5.537767 3.111937 3.440058
C 5.428000 3.365450 2.957119
C 5.267908 3.151101 3.116046
C 5.435062 3.675092 3.689206
C 5.570377 3.203125 3.831847
C 5.617106 3.685835 3.060590
C 0.106538 4.044279 3.022554
C 0.007563 4.489504 3.381300
C 0.465794 4.028160 3.534856
C 0.432459 4.427139 2.932118
C 0.203266 4.379960 3.118399
C 0.218664 4.823624 3.607449
C 0.750459 4.279999 3.672291
C 0.668468 4.832158 3.089488
C 0.958388 3.875134 2.997697
C 1.063217 4.531395 3.628528
C 1.564895 4.116690 3.434861
C 1.539851 4.573355 2.852200
C 1.276511 4.293157 3.233490
C 1.405912 4.623251 3.719974
C 1.717537 4.288986 3.763406
C 1.800973 4.729901 3.213674
C 2.018266 3.831883 3.109922
C 1.987537 4.539130 3.387596
C 2.525287 4.131299 3.519877
C 2.486796 4.375075 2.918235
C 2.047773 4.321278 3.246766
C 2.208965 4.919106 3.811895
C 2.771925 4.287771 3.637701
C 2.680524 4.875244 3.149781
C 3.052666 4.116191 3.053571
C 3.089040 4.397258 3.476235
C 3.507576 3.840451 3.578139
C 3.517850 4.495358 2.914547
C 3.348076 4.234455 3.372519
C 3.392167 4.655984 3.817963
C 3.783683 4.435843 3.832475
C 3.629439 4.657746 3.133442
C 4.018911 4.132390 3.020450
C 4.009648 4.364897 3.326638
C 4.502555 4.021054 3.416702
C 4.391445 4.683969 3.030007
C 4.215987 4.041976 3.232369
C 4.225955 4.649251 3.628559
C 4.928763 4.239974 3.860526
C 4.647790 4.694348 3.187500
C 4.994440 3.887833 3.151493
C 5.110201 4.520454 3.521771
C 5.394934 3.922949 3.522270
C 5.604775 4.373373 3.046468
C 5.211785 4.352951 3.287723
C 5.367448 4.769141 3.873185
C 5.707468 4.300995 3.625965
C 5.573846 4.675377 3.142061
C 0.092675 5.133793 3.053519
C 0.011121 5.570404 3.718145
C 0.464029 4.981093 3.688713
C 0.541216 5.397636 2.988900
C 0.083362 5.345084 3.217417
C 0.316454 5.730490 3.624146
C 0.669164 5.229837 3.942070
C 0.686619 5.639800 3.405760
C 0.938089 4.851557 2.938214
C 1.078077 5.523349 3.555674
C 1.531557 5.095121 3.564552
C 1.591141 5.519883 2.949251
C 1.305562 5.235072 3.354253
C 1.204364 5.598909 3.792830
C 1.772531 5.132011 3.801018
C 1.807816 5.682859 3.174200
C 1.824127 4.993220 3.026053
C 1.878702 5.644951 3.454318
C 2.426361 4.897193 3.518731
C 2.490021 5.362833 3.164195
C 2.148339 5.292469 3.255104
C 2.168393 5.718352 3.943372
C 2.868961 5.267736 3.771326
C 2.655866 5.717204 3.175178
C 2.995293 4.890915 3.038203
C 2.982181 5.494211 3.364262
C 3.429641 5.010923 3.607029
C 3.315453 5.424971 2.972139
C 3.297154 5.123092 3.372027
C 3.342308 5.625686 3.851709
C 3.886770 5.133313 3.762510
C 3.653015 5.522971 3.322251
C 4.107599 4.841350 2.952258
C 3.983582 5.382394 3.361904
C 4.592556 4.992740 3.626117
C 4.555024 5.602448 2.883088
C 4.084665 5.151924 3.230804
C 4.387006 5.729981 3.744257
C 4.924243 5.286650 3.718066
C 4.685160 5.686669 3.309108
C 4.874430 5.098022 2.883244
C 5.059154 5.522181 3.433793
C 5.596454 4.986986 3.383588
C 5.429424 5.590988 3.003390
C 5.085797 5.259194 3.336830
C 5.088058 5.727638 3.764198
C 5.702254 5.164029 3.662652
C 5.630169 5.714717 3.200551
C 0.120972 0.130063 3.839061
C 0.025489 0.602299 4.666504
C 0.517924 0.128455 4.517124
C 0.412707 0.584481 3.971318
C 0.167488 0.110010 4.149503
C 0.307726 0.926498 4.677331
C 0.904229 0.296585 4.803889
C 0.709057 0.757660 4.247308
C 0.888173 0.118615 3.947173
C 1.075439 0.674993 4.576824
C 1.628828 0.102429 4.430844
C 1.517305 0.635899 4.005894
C 1.298927 0.182133 4.348791
C 1.463819 0.806113 4.740678
C 1.754231 0.285062 4.664683
C 1.695828 0.719036 4.275497
C 1.962469 0.117205 4.040582
C 1.994137 0.598150 4.577598
C 2.356633 0.059130 4.302501
C 2.457510 0.410354 3.928571
C 2.299356 0.413814 4.240757
C 2.294597 0.857311 4.659840
C 2.620532 0.150866 4.856169
C 2.736774 0.601469 4.156842
C 3.142221 0.123093 3.865950
C 2.951272 0.517099 4.699965
C 3.508184 0.186997 4.461228
C 3.598974 0.393065 4.008816
C 3.195162 0.146182 4.286038
C 3.137381 0.803558 4.867108
C 3.884698 0.184350 4.660912
C 3.837760 0.723386 4.110454
C 4.125791 0.009307 3.802654
C 3.922464 0.549869 4.553073
C 4.517966 0.068306 4.364404
C 4.497298 0.466597 3.996133
C 4.306775 0.320998 4.205322
C 4.261115 0.819730 4.805545
C 4.747305 0.362649 4.748893
C 4.944590 0.730196 4.177666
C 4.850017 0.113221 4.032033
C 4.847534 0.563014 4.557748
C 5.665050 0.121919 4.553045
C 5.622283 0.574121 3.825167
C 5.295122 0.088030 4.212989
C 5.237220 0.714121 4.865776
C 5.550788 0.188768 4.789493
C 5.590591 0.688238 4.328322
C 0.013409 0.879040 4.070832
C 0.082276 1.602396 4.307299
C 0.593565 0.964924 4.714841
C 0.708845 1.486044 4.095231
C 0.292922 1.101256 4.317244
C 0.175811 1.568902 4.704813
C 0.630972 1.262242 4.742276
C 0.850058 1.839307 4.281802
C 1.068481 1.063434 3.845646
C 0.904064 1.546391 4.329793
C 1.433743 0.875681 4.434214
C 1.414855 1.370188 4.171119
C 1.137624 1.177223 4.145149
C 1.167136 1.564894 4.655502
C 1.598537 1.262550 4.700863
C 1.742985 1.815263 4.180427
C 2.060230 1.118696 4.105306
C 1.765332 1.475808 4.505320
C 2.580460 1.089178 4.578466
C 2.649879 1.433562 3.895972
C 2.391920 1.167070 4.246118
C 2.102402 1.652591 4.827917
C 2.744213 1.276813 4.717230
C 2.932815 1.812872 4.296270
C 2.874088 1.134578 3.943217
C 2.893491 1.409997 4.499247
C 3.504597 0.843275 4.410655
C 3.477675 1.696806 3.935649
C 3.323660 1.201154 4.269083
C 3.273118 1.710268 4.713898
C 3.706024 1.225536 4.742173
C 3.702880 1.876247 4.092418
C 3.883412 0.940538 3.953302
C 3.872188 1.442152 4.530652
C 4.504528 0.952353 4.299820
C 4.435732 1.597070 3.875125
C 4.136518 1.207183 4.328238
C 4.161913 1.720502 4.676042
C 4.840576 1.254711 4.657091
C 4.905721 1.754939 4.328375
C 4.888159 0.981122 3.981336
C 4.843997 1.473890 4.478069
C 5.559632 0.976918 4.342704
C 5.670156 1.622447 3.926199
C 5.279594 1.261026 4.447017
C 5.301164 1.834818 4.929861
C 5.734578 1.346288 4.844466
C 5.587912 1.577865 4.178770
C 0.042725 1.691484 3.935601
C 0.074909 2.496521 4.415074
C 0.363565 2.000809 4.547417
C 0.421771 2.347756 3.996720
C 0.145539 2.142769 4.230174
C 0.274023 2.701352 4.658672
C 0.826493 2.278100 4.768227
C 0.815812 2.755413 4.272500
C 0.891764 2.002367 4.029938
C 0.901175 2.412783 4.527553
C 1.367987 2.002850 4.456691
C 1.514790 2.498380 3.929705
C 1.153940 2.342367 4.319927
C 1.061699 2.697872 4.731647
C 1.756456 2.292885 4.834005
C 1.777815 2.785928 4.043988
C 2.071226 2.075683 4.078921
C 1.861580 2.565360 4.587189
C 2.613774 2.022982 4.463140
C 2.339258 2.515043 4.119328
C 2.174655 2.240961 4.280303
C 2.284983 2.656195 4.728156
C 2.834805 2.274875 4.672442
C 2.591123 2.720119 4.315677
C 3.098078 1.988100 4.165951
C 2.852625 2.496747 4.492167
C 3.582011 1.881837 4.466334
C 3.593087 2.505065 3.897055
C 3.345031 2.317927 4.238013
C 3.336674 2.760842 4.784367
C 3.812453 2.313776 4.887606
C 3.629886 2.839158 4.372597
C 4.036192 1.834844 3.896844
C 4.000731 2.653723 4.604834
C 4.520502 1.901766 4.599368
C 4.479147 2.530792 3.929707
C 4.280338 2.153585 4.213581
C 4.206358 2.608449 4.770993
C 4.652304 2.360699 4.832577
C 4.893696 2.781429 4.202793
C 4.897439 1.872796 4.069217
C 4.989050 2.641072 4.528594
C 5.542208 2.106900 4.489012
C 5.531761 2.374637 3.942365
C 5.308318 2.218857 4.472679
C 5.262534 2.845893 4.836802
C 5.695856 2.222670 4.665787
C 5.683087 2.492981 4.373511
C 0.069311 2.893185 3.947456
C 0.116641 3.565062 4.429723
C 0.431709 3.131367 4.561694
C 0.359242 3.525286 4.117125
C 0.246885 3.232492 4.310633
C 0.135158 3.804890 4.649160
C 0.767710 3.220933 4.647050
C 0.775275 3.883786 4.153328
C 1.059119 2.913840 4.060066
C 0.921576 3.406334 4.425468
C 1.511810 3.082233 4.591719
C 1.445890 3.506357 3.995334
C 1.299117 3.355642 4.195355
C 1.181614 3.688191 4.920755
C 1.614238 3.347789 4.732275
C 1.787692 3.760851 4.242723
C 2.122008 2.941296 4.038637
C 2.076789 3.568512 4.571776
C 2.384513 3.094731 4.393475
C 2.502624 3.405176 3.927564
C 2.250202 3.257424 4.059453
C 2.279099 3.554856 4.786171
C 2.810998 3.294094 4.840319
C 2.760571 3.771558 4.328854
C 2.979329 3.100575 4.029259
C 2.906023 3.472584 4.440650
C 3.422760 2.998321 4.435564
C 3.678856 3.553890 4.019257
C 3.229524 3.227128 4.066911
C 3.385359 3.667597 4.873547
C 3.838636 3.220606 4.589423
C 3.845865 3.924889 4.289158
C 4.133565 3.030390 3.928596
C 4.072688 3.645796 4.441693
C 4.524211 3.162868 4.527451
C 4.411414 3.567322 4.147276
C 4.127660 3.192817 4.181687
C 4.051361 3.761150 4.740898
C 4.641986 3.363606 4.837003
C 4.738279 3.780149 4.125031
C 5.088151 3.095753 4.009223
C 5.003098 3.572528 4.327725
C 5.565657 2.912516 4.433468
C 5.554587 3.515259 3.945904
C 5.235093 3.102899 4.254160
C 5.131277 3.819444 4.570037
C 5.717926 3.265639 4.862149
C 5.701341 3.903634 4.243956
C 0.016475 3.840709 3.891237
C 0.030886 4.380740 4.324877
C 0.513039 3.974178 4.653309
C 0.562265 4.479973 3.841269
C 0.307207 4.227058 4.152935
C 0.385233 4.619675 4.773286
C 0.799333 4.299069 4.747280
C 0.794215 4.706112 4.165983
C 1.191560 3.972005 4.162616
C 1.103273 4.420486 4.406299
C 1.451353 4.105768 4.571809
C 1.561597 4.350787 4.106727
C 1.310099 4.221341 4.169930
C 1.384297 4.680316 4.832015
C 1.557366 4.306679 4.838445
C 1.863440 4.797132 4.332719
C 1.909217 3.846161 3.996190
C 2.115603 4.498149 4.442756
C 2.653961 4.095068 4.487152
C 2.538906 4.475482 4.121850
C 2.133970 4.253014 4.310473
C 2.390644 4.707635 4.896645
C 2.717919 4.294544 4.849292
C 2.855056 4.659697 4.251724
C 3.049915 4.122117 3.921252
C 3.060944 4.571352 4.640534
C 3.619342 4.141098 4.519223
C 3.628939 4.511348 4.031568
C 3.422159 4.296885 4.265917
C 3.383491 4.708169 4.630493
C 3.819134 4.344260 4.865954
C 3.847692 4.719234 4.284048
C 3.982613 4.137745 3.886554
C 3.840946 4.391974 4.510414
C 4.657782 3.966490 4.502500
C 4.469459 4.632760 3.934605
C 4.292688 4.172871 4.104846
C 4.373331 4.893864 4.675880
C 4.685952 4.335243 4.600064
C 4.769959 4.754229 4.311368
C 5.097512 3.945336 3.922894
C 5.074821 4.404991 4.400414
C 5.388750 4.112110 4.572632
C 5.355024 4.386236 3.995262
C 5.211135 4.203762 4.182947
C 5.281809 4.650558 4.691391
C 5.658335 4.332212 4.523892
C 5.592155 4.914959 4.222527
C 0.115800 5.143469 4.106522
C 0.110491 5.490656 4.358035
C 0.462589 4.983572 4.498523
C 0.526038 5.657901 3.870988
C 0.348365 5.207265 4.341441
C 0.375073 5.736431 4.768885
C 0.766930 5.289176 4.628360
C 0.877877 5.639730 4.136848
C 1.116853 5.027348 4.012418
C 1.138578 5.484236 4.389915
C 1.330088 4.804877 4.476597
C 1.470743 5.356932 3.861643
C 1.306504 5.237280 4.128629
C 1.173343 5.617155 4.693063
C 1.607517 5.324715 4.810312
C 1.864825 5.737575 4.186884
C 2.062494 5.075099 4.124293
C 1.809294 5.408435 4.564008
C 2.618403 4.917988 4.403910
C 2.586864 5.375078 4.005377
C 2.193831 5.346224 4.428346
C 2.249224 5.704655 4.961334
C 2.919215 5.199032 4.687570
C 2.632041 5.601257 4.210656
C 3.063459 5.082219 4.136939
C 2.911377 5.338079 4.305928
C 3.367681 4.958085 4.501301
C 3.653178 5.504355 4.114853
C 3.341084 5.359202 4.117979
C 3.301009 5.691349 4.923975
C 3.701629 5.241459 4.652465
C 3.926767 5.615078 4.200509
C 3.958328 5.041578 4.077546
C 3.987161 5.478542 4.612177
C 4.492055 5.028750 4.465127
C 4.476194 5.614199 4.116239
C 4.218849 5.222664 4.289263
C 4.117243 5.724577 4.812305
C 4.766720 5.258682 4.725152
C 4.711698 5.681918 4.373045
C 4.990281 5.051293 3.995045
C 5.038016 5.433990 4.578430
C 5.356663 4.967144 4.468683
C 5.419039 5.415377 3.873945
C 5.171900 5.210513 4.378198
C 5.431521 5.678324 4.705385
C 5.684100 5.204938 4.829811
C 5.689740 5.711403 4.174170
C 0.070148 0.177285 4.852650
C 0.050237 0.430705 5.633305
C 0.286083 0.110817 5.512158
C 0.569194 0.319246 5.066767
C 0.225653 0.128352 5.249644
C 0.381279 0.645432 5.619505
C 0.644431 0.224899 5.735946
C 0.946426 0.752222 5.281357
C 1.173075 0.028341 4.888554
C 1.008493 0.530508 5.455638
C 1.530637 0.077199 5.474676
C 1.623679 0.679329 4.962206
C 1.182271 0.228063 5.160442
C 1.352087 0.892785 5.631784
C 1.885766 0.265300 5.666645
C 1.821486 0.730219 5.252765
C 2.174718 0.042298 5.074678
C 1.953454 0.377599 5.420500
C 2.258477 0.081077 5.579663
C 2.569049 0.451434 4.923408
C 2.220939 0.219370 5.349418
C 2.368073 0.673270 5.698179
C 2.621624 0.189555 5.686301
C 2.801979 0.622109 5.121637
C 2.971658 0.123226 4.937558
C 2.874328 0.463698 5.619551
C 3.367761 0.046716 5.542508
C 3.619830 0.500493 4.818740
C 3.423731 0.172671 5.099758
C 3.346960 0.591498 5.745112
C 3.835840 0.198554 5.624658
C 3.778907 0.747866 5.194323
C 4.070056 0.084412 5.068086
C 4.016027 0.344455 5.392242
C 4.362682 0.008780 5.543008
C 4.527684 0.714029 5.027414
C 4.338559 0.251225 5.289495
C 4.348583 0.638403 5.529486
C 4.912761 0.361997 5.724710
C 4.766470 0.813435 5.173095
C 5.117852 0.109774 5.174684
C 4.900343 0.606710 5.537202
C 5.483726 0.075864 5.635490
C 5.576135 0.465092 4.855451
C 5.407338 0.305104 5.055893
C 5.202287 0.770434 5.514677
C 5.662208 0.274627 5.664094
C 5.598249 0.599478 5.222936
C 0.165241 0.854818 4.923139
C 0.044550 1.591327 5.339424
C 0.380747 0.989623 5.597590
C 0.501684 1.428865 5.050000
C 0.188250 1.344530 5.240563
C 0.245107 1.742403 5.731246
C 0.930053 1.260202 5.737820
C 0.622021 1.644114 5.214643
C 1.047764 1.032833 4.993461
C 1.078724 1.418504 5.468049
C 1.531139 1.005521 5.474993
C 1.476327 1.627132 5.095365
C 1.202297 1.125057 5.317512
C 1.258377 1.498553 5.703196
C 1.730450 1.288048 5.586430
C 1.619677 1.792182 5.306731
C 1.964444 0.987716 5.125015
C 2.142934 1.496766 5.577524
C 2.489718 1.078589 5.692629
C 2.376953 1.528636 4.949889
C 2.005877 1.245578 5.256244
C 2.438937 1.679685 5.713520
C 2.872192 1.058646 5.640483
C 2.743442 1.706034 5.422895
C 2.859863 1.026571 5.148317
C 3.044830 1.584270 5.383081
C 3.568605 1.105372 5.588372
C 3.444500 1.528912 5.012868
C 3.148401 1.201435 5.441831
C 3.389910 1.908865 5.736942
C 3.813223 1.195079 5.678316
C 3.937863 1.758035 5.315821
C 4.050294 1.160268 5.009561
C 4.181372 1.420781 5.363174
C 4.315838 0.966680 5.456845
C 4.573112 1.378573 4.995488
C 4.376152 1.228145 5.283775
C 4.307217 1.835067 5.667585
C 4.543451 1.178162 5.645653
C 4.749358 1.677973 5.134768
C 5.029176 1.107740 4.940795
C 4.991151 1.386313 5.622219
C 5.565102 1.037254 5.485230
C 5.572005 1.357778 5.083525
C 5.365489 1.187340 5.263626
C 5.403323 1.645732 5.749192
C 5.680673 1.399876 5.710759
C 5.719507 1.704603 5.402917
C 0.102144 1.965566 5.120757
C 0.011963 2.535569 5.683019
C 0.559301 1.931293 5.464013
C 0.408884 2.511609 5.068294
C 0.246945 2.346262 5.337689
C 0.199176 2.630208 5.486846
C 0.613000 2.337621 5.598590
C 0.822725 2.656595 5.094293
C 1.110269 2.015628 5.008854
C 1.127892 2.459955 5.446905
C 1.638027 2.024850 5.465613
C 1.445121 2.550057 4.794847
C 1.446531 2.298733 5.351788
C 1.279416 2.972835 5.725714
C 1.870087 2.102668 5.743963
C 1.927122 2.791838 5.200231
C 2.020968 2.068896 4.852790
C 2.102491 2.632610 5.439878
C 2.428781 2.104115 5.554583
C 2.431345 2.571352 4.987970
C 2.161046 2.233537 5.165095
C 2.119439 2.715277 5.731441
C 2.810611 2.226784 5.593798
C 2.840503 2.662208 5.145994
C 3.195530 1.899695 5.028084
C 2.921648 2.496401 5.490932
C 3.517758 2.140663 5.464586
C 3.556912 2.514047 5.004082
C 3.103564 2.182142 5.286939
C 3.152603 2.835767 5.639742
C 3.880749 2.365712 5.623559
C 3.742068 2.927371 5.341357
C 4.043879 2.072388 5.016233
C 4.177779 2.577373 5.474547
C 4.652151 1.884360 5.443189
C 4.404255 2.424099 4.988060
C 4.401112 2.227215 5.397283
C 4.411824 2.670163 5.593320
C 4.815784 2.151309 5.593787
C 4.797224 2.575374 5.282554
C 5.059009 1.992417 4.880482
C 5.088854 2.553867 5.348719
C 5.697641 1.949837 5.494118
C 5.701372 2.496855 5.037601
C 5.232435 2.140956 5.147476
C 5.416978 2.660346 5.745873
C 5.545621 2.144640 5.673949
C 5.656539 2.749601 5.285041
C 0.051015 3.002725 5.157387
C 0.105341 3.302096 5.504019
C 0.474697 3.001930 5.634108
C 0.566627 3.401220 5.097134
C 0.316162 3.129105 5.276647
C 0.140521 3.573281 5.738678
C 0.611735 3.285352 5.702000
C 0.833904 3.859601 5.344255
C 0.884005 2.983492 4.876507
C 1.037864 3.509196 5.512263
C 1.544549 2.814434 5.426038
C 1.550828 3.339856 5.117919
C 1.159935 3.160070 5.387362
C 1.418609 3.853155 5.659561
C 1.720625 3.307671 5.688338
C 1.733378 3.814024 5.359308
C 1.971293 3.095366 5.187453
C 1.993929 3.703106 5.453286
C 2.409636 3.104584 5.642421
C 2.555237 3.360676 5.045445
C 2.227660 3.311386 5.094779
C 2.275313 3.645107 5.501700
C 2.820472 3.362929 5.678402
C 2.685758 3.763927 5.226022
C 2.983577 3.058547 5.128650
C 3.069934 3.645320 5.553891
C 3.436749 2.884194 5.537761
C 3.665224 3.524508 5.084019
C 3.308212 3.321363 5.292838
C 3.502230 3.813966 5.731622
C 3.861381 3.242682 5.715758
C 3.850226 3.783890 5.273737
C 3.941919 2.967731 5.048074
C 3.991530 3.677933 5.610417
C 4.402933 2.959400 5.686999
C 4.510054 3.543543 5.090255
C 4.296421 3.216252 5.388213
C 4.290845 3.809144 5.664422
C 4.750039 3.268688 5.578257
C 4.650265 3.972251 5.312090
C 5.070345 3.021861 5.008930
C 5.052622 3.678663 5.424196
C 5.513817 2.785956 5.535504
C 5.617783 3.590735 4.969794
C 5.149827 3.216342 5.174193
C 5.010801 3.686828 5.722651
C 5.728375 3.210334 5.600085
C 5.707510 3.780188 5.415028
C 0.063145 4.251636 4.889179
C 0.093055 4.441826 5.629339
C 0.506947 3.950233 5.452758
C 0.428493 4.659426 5.072492
C 0.363789 4.145685 5.278191
C 0.337720 4.775538 5.733312
C 0.794720 4.383159 5.733944
C 0.627587 4.695699 5.353118
C 0.976779 3.920117 4.849669
C 1.125802 4.656291 5.568010
C 1.381438 3.950466 5.383069
C 1.706942 4.501942 4.938989
C 1.181329 4.194714 5.269034
C 1.061016 4.905851 5.712018
C 1.916387 4.304762 5.621457
C 1.785008 4.876592 5.227428
C 1.883291 3.870950 5.048115
C 1.871709 4.543429 5.390514
C 2.603173 3.902209 5.647431
C 2.426917 4.421263 4.828817
C 2.135850 4.204892 5.351391
C 2.283975 4.783094 5.721759
C 2.837961 4.378335 5.587341
C 2.929693 4.848583 5.380123
C 2.971719 4.090277 4.864889
C 3.075973 4.574853 5.607773
C 3.337762 3.971933 5.443911
C 3.510632 4.623162 5.023114
C 3.363208 4.248382 5.335347
C 3.240005 4.808560 5.691688
C 3.600833 4.187848 5.726795
C 3.758490 4.918974 5.220412
C 3.901309 3.893295 5.037734
C 3.998244 4.466374 5.661773
C 4.619456 4.015577 5.588398
C 4.393227 4.420426 4.940815
C 4.313300 4.133072 5.314530
C 4.127292 4.688651 5.618929
C 4.765983 4.246811 5.580976
C 4.815138 4.550817 5.117870
C 4.905535 3.906598 5.075089
C 4.920679 4.587888 5.432674
C 5.665628 4.081768 5.498968
C 5.457238 4.497601 5.085633
C 5.204267 4.385086 5.140024
C 5.272786 4.918444 5.681108
C 5.711902 4.541610 5.635868
C 5.723418 4.550013 5.209933
C 0.004824 4.769092 5.018723
C 0.176676 5.540938 5.478519
C 0.452534 5.019057 5.681247
C 0.369326 5.419177 4.942420
C 0.246862 5.147643 5.160379
C 0.320099 5.575688 5.700523
C 0.712409 5.041070 5.681607
C 0.689659 5.606408 5.371091
C 0.812685 4.957626 5.000420
C 0.978464 5.575630 5.392629
C 1.378692 4.970549 5.572229
C 1.582928 5.622879 4.971155
C 1.151204 5.255035 5.148901
C 1.240637 5.733084 5.747103
C 1.561605 5.273775 5.726380
C 1.918561 5.727200 5.273679
C 2.039294 5.001359 4.974397
C 2.032527 5.553868 5.679791
C 2.460813 5.071392 5.471777
C 2.518416 5.468821 4.917510
C 2.324328 5.098993 5.156907
C 2.448595 5.702165 5.725186
C 2.562658 5.259825 5.747227
C 2.672483 5.703449 5.224120
C 3.095147 4.979674 4.999608
C 3.031820 5.561137 5.642919
C 3.602984 5.086987 5.363823
C 3.519995 5.564051 5.158161
C 3.272290 5.286200 5.166689
C 3.406236 5.504843 5.699493
C 3.687646 5.255269 5.726154
C 3.753123 5.699533 5.372407
C 3.928551 5.108875 4.965287
C 3.864219 5.415783 5.376631
C 4.574797 4.770599 5.448222
C 4.562081 5.616779 5.068825
C 4.169733 5.288305 5.347199
C 4.210546 5.511865 5.705763
C 4.651479 5.216110 5.517251
C 4.718969 5.655463 5.321287
C 4.916175 4.959975 4.819782
C 5.029116 5.606010 5.547828
C 5.713873 4.992821 5.400255
C 5.464239 5.567031 4.992803
C 5.040382 5.159805 5.192819
C 5.289649 5.744813 5.509265
C 5.598317 5.240492 5.694138
C 5.689625 5.696893 5.323759
