1728
Frame 1/10
C 0.000000 0.000000 0.000000
C 0.000000 0.500000 0.500000
C 0.500000 0.000000 0.500000
C 0.500000 0.500000 0.000000
C 0.250000 0.250000 0.250000
C 0.250000 0.750000 0.750000
C 0.750000 0.250000 0.750000
C 0.750000 0.750000 0.250000
C 1.000000 0.000000 0.000000
C 1.000000 0.500000 0.500000
C 1.500000 0.000000 0.500000
C 1.500000 0.500000 0.000000
C 1.250000 0.250000 0.250000
C 1.250000 0.750000 0.750000
C 1.750000 0.250000 0.750000
C 1.750000 0.750000 0.250000
C 2.000000 0.000000 0.000000
C 2.000000 0.500000 0.500000
C 2.500000 0.000000 0.500000
C 2.500000 0.500000 0.000000
C 2.250000 0.250000 0.250000
C 2.250000 0.750000 0.750000
C 2.750000 0.250000 0.750000
C 2.750000 0.750000 0.250000
C 3.000000 0.000000 0.000000
C 3.000000 0.500000 0.500000
C 3.500000 0.000000 0.500000
C 3.500000 0.500000 0.000000
C 3.250000 0.250000 0.250000
C 3.250000 0.750000 0.750000
C 3.750000 0.250000 0.750000
C 3.750000 0.750000 0.250000
C 4.000000 0.000000 0.000000
C 4.000000 0.500000 0.500000
C 4.500000 0.000000 0.500000
C 4.500000 0.500000 0.000000
C 4.250000 0.250000 0.250000
C 4.250000 0.750000 0.750000
C 4.750000 0.250000 0.750000
C 4.750000 0.750000 0.250000
C 5.000000 0.000000 0.000000
C 5.000000 0.500000 0.500000
C 5.500000 0.000000 0.500000
C 5.500000 0.500000 0.000000
C 5.250000 0.250000 0.250000
C 5.250000 0.750000 0.750000
C 5.750000 0.250000 0.750000
C 5.750000 0.750000 0.250000
C 0.000000 1.000000 0.000000
C 0.000000 1.500000 0.500000
C 0.500000 1.000000 0.500000
C 0.500000 1.500000 0.000000
C 0.250000 1.250000 0.250000
C 0.250000 1.750000 0.750000
C 0.750000 1.250000 0.750000
C 0.750000 1.750000 0.250000
C 1.000000 1.000000 0.000000
C 1.000000 1.500000 0.500000
C 1.500000 1.000000 0.500000
C 1.500000 1.500000 0.000000
C 1.250000 1.250000 0.250000
C 1.250000 1.750000 0.750000
C 1.750000 1.250000 0.750000
C 1.750000 1.750000 0.250000
C 2.000000 1.000000 0.000000
C 2.000000 1.500000 0.500000
C 2.500000 1.000000 0.500000
C 2.500000 1.500000 0.000000
C 2.250000 1.250000 0.250000
C 2.250000 1.750000 0.750000
C 2.750000 1.250000 0.750000
C 2.750000 1.750000 0.250000
C 3.000000 1.000000 0.000000
C 3.000000 1.500000 0.500000
C 3.500000 1.000000 0.500000
C 3.500000 1.500000 0.000000
C 3.250000 1.250000 0.250000
C 3.250000 1.750000 0.750000
C 3.750000 1.250000 0.750000
C 3.750000 1.750000 0.250000
C 4.000000 1.000000 0.000000
C 4.000000 1.500000 0.500000
C 4.500000 1.000000 0.500000
C 4.500000 1.500000 0.000000
C 4.250000 1.250000 0.250000
C 4.250000 1.750000 0.750000
C 4.750000 1.250000 0.750000
C 4.750000 1.750000 0.250000
C 5.000000 1.000000 0.000000
C 5.000000 1.500000 0.500000
C 5.500000 1.000000 0.500000
C 5.500000 1.500000 0.000000
C 5.250000 1.250000 0.250000
C 5.250000 1.750000 0.750000
C 5.750000 1.250000 0.750000
C 5.750000 1.750000 0.250000
C 0.000000 2.000000 0.000000
C 0.000000 2.500000 0.500000
C 0.500000 2.000000 0.500000
C 0.500000 2.500000 0.000000
C 0.250000 2.250000 0.250000
C 0.250000 2.750000 0.750000
C 0.750000 2.250000 0.750000
C 0.750000 2.750000 0.250000
C 1.000000 2.000000 0.000000
C 1.000000 2.500000 0.500000
C 1.500000 2.000000 0.500000
C 1.500000 2.500000 0.000000
C 1.250000 2.250000 0.250000
C 1.250000 2.750000 0.750000
C 1.750000 2.250000 0.750000
C 1.750000 2.750000 0.250000
C 2.000000 2.000000 0.000000
C 2.000000 2.500000 0.500000
C 2.500000 2.000000 0.500000
C 2.500000 2.500000 0.000000
C 2.250000 2.250000 0.250000
C 2.250000 2.750000 0.750000
C 2.750000 2.250000 0.750000
C 2.750000 2.750000 0.250000
C 3.000000 2.000000 0.000000
C 3.000000 2.500000 0.500000
C 3.500000 2.000000 0.500000
C 3.500000 2.500000 0.000000
C 3.250000 2.250000 0.250000
C 3.250000 2.750000 0.750000
C 3.750000 2.250000 0.750000
C 3.750000 2.750000 0.250000
C 4.000000 2.000000 0.000000
C 4.000000 2.500000 0.500000
C 4.500000 2.000000 0.500000
C 4.500000 2.500000 0.000000
C 4.250000 2.250000 0.250000
C 4.250000 2.750000 0.750000
C 4.750000 2.250000 0.750000
C 4.750000 2.750000 0.250000
C 5.000000 2.000000 0.000000
C 5.000000 2.500000 0.500000
C 5.500000 2.000000 0.500000
C 5.500000 2.500000 0.000000
C 5.250000 2.250000 0.250000
C 5.250000 2.750000 0.750000
C 5.750000 2.250000 0.750000
C 5.750000 2.750000 0.250000
C 0.000000 3.000000 0.000000
C 0.000000 3.500000 0.500000
C 0.500000 3.000000 0.500000
C 0.500000 3.500000 0.000000
C 0.250000 3.250000 0.250000
C 0.250000 3.750000 0.750000
C 0.750000 3.250000 0.750000
C 0.750000 3.750000 0.250000
C 1.000000 3.000000 0.000000
C 1.000000 3.500000 0.500000
C 1.500000 3.000000 0.500000
C 1.500000 3.500000 0.000000
C 1.250000 3.250000 0.250000
C 1.250000 3.750000 0.750000
C 1.750000 3.250000 0.750000
C 1.750000 3.750000 0.250000
C 2.000000 3.000000 0.000000
C 2.000000 3.500000 0.500000
C 2.500000 3.000000 0.500000
C 2.500000 3.500000 0.000000
C 2.250000 3.250000 0.250000
C 2.250000 3.750000 0.750000
C 2.750000 3.250000 0.750000
C 2.750000 3.750000 0.250000
C 3.000000 3.000000 0.000000
C 3.000000 3.500000 0.500000
C 3.500000 3.000000 0.500000
C 3.500000 3.500000 0.000000
C 3.250000 3.250000 0.250000
C 3.250000 3.750000 0.750000
C 3.750000 3.250000 0.750000
C 3.750000 3.750000 0.250000
C 4.000000 3.000000 0.000000
C 4.000000 3.500000 0.500000
C 4.500000 3.000000 0.500000
C 4.500000 3.500000 0.000000
C 4.250000 3.250000 0.250000
C 4.250000 3.750000 0.750000
C 4.750000 3.250000 0.750000
C 4.750000 3.750000 0.250000
C 5.000000 3.000000 0.000000
C 5.000000 3.500000 0.500000
C 5.500000 3.000000 0.500000
C 5.500000 3.500000 0.000000
C 5.250000 3.250000 0.250000
C 5.250000 3.750000 0.750000
C 5.750000 3.250000 0.750000
C 5.750000 3.750000 0.250000
C 0.000000 4.000000 0.000000
C 0.000000 4.500000 0.500000
C 0.500000 4.000000 0.500000
C 0.500000 4.500000 0.000000
C 0.250000 4.250000 0.250000
C 0.250000 4.750000 0.750000
C 0.750000 4.250000 0.750000
C 0.750000 4.750000 0.250000
C 1.000000 4.000000 0.000000
C 1.000000 4.500000 0.500000
C 1.500000 4.000000 0.500000
C 1.500000 4.500000 0.000000
C 1.250000 4.250000 0.250000
C 1.250000 4.750000 0.750000
C 1.750000 4.250000 0.750000
C 1.750000 4.750000 0.250000
C 2.000000 4.000000 0.000000
C 2.000000 4.500000 0.500000
C 2.500000 4.000000 0.500000
C 2.500000 4.500000 0.000000
C 2.250000 4.250000 0.250000
C 2.250000 4.750000 0.750000
C 2.750000 4.250000 0.750000
C 2.750000 4.750000 0.250000
C 3.000000 4.000000 0.000000
C 3.000000 4.500000 0.500000
C 3.500000 4.000000 0.500000
C 3.500000 4.500000 0.000000
C 3.250000 4.250000 0.250000
C 3.250000 4.750000 0.750000
C 3.750000 4.250000 0.750000
C 3.750000 4.750000 0.250000
C 4.000000 4.000000 0.000000
C 4.000000 4.500000 0.500000
C 4.500000 4.000000 0.500000
C 4.500000 4.500000 0.000000
C 4.250000 4.250000 0.250000
C 4.250000 4.750000 0.750000
C 4.750000 4.250000 0.750000
C 4.750000 4.750000 0.250000
C 5.000000 4.000000 0.000000
C 5.000000 4.500000 0.500000
C 5.500000 4.000000 0.500000
C 5.500000 4.500000 0.000000
C 5.250000 4.250000 0.250000
C 5.250000 4.750000 0.750000
C 5.750000 4.250000 0.750000
C 5.750000 4.750000 0.250000
C 0.000000 5.000000 0.000000
C 0.000000 5.500000 0.500000
C 0.500000 5.000000 0.500000
C 0.500000 5.500000 0.000000
C 0.250000 5.250000 0.250000
C 0.250000 5.750000 0.750000
C 0.750000 5.250000 0.750000
C 0.750000 5.750000 0.250000
C 1.000000 5.000000 0.000000
C 1.000000 5.500000 0.500000
C 1.500000 5.000000 0.500000
C 1.500000 5.500000 0.000000
C 1.250000 5.250000 0.250000
C 1.250000 5.750000 0.750000
C 1.750000 5.250000 0.750000
C 1.750000 5.750000 0.250000
C 2.000000 5.000000 0.000000
C 2.000000 5.500000 0.500000
C 2.500000 5.000000 0.500000
C 2.500000 5.500000 0.000000
C 2.250000 5.250000 0.250000
C 2.250000 5.750000 0.750000
C 2.750000 5.250000 0.750000
C 2.750000 5.750000 0.250000
C 3.000000 5.000000 0.000000
C 3.000000 5.500000 0.500000
C 3.500000 5.000000 0.500000
C 3.500000 5.500000 0.000000
C 3.250000 5.250000 0.250000
C 3.250000 5.750000 0.750000
C 3.750000 5.250000 0.750000
C 3.750000 5.750000 0.250000
C 4.000000 5.000000 0.000000
C 4.000000 5.500000 0.500000
C 4.500000 5.000000 0.500000
C 4.500000 5.500000 0.000000
C 4.250000 5.250000 0.250000
C 4.250000 5.750000 0.750000
C 4.750000 5.250000 0.750000
C 4.750000 5.750000 0.250000
C 5.000000 5.000000 0.000000
C 5.000000 5.500000 0.500000
C 5.500000 5.000000 0.500000
C 5.500000 5.500000 0.000000
C 5.250000 5.250000 0.250000
C 5.250000 5.750000 0.750000
C 5.750000 5.250000 0.750000
C 5.750000 5.750000 0.250000
C 0.000000 0.000000 1.000000
C 0.000000 0.500000 1.500000
C 0.500000 0.000000 1.500000
C 0.500000 0.500000 1.000000
C 0.250000 0.250000 1.250000
C 0.250000 0.750000 1.750000
C 0.750000 0.250000 1.750000
C 0.750000 0.750000 1.250000
C 1.000000 0.000000 1.000000
C 1.000000 0.500000 1.500000
C 1.500000 0.000000 1.500000
C 1.500000 0.500000 1.000000
C 1.250000 0.250000 1.250000
C 1.250000 0.750000 1.750000
C 1.750000 0.250000 1.750000
C 1.750000 0.750000 1.250000
C 2.000000 0.000000 1.000000
C 2.000000 0.500000 1.500000
C 2.500000 0.000000 1.500000
C 2.500000 0.500000 1.000000
C 2.250000 0.250000 1.250000
C 2.250000 0.750000 1.750000
C 2.750000 0.250000 1.750000
C 2.750000 0.750000 1.250000
C 3.000000 0.000000 1.000000
C 3.000000 0.500000 1.500000
C 3.500000 0.000000 1.500000
C 3.500000 0.500000 1.000000
C 3.250000 0.250000 1.250000
C 3.250000 0.750000 1.750000
C 3.750000 0.250000 1.750000
C 3.750000 0.750000 1.250000
C 4.000000 0.000000 1.000000
C 4.000000 0.500000 1.500000
C 4.500000 0.000000 1.500000
C 4.500000 0.500000 1.000000
C 4.250000 0.250000 1.250000
C 4.250000 0.750000 1.750000
C 4.750000 0.250000 1.750000
C 4.750000 0.750000 1.250000
C 5.000000 0.000000 1.000000
C 5.000000 0.500000 1.500000
C 5.500000 0.000000 1.500000
C 5.500000 0.500000 1.000000
C 5.250000 0.250000 1.250000
C 5.250000 0.750000 1.750000
C 5.750000 0.250000 1.750000
C 5.750000 0.750000 1.250000
C 0.000000 1.000000 1.000000
C 0.000000 1.500000 1.500000
C 0.500000 1.000000 1.500000
C 0.500000 1.500000 1.000000
C 0.250000 1.250000 1.250000
C 0.250000 1.750000 1.750000
C 0.750000 1.250000 1.750000
C 0.750000 1.750000 1.250000
C 1.000000 1.000000 1.000000
C 1.000000 1.500000 1.500000
C 1.500000 1.000000 1.500000
C 1.500000 1.500000 1.000000
C 1.250000 1.250000 1.250000
C 1.250000 1.750000 1.750000
C 1.750000 1.250000 1.750000
C 1.750000 1.750000 1.250000
C 2.000000 1.000000 1.000000
C 2.000000 1.500000 1.500000
C 2.500000 1.000000 1.500000
C 2.500000 1.500000 1.000000
C 2.250000 1.250000 1.250000
C 2.250000 1.750000 1.750000
C 2.750000 1.250000 1.750000
C 2.750000 1.750000 1.250000
C 3.000000 1.000000 1.000000
C 3.000000 1.500000 1.500000
C 3.500000 1.000000 1.500000
C 3.500000 1.500000 1.000000
C 3.250000 1.250000 1.250000
C 3.250000 1.750000 1.750000
C 3.750000 1.250000 1.750000
C 3.750000 1.750000 1.250000
C 4.000000 1.000000 1.000000
C 4.000000 1.500000 1.500000
C 4.500000 1.000000 1.500000
C 4.500000 1.500000 1.000000
C 4.250000 1.250000 1.250000
C 4.250000 1.750000 1.750000
C 4.750000 1.250000 1.750000
C 4.750000 1.750000 1.250000
C 5.000000 1.000000 1.000000
C 5.000000 1.500000 1.500000
C 5.500000 1.000000 1.500000
C 5.500000 1.500000 1.000000
C 5.250000 1.250000 1.250000
C 5.250000 1.750000 1.750000
C 5.750000 1.250000 1.750000
C 5.750000 1.750000 1.250000
C 0.000000 2.000000 1.000000
C 0.000000 2.500000 1.500000
C 0.500000 2.000000 1.500000
C 0.500000 2.500000 1.000000
C 0.250000 2.250000 1.250000
C 0.250000 2.750000 1.750000
C 0.750000 2.250000 1.750000
C 0.750000 2.750000 1.250000
C 1.000000 2.000000 1.000000
C 1.000000 2.500000 1.500000
C 1.500000 2.000000 1.500000
C 1.500000 2.500000 1.000000
C 1.250000 2.250000 1.250000
C 1.250000 2.750000 1.750000
C 1.750000 2.250000 1.750000
C 1.750000 2.750000 1.250000
C 2.000000 2.000000 1.000000
C 2.000000 2.500000 1.500000
C 2.500000 2.000000 1.500000
C 2.500000 2.500000 1.000000
C 2.250000 2.250000 1.250000
C 2.250000 2.750000 1.750000
C 2.750000 2.250000 1.750000
C 2.750000 2.750000 1.250000
C 3.000000 2.000000 1.000000
C 3.000000 2.500000 1.500000
C 3.500000 2.000000 1.500000
C 3.500000 2.500000 1.000000
C 3.250000 2.250000 1.250000
C 3.250000 2.750000 1.750000
C 3.750000 2.250000 1.750000
C 3.750000 2.750000 1.250000
C 4.000000 2.000000 1.000000
C 4.000000 2.500000 1.500000
C 4.500000 2.000000 1.500000
C 4.500000 2.500000 1.000000
C 4.250000 2.250000 1.250000
C 4.250000 2.750000 1.750000
C 4.750000 2.250000 1.750000
C 4.750000 2.750000 1.250000
C 5.000000 2.000000 1.000000
C 5.000000 2.500000 1.500000
C 5.500000 2.000000 1.500000
C 5.500000 2.500000 1.000000
C 5.250000 2.250000 1.250000
C 5.250000 2.750000 1.750000
C 5.750000 2.250000 1.750000
C 5.750000 2.750000 1.250000
C 0.000000 3.000000 1.000000
C 0.000000 3.500000 1.500000
C 0.500000 3.000000 1.500000
C 0.500000 3.500000 1.000000
C 0.250000 3.250000 1.250000
C 0.250000 3.750000 1.750000
C 0.750000 3.250000 1.750000
C 0.750000 3.750000 1.250000
C 1.000000 3.000000 1.000000
C 1.000000 3.500000 1.500000
C 1.500000 3.000000 1.500000
C 1.500000 3.500000 1.000000
C 1.250000 3.250000 1.250000
C 1.250000 3.750000 1.750000
C 1.750000 3.250000 1.750000
C 1.750000 3.750000 1.250000
C 2.000000 3.000000 1.000000
C 2.000000 3.500000 1.500000
C 2.500000 3.000000 1.500000
C 2.500000 3.500000 1.000000
C 2.250000 3.250000 1.250000
C 2.250000 3.750000 1.750000
C 2.750000 3.250000 1.750000
C 2.750000 3.750000 1.250000
C 3.000000 3.000000 1.000000
C 3.000000 3.500000 1.500000
C 3.500000 3.000000 1.500000
C 3.500000 3.500000 1.000000
C 3.250000 3.250000 1.250000
C 3.250000 3.750000 1.750000
C 3.750000 3.250000 1.750000
C 3.750000 3.750000 1.250000
C 4.000000 3.000000 1.000000
C 4.000000 3.500000 1.500000
C 4.500000 3.000000 1.500000
C 4.500000 3.500000 1.000000
C 4.250000 3.250000 1.250000
C 4.250000 3.750000 1.750000
C 4.750000 3.250000 1.750000
C 4.750000 3.750000 1.250000
C 5.000000 3.000000 1.000000
C 5.000000 3.500000 1.500000
C 5.500000 3.000000 1.500000
C 5.500000 3.500000 1.000000
C 5.250000 3.250000 1.250000
C 5.250000 3.750000 1.750000
C 5.750000 3.250000 1.750000
C 5.750000 3.750000 1.250000
C 0.000000 4.000000 1.000000
C 0.000000 4.500000 1.500000
C 0.500000 4.000000 1.500000
C 0.500000 4.500000 1.000000
C 0.250000 4.250000 1.250000
C 0.250000 4.750000 1.750000
C 0.750000 4.250000 1.750000
C 0.750000 4.750000 1.250000
C 1.000000 4.000000 1.000000
C 1.000000 4.500000 1.500000
C 1.500000 4.000000 1.500000
C 1.500000 4.500000 1.000000
C 1.250000 4.250000 1.250000
C 1.250000 4.750000 1.750000
C 1.750000 4.250000 1.750000
C 1.750000 4.750000 1.250000
C 2.000000 4.000000 1.000000
C 2.000000 4.500000 1.500000
C 2.500000 4.000000 1.500000
C 2.500000 4.500000 1.000000
C 2.250000 4.250000 1.250000
C 2.250000 4.750000 1.750000
C 2.750000 4.250000 1.750000
C 2.750000 4.750000 1.250000
C 3.000000 4.000000 1.000000
C 3.000000 4.500000 1.500000
C 3.500000 4.000000 1.500000
C 3.500000 4.500000 1.000000
C 3.250000 4.250000 1.250000
C 3.250000 4.750000 1.750000
C 3.750000 4.250000 1.750000
C 3.750000 4.750000 1.250000
C 4.000000 4.000000 1.000000
C 4.000000 4.500000 1.500000
C 4.500000 4.000000 1.500000
C 4.500000 4.500000 1.000000
C 4.250000 4.250000 1.250000
C 4.250000 4.750000 1.750000
C 4.750000 4.250000 1.750000
C 4.750000 4.750000 1.250000
C 5.000000 4.000000 1.000000
C 5.000000 4.500000 1.500000
C 5.500000 4.000000 1.500000
C 5.500000 4.500000 1.000000
C 5.250000 4.250000 1.250000
C 5.250000 4.750000 1.750000
C 5.750000 4.250000 1.750000
C 5.750000 4.750000 1.250000
C 0.000000 5.000000 1.000000
C 0.000000 5.500000 1.500000
C 0.500000 5.000000 1.500000
C 0.500000 5.500000 1.000000
C 0.250000 5.250000 1.250000
C 0.250000 5.750000 1.750000
C 0.750000 5.250000 1.750000
C 0.750000 5.750000 1.250000
C 1.000000 5.000000 1.000000
C 1.000000 5.500000 1.500000
C 1.500000 5.000000 1.500000
C 1.500000 5.500000 1.000000
C 1.250000 5.250000 1.250000
C 1.250000 5.750000 1.750000
C 1.750000 5.250000 1.750000
C 1.750000 5.750000 1.250000
C 2.000000 5.000000 1.000000
C 2.000000 5.500000 1.500000
C 2.500000 5.000000 1.500000
C 2.500000 5.500000 1.000000
C 2.250000 5.250000 1.250000
C 2.250000 5.750000 1.750000
C 2.750000 5.250000 1.750000
C 2.750000 5.750000 1.250000
C 3.000000 5.000000 1.000000
C 3.000000 5.500000 1.500000
C 3.500000 5.000000 1.500000
C 3.500000 5.500000 1.000000
C 3.250000 5.250000 1.250000
C 3.250000 5.750000 1.750000
C 3.750000 5.250000 1.750000
C 3.750000 5.750000 1.250000
C 4.000000 5.000000 1.000000
C 4.000000 5.500000 1.500000
C 4.500000 5.000000 1.500000
C 4.500000 5.500000 1.000000
C 4.250000 5.250000 1.250000
C 4.250000 5.750000 1.750000
C 4.750000 5.250000 1.750000
C 4.750000 5.750000 1.250000
C 5.000000 5.000000 1.000000
C 5.000000 5.500000 1.500000
C 5.500000 5.000000 1.500000
C 5.500000 5.500000 1.000000
C 5.250000 5.250000 1.250000
C 5.250000 5.750000 1.750000
C 5.750000 5.250000 1.750000
C 5.750000 5.750000 1.250000
C 0.000000 0.000000 2.000000
C 0.000000 0.500000 2.500000
C 0.500000 0.000000 2.500000
C 0.500000 0.500000 2.000000
C 0.250000 0.250000 2.250000
C 0.250000 0.750000 2.750000
C 0.750000 0.250000 2.750000
C 0.750000 0.750000 2.250000
C 1.000000 0.000000 2.000000
C 1.000000 0.500000 2.500000
C 1.500000 0.000000 2.500000
C 1.500000 0.500000 2.000000
C 1.250000 0.250000 2.250000
C 1.250000 0.750000 2.750000
C 1.750000 0.250000 2.750000
C 1.750000 0.750000 2.250000
C 2.000000 0.000000 2.000000
C 2.000000 0.500000 2.500000
C 2.500000 0.000000 2.500000
C 2.500000 0.500000 2.000000
C 2.250000 0.250000 2.250000
C 2.250000 0.750000 2.750000
C 2.750000 0.250000 2.750000
C 2.750000 0.750000 2.250000
C 3.000000 0.000000 2.000000
C 3.000000 0.500000 2.500000
C 3.500000 0.000000 2.500000
C 3.500000 0.500000 2.000000
C 3.250000 0.250000 2.250000
C 3.250000 0.750000 2.750000
C 3.750000 0.250000 2.750000
C 3.750000 0.750000 2.250000
C 4.000000 0.000000 2.000000
C 4.000000 0.500000 2.500000
C 4.500000 0.000000 2.500000
C 4.500000 0.500000 2.000000
C 4.250000 0.250000 2.250000
C 4.250000 0.750000 2.750000
C 4.750000 0.250000 2.750000
C 4.750000 0.750000 2.250000
C 5.000000 0.000000 2.000000
C 5.000000 0.500000 2.500000
C 5.500000 0.000000 2.500000
C 5.500000 0.500000 2.000000
C 5.250000 0.250000 2.250000
C 5.250000 0.750000 2.750000
C 5.750000 0.250000 2.750000
C 5.750000 0.750000 2.250000
C 0.000000 1.000000 2.000000
C 0.000000 1.500000 2.500000
C 0.500000 1.000000 2.500000
C 0.500000 1.500000 2.000000
C 0.250000 1.250000 2.250000
C 0.250000 1.750000 2.750000
C 0.750000 1.250000 2.750000
C 0.750000 1.750000 2.250000
C 1.000000 1.000000 2.000000
C 1.000000 1.500000 2.500000
C 1.500000 1.000000 2.500000
C 1.500000 1.500000 2.000000
C 1.250000 1.250000 2.250000
C 1.250000 1.750000 2.750000
C 1.750000 1.250000 2.750000
C 1.750000 1.750000 2.250000
C 2.000000 1.000000 2.000000
C 2.000000 1.500000 2.500000
C 2.500000 1.000000 2.500000
C 2.500000 1.500000 2.000000
C 2.250000 1.250000 2.250000
C 2.250000 1.750000 2.750000
C 2.750000 1.250000 2.750000
C 2.750000 1.750000 2.250000
C 3.000000 1.000000 2.000000
C 3.000000 1.500000 2.500000
C 3.500000 1.000000 2.500000
C 3.500000 1.500000 2.000000
C 3.250000 1.250000 2.250000
C 3.250000 1.750000 2.750000
C 3.750000 1.250000 2.750000
C 3.750000 1.750000 2.250000
C 4.000000 1.000000 2.000000
C 4.000000 1.500000 2.500000
C 4.500000 1.000000 2.500000
C 4.500000 1.500000 2.000000
C 4.250000 1.250000 2.250000
C 4.250000 1.750000 2.750000
C 4.750000 1.250000 2.750000
C 4.750000 1.750000 2.250000
C 5.000000 1.000000 2.000000
C 5.000000 1.500000 2.500000
C 5.500000 1.000000 2.500000
C 5.500000 1.500000 2.000000
C 5.250000 1.250000 2.250000
C 5.250000 1.750000 2.750000
C 5.750000 1.250000 2.750000
C 5.750000 1.750000 2.250000
C 0.000000 2.000000 2.000000
C 0.000000 2.500000 2.500000
C 0.500000 2.000000 2.500000
C 0.500000 2.500000 2.000000
C 0.250000 2.250000 2.250000
C 0.250000 2.750000 2.750000
C 0.750000 2.250000 2.750000
C 0.750000 2.750000 2.250000
C 1.000000 2.000000 2.000000
C 1.000000 2.500000 2.500000
C 1.500000 2.000000 2.500000
C 1.500000 2.500000 2.000000
C 1.250000 2.250000 2.250000
C 1.250000 2.750000 2.750000
C 1.750000 2.250000 2.750000
C 1.750000 2.750000 2.250000
C 2.000000 2.000000 2.000000
C 2.000000 2.500000 2.500000
C 2.500000 2.000000 2.500000
C 2.500000 2.500000 2.000000
C 2.250000 2.250000 2.250000
C 2.250000 2.750000 2.750000
C 2.750000 2.250000 2.750000
C 2.750000 2.750000 2.250000
C 3.000000 2.000000 2.000000
C 3.000000 2.500000 2.500000
C 3.500000 2.000000 2.500000
C 3.500000 2.500000 2.000000
C 3.250000 2.250000 2.250000
C 3.250000 2.750000 2.750000
C 3.750000 2.250000 2.750000
C 3.750000 2.750000 2.250000
C 4.000000 2.000000 2.000000
C 4.000000 2.500000 2.500000
C 4.500000 2.000000 2.500000
C 4.500000 2.500000 2.000000
C 4.250000 2.250000 2.250000
C 4.250000 2.750000 2.750000
C 4.750000 2.250000 2.750000
C 4.750000 2.750000 2.250000
C 5.000000 2.000000 2.000000
C 5.000000 2.500000 2.500000
C 5.500000 2.000000 2.500000
C 5.500000 2.500000 2.000000
C 5.250000 2.250000 2.250000
C 5.250000 2.750000 2.750000
C 5.750000 2.250000 2.750000
C 5.750000 2.750000 2.250000
C 0.000000 3.000000 2.000000
C 0.000000 3.500000 2.500000
C 0.500000 3.000000 2.500000
C 0.500000 3.500000 2.000000
C 0.250000 3.250000 2.250000
C 0.250000 3.750000 2.750000
C 0.750000 3.250000 2.750000
C 0.750000 3.750000 2.250000
C 1.000000 3.000000 2.000000
C 1.000000 3.500000 2.500000
C 1.500000 3.000000 2.500000
C 1.500000 3.500000 2.000000
C 1.250000 3.250000 2.250000
C 1.250000 3.750000 2.750000
C 1.750000 3.250000 2.750000
C 1.750000 3.750000 2.250000
C 2.000000 3.000000 2.000000
C 2.000000 3.500000 2.500000
C 2.500000 3.000000 2.500000
C 2.500000 3.500000 2.000000
C 2.250000 3.250000 2.250000
C 2.250000 3.750000 2.750000
C 2.750000 3.250000 2.750000
C 2.750000 3.750000 2.250000
C 3.000000 3.000000 2.000000
C 3.000000 3.500000 2.500000
C 3.500000 3.000000 2.500000
C 3.500000 3.500000 2.000000
C 3.250000 3.250000 2.250000
C 3.250000 3.750000 2.750000
C 3.750000 3.250000 2.750000
C 3.750000 3.750000 2.250000
C 4.000000 3.000000 2.000000
C 4.000000 3.500000 2.500000
C 4.500000 3.000000 2.500000
C 4.500000 3.500000 2.000000
C 4.250000 3.250000 2.250000
C 4.250000 3.750000 2.750000
C 4.750000 3.250000 2.750000
C 4.750000 3.750000 2.250000
C 5.000000 3.000000 2.000000
C 5.000000 3.500000 2.500000
C 5.500000 3.000000 2.500000
C 5.500000 3.500000 2.000000
C 5.250000 3.250000 2.250000
C 5.250000 3.750000 2.750000
C 5.750000 3.250000 2.750000
C 5.750000 3.750000 2.250000
C 0.000000 4.000000 2.000000
C 0.000000 4.500000 2.500000
C 0.500000 4.000000 2.500000
C 0.500000 4.500000 2.000000
C 0.250000 4.250000 2.250000
C 0.250000 4.750000 2.750000
C 0.750000 4.250000 2.750000
C 0.750000 4.750000 2.250000
C 1.000000 4.000000 2.000000
C 1.000000 4.500000 2.500000
C 1.500000 4.000000 2.500000
C 1.500000 4.500000 2.000000
C 1.250000 4.250000 2.250000
C 1.250000 4.750000 2.750000
C 1.750000 4.250000 2.750000
C 1.750000 4.750000 2.250000
C 2.000000 4.000000 2.000000
C 2.000000 4.500000 2.500000
C 2.500000 4.000000 2.500000
C 2.500000 4.500000 2.000000
C 2.250000 4.250000 2.250000
C 2.250000 4.750000 2.750000
C 2.750000 4.250000 2.750000
C 2.750000 4.750000 2.250000
C 3.000000 4.000000 2.000000
C 3.000000 4.500000 2.500000
C 3.500000 4.000000 2.500000
C 3.500000 4.500000 2.000000
C 3.250000 4.250000 2.250000
C 3.250000 4.750000 2.750000
C 3.750000 4.250000 2.750000
C 3.750000 4.750000 2.250000
C 4.000000 4.000000 2.000000
C 4.000000 4.500000 2.500000
C 4.500000 4.000000 2.500000
C 4.500000 4.500000 2.000000
C 4.250000 4.250000 2.250000
C 4.250000 4.750000 2.750000
C 4.750000 4.250000 2.750000
C 4.750000 4.750000 2.250000
C 5.000000 4.000000 2.000000
C 5.000000 4.500000 2.500000
C 5.500000 4.000000 2.500000
C 5.500000 4.500000 2.000000
C 5.250000 4.250000 2.250000
C 5.250000 4.750000 2.750000
C 5.750000 4.250000 2.750000
C 5.750000 4.750000 2.250000
C 0.000000 5.000000 2.000000
C 0.000000 5.500000 2.500000
C 0.500000 5.000000 2.500000
C 0.500000 5.500000 2.000000
C 0.250000 5.250000 2.250000
C 0.250000 5.750000 2.750000
C 0.750000 5.250000 2.750000
C 0.750000 5.750000 2.250000
C 1.000000 5.000000 2.000000
C 1.000000 5.500000 2.500000
C 1.500000 5.000000 2.500000
C 1.500000 5.500000 2.000000
C 1.250000 5.250000 2.250000
C 1.250000 5.750000 2.750000
C 1.750000 5.250000 2.750000
C 1.750000 5.750000 2.250000
C 2.000000 5.000000 2.000000
C 2.000000 5.500000 2.500000
C 2.500000 5.000000 2.500000
C 2.500000 5.500000 2.000000
C 2.250000 5.250000 2.250000
C 2.250000 5.750000 2.750000
C 2.750000 5.250000 2.750000
C 2.750000 5.750000 2.250000
C 3.000000 5.000000 2.000000
C 3.000000 5.500000 2.500000
C 3.500000 5.000000 2.500000
C 3.500000 5.500000 2.000000
C 3.250000 5.250000 2.250000
C 3.250000 5.750000 2.750000
C 3.750000 5.250000 2.750000
C 3.750000 5.750000 2.250000
C 4.000000 5.000000 2.000000
C 4.000000 5.500000 2.500000
C 4.500000 5.000000 2.500000
C 4.500000 5.500000 2.000000
C 4.250000 5.250000 2.250000
C 4.250000 5.750000 2.750000
C 4.750000 5.250000 2.750000
C 4.750000 5.750000 2.250000
C 5.000000 5.000000 2.000000
C 5.000000 5.500000 2.500000
C 5.500000 5.000000 2.500000
C 5.500000 5.500000 2.000000
C 5.250000 5.250000 2.250000
C 5.250000 5.750000 2.750000
C 5.750000 5.250000 2.750000
C 5.750000 5.750000 2.250000
C 0.000000 0.000000 3.000000
C 0.000000 0.500000 3.500000
C 0.500000 0.000000 3.500000
C 0.500000 0.500000 3.000000
C 0.250000 0.250000 3.250000
C 0.250000 0.750000 3.750000
C 0.750000 0.250000 3.750000
C 0.750000 0.750000 3.250000
C 1.000000 0.000000 3.000000
C 1.000000 0.500000 3.500000
C 1.500000 0.000000 3.500000
C 1.500000 0.500000 3.000000
C 1.250000 0.250000 3.250000
C 1.250000 0.750000 3.750000
C 1.750000 0.250000 3.750000
C 1.750000 0.750000 3.250000
C 2.000000 0.000000 3.000000
C 2.000000 0.500000 3.500000
C 2.500000 0.000000 3.500000
C 2.500000 0.500000 3.000000
C 2.250000 0.250000 3.250000
C 2.250000 0.750000 3.750000
C 2.750000 0.250000 3.750000
C 2.750000 0.750000 3.250000
C 3.000000 0.000000 3.000000
C 3.000000 0.500000 3.500000
C 3.500000 0.000000 3.500000
C 3.500000 0.500000 3.000000
C 3.250000 0.250000 3.250000
C 3.250000 0.750000 3.750000
C 3.750000 0.250000 3.750000
C 3.750000 0.750000 3.250000
C 4.000000 0.000000 3.000000
C 4.000000 0.500000 3.500000
C 4.500000 0.000000 3.500000
C 4.500000 0.500000 3.000000
C 4.250000 0.250000 3.250000
C 4.250000 0.750000 3.750000
C 4.750000 0.250000 3.750000
C 4.750000 0.750000 3.250000
C 5.000000 0.000000 3.000000
C 5.000000 0.500000 3.500000
C 5.500000 0.000000 3.500000
C 5.500000 0.500000 3.000000
C 5.250000 0.250000 3.250000
C 5.250000 0.750000 3.750000
C 5.750000 0.250000 3.750000
C 5.750000 0.750000 3.250000
C 0.000000 1.000000 3.000000
C 0.000000 1.500000 3.500000
C 0.500000 1.000000 3.500000
C 0.500000 1.500000 3.000000
C 0.250000 1.250000 3.250000
C 0.250000 1.750000 3.750000
C 0.750000 1.250000 3.750000
C 0.750000 1.750000 3.250000
C 1.000000 1.000000 3.000000
C 1.000000 1.500000 3.500000
C 1.500000 1.000000 3.500000
C 1.500000 1.500000 3.000000
C 1.250000 1.250000 3.250000
C 1.250000 1.750000 3.750000
C 1.750000 1.250000 3.750000
C 1.750000 1.750000 3.250000
C 2.000000 1.000000 3.000000
C 2.000000 1.500000 3.500000
C 2.500000 1.000000 3.500000
C 2.500000 1.500000 3.000000
C 2.250000 1.250000 3.250000
C 2.250000 1.750000 3.750000
C 2.750000 1.250000 3.750000
C 2.750000 1.750000 3.250000
C 3.000000 1.000000 3.000000
C 3.000000 1.500000 3.500000
C 3.500000 1.000000 3.500000
C 3.500000 1.500000 3.000000
C 3.250000 1.250000 3.250000
C 3.250000 1.750000 3.750000
C 3.750000 1.250000 3.750000
C 3.750000 1.750000 3.250000
C 4.000000 1.000000 3.000000
C 4.000000 1.500000 3.500000
C 4.500000 1.000000 3.500000
C 4.500000 1.500000 3.000000
C 4.250000 1.250000 3.250000
C 4.250000 1.750000 3.750000
C 4.750000 1.250000 3.750000
C 4.750000 1.750000 3.250000
C 5.000000 1.000000 3.000000
C 5.000000 1.500000 3.500000
C 5.500000 1.000000 3.500000
C 5.500000 1.500000 3.000000
C 5.250000 1.250000 3.250000
C 5.250000 1.750000 3.750000
C 5.750000 1.250000 3.750000
C 5.750000 1.750000 3.250000
C 0.000000 2.000000 3.000000
C 0.000000 2.500000 3.500000
C 0.500000 2.000000 3.500000
C 0.500000 2.500000 3.000000
C 0.250000 2.250000 3.250000
C 0.250000 2.750000 3.750000
C 0.750000 2.250000 3.750000
C 0.750000 2.750000 3.250000
C 1.000000 2.000000 3.000000
C 1.000000 2.500000 3.500000
C 1.500000 2.000000 3.500000
C 1.500000 2.500000 3.000000
C 1.250000 2.250000 3.250000
C 1.250000 2.750000 3.750000
C 1.750000 2.250000 3.750000
C 1.750000 2.750000 3.250000
C 2.000000 2.000000 3.000000
C 2.000000 2.500000 3.500000
C 2.500000 2.000000 3.500000
C 2.500000 2.500000 3.000000
C 2.250000 2.250000 3.250000
C 2.250000 2.750000 3.750000
C 2.750000 2.250000 3.750000
C 2.750000 2.750000 3.250000
C 3.000000 2.000000 3.000000
C 3.000000 2.500000 3.500000
C 3.500000 2.000000 3.500000
C 3.500000 2.500000 3.000000
C 3.250000 2.250000 3.250000
C 3.250000 2.750000 3.750000
C 3.750000 2.250000 3.750000
C 3.750000 2.750000 3.250000
C 4.000000 2.000000 3.000000
C 4.000000 2.500000 3.500000
C 4.500000 2.000000 3.500000
C 4.500000 2.500000 3.000000
C 4.250000 2.250000 3.250000
C 4.250000 2.750000 3.750000
C 4.750000 2.250000 3.750000
C 4.750000 2.750000 3.250000
C 5.000000 2.000000 3.000000
C 5.000000 2.500000 3.500000
C 5.500000 2.000000 3.500000
C 5.500000 2.500000 3.000000
C 5.250000 2.250000 3.250000
C 5.250000 2.750000 3.750000
C 5.750000 2.250000 3.750000
C 5.750000 2.750000 3.250000
C 0.000000 3.000000 3.000000
C 0.000000 3.500000 3.500000
C 0.500000 3.000000 3.500000
C 0.500000 3.500000 3.000000
C 0.250000 3.250000 3.250000
C 0.250000 3.750000 3.750000
C 0.750000 3.250000 3.750000
C 0.750000 3.750000 3.250000
C 1.000000 3.000000 3.000000
C 1.000000 3.500000 3.500000
C 1.500000 3.000000 3.500000
C 1.500000 3.500000 3.000000
C 1.250000 3.250000 3.250000
C 1.250000 3.750000 3.750000
C 1.750000 3.250000 3.750000
C 1.750000 3.750000 3.250000
C 2.000000 3.000000 3.000000
C 2.000000 3.500000 3.500000
C 2.500000 3.000000 3.500000
C 2.500000 3.500000 3.000000
C 2.250000 3.250000 3.250000
C 2.250000 3.750000 3.750000
C 2.750000 3.250000 3.750000
C 2.750000 3.750000 3.250000
C 3.000000 3.000000 3.000000
C 3.000000 3.500000 3.500000
C 3.500000 3.000000 3.500000
C 3.500000 3.500000 3.000000
C 3.250000 3.250000 3.250000
C 3.250000 3.750000 3.750000
C 3.750000 3.250000 3.750000
C 3.750000 3.750000 3.250000
C 4.000000 3.000000 3.000000
C 4.000000 3.500000 3.500000
C 4.500000 3.000000 3.500000
C 4.500000 3.500000 3.000000
C 4.250000 3.250000 3.250000
C 4.250000 3.750000 3.750000
C 4.750000 3.250000 3.750000
C 4.750000 3.750000 3.250000
C 5.000000 3.000000 3.000000
C 5.000000 3.500000 3.500000
C 5.500000 3.000000 3.500000
C 5.500000 3.500000 3.000000
C 5.250000 3.250000 3.250000
C 5.250000 3.750000 3.750000
C 5.750000 3.250000 3.750000
C 5.750000 3.750000 3.250000
C 0.000000 4.000000 3.000000
C 0.000000 4.500000 3.500000
C 0.500000 4.000000 3.500000
C 0.500000 4.500000 3.000000
C 0.250000 4.250000 3.250000
C 0.250000 4.750000 3.750000
C 0.750000 4.250000 3.750000
C 0.750000 4.750000 3.250000
C 1.000000 4.000000 3.000000
C 1.000000 4.500000 3.500000
C 1.500000 4.000000 3.500000
C 1.500000 4.500000 3.000000
C 1.250000 4.250000 3.250000
C 1.250000 4.750000 3.750000
C 1.750000 4.250000 3.750000
C 1.750000 4.750000 3.250000
C 2.000000 4.000000 3.000000
C 2.000000 4.500000 3.500000
C 2.500000 4.000000 3.500000
C 2.500000 4.500000 3.000000
C 2.250000 4.250000 3.250000
C 2.250000 4.750000 3.750000
C 2.750000 4.250000 3.750000
C 2.750000 4.750000 3.250000
C 3.000000 4.000000 3.000000
C 3.000000 4.500000 3.500000
C 3.500000 4.000000 3.500000
C 3.500000 4.500000 3.000000
C 3.250000 4.250000 3.250000
C 3.250000 4.750000 3.750000
C 3.750000 4.250000 3.750000
C 3.750000 4.750000 3.250000
C 4.000000 4.000000 3.000000
C 4.000000 4.500000 3.500000
C 4.500000 4.000000 3.500000
C 4.500000 4.500000 3.000000
C 4.250000 4.250000 3.250000
C 4.250000 4.750000 3.750000
C 4.750000 4.250000 3.750000
C 4.750000 4.750000 3.250000
C 5.000000 4.000000 3.000000
C 5.000000 4.500000 3.500000
C 5.500000 4.000000 3.500000
C 5.500000 4.500000 3.000000
C 5.250000 4.250000 3.250000
C 5.250000 4.750000 3.750000
C 5.750000 4.250000 3.750000
C 5.750000 4.750000 3.250000
C 0.000000 5.000000 3.000000
C 0.000000 5.500000 3.500000
C 0.500000 5.000000 3.500000
C 0.500000 5.500000 3.000000
C 0.250000 5.250000 3.250000
C 0.250000 5.750000 3.750000
C 0.750000 5.250000 3.750000
C 0.750000 5.750000 3.250000
C 1.000000 5.000000 3.000000
C 1.000000 5.500000 3.500000
C 1.500000 5.000000 3.500000
C 1.500000 5.500000 3.000000
C 1.250000 5.250000 3.250000
C 1.250000 5.750000 3.750000
C 1.750000 5.250000 3.750000
C 1.750000 5.750000 3.250000
C 2.000000 5.000000 3.000000
C 2.000000 5.500000 3.500000
C 2.500000 5.000000 3.500000
C 2.500000 5.500000 3.000000
C 2.250000 5.250000 3.250000
C 2.250000 5.750000 3.750000
C 2.750000 5.250000 3.750000
C 2.750000 5.750000 3.250000
C 3.000000 5.000000 3.000000
C 3.000000 5.500000 3.500000
C 3.500000 5.000000 3.500000
C 3.500000 5.500000 3.000000
C 3.250000 5.250000 3.250000
C 3.250000 5.750000 3.750000
C 3.750000 5.250000 3.750000
C 3.750000 5.750000 3.250000
C 4.000000 5.000000 3.000000
C 4.000000 5.500000 3.500000
C 4.500000 5.000000 3.500000
C 4.500000 5.500000 3.000000
C 4.250000 5.250000 3.250000
C 4.250000 5.750000 3.750000
C 4.750000 5.250000 3.750000
C 4.750000 5.750000 3.250000
C 5.000000 5.000000 3.000000
C 5.000000 5.500000 3.500000
C 5.500000 5.000000 3.500000
C 5.500000 5.500000 3.000000
C 5.250000 5.250000 3.250000
C 5.250000 5.750000 3.750000
C 5.750000 5.250000 3.750000
C 5.750000 5.750000 3.250000
C 0.000000 0.000000 4.000000
C 0.000000 0.500000 4.500000
C 0.500000 0.000000 4.500000
C 0.500000 0.500000 4.000000
C 0.250000 0.250000 4.250000
C 0.250000 0.750000 4.750000
C 0.750000 0.250000 4.750000
C 0.750000 0.750000 4.250000
C 1.000000 0.000000 4.000000
C 1.000000 0.500000 4.500000
C 1.500000 0.000000 4.500000
C 1.500000 0.500000 4.000000
C 1.250000 0.250000 4.250000
C 1.250000 0.750000 4.750000
C 1.750000 0.250000 4.750000
C 1.750000 0.750000 4.250000
C 2.000000 0.000000 4.000000
C 2.000000 0.500000 4.500000
C 2.500000 0.000000 4.500000
C 2.500000 0.500000 4.000000
C 2.250000 0.250000 4.250000
C 2.250000 0.750000 4.750000
C 2.750000 0.250000 4.750000
C 2.750000 0.750000 4.250000
C 3.000000 0.000000 4.000000
C 3.000000 0.500000 4.500000
C 3.500000 0.000000 4.500000
C 3.500000 0.500000 4.000000
C 3.250000 0.250000 4.250000
C 3.250000 0.750000 4.750000
C 3.750000 0.250000 4.750000
C 3.750000 0.750000 4.250000
C 4.000000 0.000000 4.000000
C 4.000000 0.500000 4.500000
C 4.500000 0.000000 4.500000
C 4.500000 0.500000 4.000000
C 4.250000 0.250000 4.250000
C 4.250000 0.750000 4.750000
C 4.750000 0.250000 4.750000
C 4.750000 0.750000 4.250000
C 5.000000 0.000000 4.000000
C 5.000000 0.500000 4.500000
C 5.500000 0.000000 4.500000
C 5.500000 0.500000 4.000000
C 5.250000 0.250000 4.250000
C 5.250000 0.750000 4.750000
C 5.750000 0.250000 4.750000
C 5.750000 0.750000 4.250000
C 0.000000 1.000000 4.000000
C 0.000000 1.500000 4.500000
C 0.500000 1.000000 4.500000
C 0.500000 1.500000 4.000000
C 0.250000 1.250000 4.250000
C 0.250000 1.750000 4.750000
C 0.750000 1.250000 4.750000
C 0.750000 1.750000 4.250000
C 1.000000 1.000000 4.000000
C 1.000000 1.500000 4.500000
C 1.500000 1.000000 4.500000
C 1.500000 1.500000 4.000000
C 1.250000 1.250000 4.250000
C 1.250000 1.750000 4.750000
C 1.750000 1.250000 4.750000
C 1.750000 1.750000 4.250000
C 2.000000 1.000000 4.000000
C 2.000000 1.500000 4.500000
C 2.500000 1.000000 4.500000
C 2.500000 1.500000 4.000000
C 2.250000 1.250000 4.250000
C 2.250000 1.750000 4.750000
C 2.750000 1.250000 4.750000
C 2.750000 1.750000 4.250000
C 3.000000 1.000000 4.000000
C 3.000000 1.500000 4.500000
C 3.500000 1.000000 4.500000
C 3.500000 1.500000 4.000000
C 3.250000 1.250000 4.250000
C 3.250000 1.750000 4.750000
C 3.750000 1.250000 4.750000
C 3.750000 1.750000 4.250000
C 4.000000 1.000000 4.000000
C 4.000000 1.500000 4.500000
C 4.500000 1.000000 4.500000
C 4.500000 1.500000 4.000000
C 4.250000 1.250000 4.250000
C 4.250000 1.750000 4.750000
C 4.750000 1.250000 4.750000
C 4.750000 1.750000 4.250000
C 5.000000 1.000000 4.000000
C 5.000000 1.500000 4.500000
C 5.500000 1.000000 4.500000
C 5.500000 1.500000 4.000000
C 5.250000 1.250000 4.250000
C 5.250000 1.750000 4.750000
C 5.750000 1.250000 4.750000
C 5.750000 1.750000 4.250000
C 0.000000 2.000000 4.000000
C 0.000000 2.500000 4.500000
C 0.500000 2.000000 4.500000
C 0.500000 2.500000 4.000000
C 0.250000 2.250000 4.250000
C 0.250000 2.750000 4.750000
C 0.750000 2.250000 4.750000
C 0.750000 2.750000 4.250000
C 1.000000 2.000000 4.000000
C 1.000000 2.500000 4.500000
C 1.500000 2.000000 4.500000
C 1.500000 2.500000 4.000000
C 1.250000 2.250000 4.250000
C 1.250000 2.750000 4.750000
C 1.750000 2.250000 4.750000
C 1.750000 2.750000 4.250000
C 2.000000 2.000000 4.000000
C 2.000000 2.500000 4.500000
C 2.500000 2.000000 4.500000
C 2.500000 2.500000 4.000000
C 2.250000 2.250000 4.250000
C 2.250000 2.750000 4.750000
C 2.750000 2.250000 4.750000
C 2.750000 2.750000 4.250000
C 3.000000 2.000000 4.000000
C 3.000000 2.500000 4.500000
C 3.500000 2.000000 4.500000
C 3.500000 2.500000 4.000000
C 3.250000 2.250000 4.250000
C 3.250000 2.750000 4.750000
C 3.750000 2.250000 4.750000
C 3.750000 2.750000 4.250000
C 4.000000 2.000000 4.000000
C 4.000000 2.500000 4.500000
C 4.500000 2.000000 4.500000
C 4.500000 2.500000 4.000000
C 4.250000 2.250000 4.250000
C 4.250000 2.750000 4.750000
C 4.750000 2.250000 4.750000
C 4.750000 2.750000 4.250000
C 5.000000 2.000000 4.000000
C 5.000000 2.500000 4.500000
C 5.500000 2.000000 4.500000
C 5.500000 2.500000 4.000000
C 5.250000 2.250000 4.250000
C 5.250000 2.750000 4.750000
C 5.750000 2.250000 4.750000
C 5.750000 2.750000 4.250000
C 0.000000 3.000000 4.000000
C 0.000000 3.500000 4.500000
C 0.500000 3.000000 4.500000
C 0.500000 3.500000 4.000000
C 0.250000 3.250000 4.250000
C 0.250000 3.750000 4.750000
C 0.750000 3.250000 4.750000
C 0.750000 3.750000 4.250000
C 1.000000 3.000000 4.000000
C 1.000000 3.500000 4.500000
C 1.500000 3.000000 4.500000
C 1.500000 3.500000 4.000000
C 1.250000 3.250000 4.250000
C 1.250000 3.750000 4.750000
C 1.750000 3.250000 4.750000
C 1.750000 3.750000 4.250000
C 2.000000 3.000000 4.000000
C 2.000000 3.500000 4.500000
C 2.500000 3.000000 4.500000
C 2.500000 3.500000 4.000000
C 2.250000 3.250000 4.250000
C 2.250000 3.750000 4.750000
C 2.750000 3.250000 4.750000
C 2.750000 3.750000 4.250000
C 3.000000 3.000000 4.000000
C 3.000000 3.500000 4.500000
C 3.500000 3.000000 4.500000
C 3.500000 3.500000 4.000000
C 3.250000 3.250000 4.250000
C 3.250000 3.750000 4.750000
C 3.750000 3.250000 4.750000
C 3.750000 3.750000 4.250000
C 4.000000 3.000000 4.000000
C 4.000000 3.500000 4.500000
C 4.500000 3.000000 4.500000
C 4.500000 3.500000 4.000000
C 4.250000 3.250000 4.250000
C 4.250000 3.750000 4.750000
C 4.750000 3.250000 4.750000
C 4.750000 3.750000 4.250000
C 5.000000 3.000000 4.000000
C 5.000000 3.500000 4.500000
C 5.500000 3.000000 4.500000
C 5.500000 3.500000 4.000000
C 5.250000 3.250000 4.250000
C 5.250000 3.750000 4.750000
C 5.750000 3.250000 4.750000
C 5.750000 3.750000 4.250000
C 0.000000 4.000000 4.000000
C 0.000000 4.500000 4.500000
C 0.500000 4.000000 4.500000
C 0.500000 4.500000 4.000000
C 0.250000 4.250000 4.250000
C 0.250000 4.750000 4.750000
C 0.750000 4.250000 4.750000
C 0.750000 4.750000 4.250000
C 1.000000 4.000000 4.000000
C 1.000000 4.500000 4.500000
C 1.500000 4.000000 4.500000
C 1.500000 4.500000 4.000000
C 1.250000 4.250000 4.250000
C 1.250000 4.750000 4.750000
C 1.750000 4.250000 4.750000
C 1.750000 4.750000 4.250000
C 2.000000 4.000000 4.000000
C 2.000000 4.500000 4.500000
C 2.500000 4.000000 4.500000
C 2.500000 4.500000 4.000000
C 2.250000 4.250000 4.250000
C 2.250000 4.750000 4.750000
C 2.750000 4.250000 4.750000
C 2.750000 4.750000 4.250000
C 3.000000 4.000000 4.000000
C 3.000000 4.500000 4.500000
C 3.500000 4.000000 4.500000
C 3.500000 4.500000 4.000000
C 3.250000 4.250000 4.250000
C 3.250000 4.750000 4.750000
C 3.750000 4.250000 4.750000
C 3.750000 4.750000 4.250000
C 4.000000 4.000000 4.000000
C 4.000000 4.500000 4.500000
C 4.500000 4.000000 4.500000
C 4.500000 4.500000 4.000000
C 4.250000 4.250000 4.250000
C 4.250000 4.750000 4.750000
C 4.750000 4.250000 4.750000
C 4.750000 4.750000 4.250000
C 5.000000 4.000000 4.000000
C 5.000000 4.500000 4.500000
C 5.500000 4.000000 4.500000
C 5.500000 4.500000 4.000000
C 5.250000 4.250000 4.250000
C 5.250000 4.750000 4.750000
C 5.750000 4.250000 4.750000
C 5.750000 4.750000 4.250000
C 0.000000 5.000000 4.000000
C 0.000000 5.500000 4.500000
C 0.500000 5.000000 4.500000
C 0.500000 5.500000 4.000000
C 0.250000 5.250000 4.250000
C 0.250000 5.750000 4.750000
C 0.750000 5.250000 4.750000
C 0.750000 5.750000 4.250000
C 1.000000 5.000000 4.000000
C 1.000000 5.500000 4.500000
C 1.500000 5.000000 4.500000
C 1.500000 5.500000 4.000000
C 1.250000 5.250000 4.250000
C 1.250000 5.750000 4.750000
C 1.750000 5.250000 4.750000
C 1.750000 5.750000 4.250000
C 2.000000 5.000000 4.000000
C 2.000000 5.500000 4.500000
C 2.500000 5.000000 4.500000
C 2.500000 5.500000 4.000000
C 2.250000 5.250000 4.250000
C 2.250000 5.750000 4.750000
C 2.750000 5.250000 4.750000
C 2.750000 5.750000 4.250000
C 3.000000 5.000000 4.000000
C 3.000000 5.500000 4.500000
C 3.500000 5.000000 4.500000
C 3.500000 5.500000 4.000000
C 3.250000 5.250000 4.250000
C 3.250000 5.750000 4.750000
C 3.750000 5.250000 4.750000
C 3.750000 5.750000 4.250000
C 4.000000 5.000000 4.000000
C 4.000000 5.500000 4.500000
C 4.500000 5.000000 4.500000
C 4.500000 5.500000 4.000000
C 4.250000 5.250000 4.250000
C 4.250000 5.750000 4.750000
C 4.750000 5.250000 4.750000
C 4.750000 5.750000 4.250000
C 5.000000 5.000000 4.000000
C 5.000000 5.500000 4.500000
C 5.500000 5.000000 4.500000
C 5.500000 5.500000 4.000000
C 5.250000 5.250000 4.250000
C 5.250000 5.750000 4.750000
C 5.750000 5.250000 4.750000
C 5.750000 5.750000 4.250000
C 0.000000 0.000000 5.000000
C 0.000000 0.500000 5.500000
C 0.500000 0.000000 5.500000
C 0.500000 0.500000 5.000000
C 0.250000 0.250000 5.250000
C 0.250000 0.750000 5.750000
C 0.750000 0.250000 5.750000
C 0.750000 0.750000 5.250000
C 1.000000 0.000000 5.000000
C 1.000000 0.500000 5.500000
C 1.500000 0.000000 5.500000
C 1.500000 0.500000 5.000000
C 1.250000 0.250000 5.250000
C 1.250000 0.750000 5.750000
C 1.750000 0.250000 5.750000
C 1.750000 0.750000 5.250000
C 2.000000 0.000000 5.000000
C 2.000000 0.500000 5.500000
C 2.500000 0.000000 5.500000
C 2.500000 0.500000 5.000000
C 2.250000 0.250000 5.250000
C 2.250000 0.750000 5.750000
C 2.750000 0.250000 5.750000
C 2.750000 0.750000 5.250000
C 3.000000 0.000000 5.000000
C 3.000000 0.500000 5.500000
C 3.500000 0.000000 5.500000
C 3.500000 0.500000 5.000000
C 3.250000 0.250000 5.250000
C 3.250000 0.750000 5.750000
C 3.750000 0.250000 5.750000
C 3.750000 0.750000 5.250000
C 4.000000 0.000000 5.000000
C 4.000000 0.500000 5.500000
C 4.500000 0.000000 5.500000
C 4.500000 0.500000 5.000000
C 4.250000 0.250000 5.250000
C 4.250000 0.750000 5.750000
C 4.750000 0.250000 5.750000
C 4.750000 0.750000 5.250000
C 5.000000 0.000000 5.000000
C 5.000000 0.500000 5.500000
C 5.500000 0.000000 5.500000
C 5.500000 0.500000 5.000000
C 5.250000 0.250000 5.250000
C 5.250000 0.750000 5.750000
C 5.750000 0.250000 5.750000
C 5.750000 0.750000 5.250000
C 0.000000 1.000000 5.000000
C 0.000000 1.500000 5.500000
C 0.500000 1.000000 5.500000
C 0.500000 1.500000 5.000000
C 0.250000 1.250000 5.250000
C 0.250000 1.750000 5.750000
C 0.750000 1.250000 5.750000
C 0.750000 1.750000 5.250000
C 1.000000 1.000000 5.000000
C 1.000000 1.500000 5.500000
C 1.500000 1.000000 5.500000
C 1.500000 1.500000 5.000000
C 1.250000 1.250000 5.250000
C 1.250000 1.750000 5.750000
C 1.750000 1.250000 5.750000
C 1.750000 1.750000 5.250000
C 2.000000 1.000000 5.000000
C 2.000000 1.500000 5.500000
C 2.500000 1.000000 5.500000
C 2.500000 1.500000 5.000000
C 2.250000 1.250000 5.250000
C 2.250000 1.750000 5.750000
C 2.750000 1.250000 5.750000
C 2.750000 1.750000 5.250000
C 3.000000 1.000000 5.000000
C 3.000000 1.500000 5.500000
C 3.500000 1.000000 5.500000
C 3.500000 1.500000 5.000000
C 3.250000 1.250000 5.250000
C 3.250000 1.750000 5.750000
C 3.750000 1.250000 5.750000
C 3.750000 1.750000 5.250000
C 4.000000 1.000000 5.000000
C 4.000000 1.500000 5.500000
C 4.500000 1.000000 5.500000
C 4.500000 1.500000 5.000000
C 4.250000 1.250000 5.250000
C 4.250000 1.750000 5.750000
C 4.750000 1.250000 5.750000
C 4.750000 1.750000 5.250000
C 5.000000 1.000000 5.000000
C 5.000000 1.500000 5.500000
C 5.500000 1.000000 5.500000
C 5.500000 1.500000 5.000000
C 5.250000 1.250000 5.250000
C 5.250000 1.750000 5.750000
C 5.750000 1.250000 5.750000
C 5.750000 1.750000 5.250000
C 0.000000 2.000000 5.000000
C 0.000000 2.500000 5.500000
C 0.500000 2.000000 5.500000
C 0.500000 2.500000 5.000000
C 0.250000 2.250000 5.250000
C 0.250000 2.750000 5.750000
C 0.750000 2.250000 5.750000
C 0.750000 2.750000 5.250000
C 1.000000 2.000000 5.000000
C 1.000000 2.500000 5.500000
C 1.500000 2.000000 5.500000
C 1.500000 2.500000 5.000000
C 1.250000 2.250000 5.250000
C 1.250000 2.750000 5.750000
C 1.750000 2.250000 5.750000
C 1.750000 2.750000 5.250000
C 2.000000 2.000000 5.000000
C 2.000000 2.500000 5.500000
C 2.500000 2.000000 5.500000
C 2.500000 2.500000 5.000000
C 2.250000 2.250000 5.250000
C 2.250000 2.750000 5.750000
C 2.750000 2.250000 5.750000
C 2.750000 2.750000 5.250000
C 3.000000 2.000000 5.000000
C 3.000000 2.500000 5.500000
C 3.500000 2.000000 5.500000
C 3.500000 2.500000 5.000000
C 3.250000 2.250000 5.250000
C 3.250000 2.750000 5.750000
C 3.750000 2.250000 5.750000
C 3.750000 2.750000 5.250000
C 4.000000 2.000000 5.000000
C 4.000000 2.500000 5.500000
C 4.500000 2.000000 5.500000
C 4.500000 2.500000 5.000000
C 4.250000 2.250000 5.250000
C 4.250000 2.750000 5.750000
C 4.750000 2.250000 5.750000
C 4.750000 2.750000 5.250000
C 5.000000 2.000000 5.000000
C 5.000000 2.500000 5.500000
C 5.500000 2.000000 5.500000
C 5.500000 2.500000 5.000000
C 5.250000 2.250000 5.250000
C 5.250000 2.750000 5.750000
C 5.750000 2.250000 5.750000
C 5.750000 2.750000 5.250000
C 0.000000 3.000000 5.000000
C 0.000000 3.500000 5.500000
C 0.500000 3.000000 5.500000
C 0.500000 3.500000 5.000000
C 0.250000 3.250000 5.250000
C 0.250000 3.750000 5.750000
C 0.750000 3.250000 5.750000
C 0.750000 3.750000 5.250000
C 1.000000 3.000000 5.000000
C 1.000000 3.500000 5.500000
C 1.500000 3.000000 5.500000
C 1.500000 3.500000 5.000000
C 1.250000 3.250000 5.250000
C 1.250000 3.750000 5.750000
C 1.750000 3.250000 5.750000
C 1.750000 3.750000 5.250000
C 2.000000 3.000000 5.000000
C 2.000000 3.500000 5.500000
C 2.500000 3.000000 5.500000
C 2.500000 3.500000 5.000000
C 2.250000 3.250000 5.250000
C 2.250000 3.750000 5.750000
C 2.750000 3.250000 5.750000
C 2.750000 3.750000 5.250000
C 3.000000 3.000000 5.000000
C 3.000000 3.500000 5.500000
C 3.500000 3.000000 5.500000
C 3.500000 3.500000 5.000000
C 3.250000 3.250000 5.250000
C 3.250000 3.750000 5.750000
C 3.750000 3.250000 5.750000
C 3.750000 3.750000 5.250000
C 4.000000 3.000000 5.000000
C 4.000000 3.500000 5.500000
C 4.500000 3.000000 5.500000
C 4.500000 3.500000 5.000000
C 4.250000 3.250000 5.250000
C 4.250000 3.750000 5.750000
C 4.750000 3.250000 5.750000
C 4.750000 3.750000 5.250000
C 5.000000 3.000000 5.000000
C 5.000000 3.500000 5.500000
C 5.500000 3.000000 5.500000
C 5.500000 3.500000 5.000000
C 5.250000 3.250000 5.250000
C 5.250000 3.750000 5.750000
C 5.750000 3.250000 5.750000
C 5.750000 3.750000 5.250000
C 0.000000 4.000000 5.000000
C 0.000000 4.500000 5.500000
C 0.500000 4.000000 5.500000
C 0.500000 4.500000 5.000000
C 0.250000 4.250000 5.250000
C 0.250000 4.750000 5.750000
C 0.750000 4.250000 5.750000
C 0.750000 4.750000 5.250000
C 1.000000 4.000000 5.000000
C 1.000000 4.500000 5.500000
C 1.500000 4.000000 5.500000
C 1.500000 4.500000 5.000000
C 1.250000 4.250000 5.250000
C 1.250000 4.750000 5.750000
C 1.750000 4.250000 5.750000
C 1.750000 4.750000 5.250000
C 2.000000 4.000000 5.000000
C 2.000000 4.500000 5.500000
C 2.500000 4.000000 5.500000
C 2.500000 4.500000 5.000000
C 2.250000 4.250000 5.250000
C 2.250000 4.750000 5.750000
C 2.750000 4.250000 5.750000
C 2.750000 4.750000 5.250000
C 3.000000 4.000000 5.000000
C 3.000000 4.500000 5.500000
C 3.500000 4.000000 5.500000
C 3.500000 4.500000 5.000000
C 3.250000 4.250000 5.250000
C 3.250000 4.750000 5.750000
C 3.750000 4.250000 5.750000
C 3.750000 4.750000 5.250000
C 4.000000 4.000000 5.000000
C 4.000000 4.500000 5.500000
C 4.500000 4.000000 5.500000
C 4.500000 4.500000 5.000000
C 4.250000 4.250000 5.250000
C 4.250000 4.750000 5.750000
C 4.750000 4.250000 5.750000
C 4.750000 4.750000 5.250000
C 5.000000 4.000000 5.000000
C 5.000000 4.500000 5.500000
C 5.500000 4.000000 5.500000
C 5.500000 4.500000 5.000000
C 5.250000 4.250000 5.250000
C 5.250000 4.750000 5.750000
C 5.750000 4.250000 5.750000
C 5.750000 4.750000 5.250000
C 0.000000 5.000000 5.000000
C 0.000000 5.500000 5.500000
C 0.500000 5.000000 5.500000
C 0.500000 5.500000 5.000000
C 0.250000 5.250000 5.250000
C 0.250000 5.750000 5.750000
C 0.750000 5.250000 5.750000
C 0.750000 5.750000 5.250000
C 1.000000 5.000000 5.000000
C 1.000000 5.500000 5.500000
C 1.500000 5.000000 5.500000
C 1.500000 5.500000 5.000000
C 1.250000 5.250000 5.250000
C 1.250000 5.750000 5.750000
C 1.750000 5.250000 5.750000
C 1.750000 5.750000 5.250000
C 2.000000 5.000000 5.000000
C 2.000000 5.500000 5.500000
C 2.500000 5.000000 5.500000
C 2.500000 5.500000 5.000000
C 2.250000 5.250000 5.250000
C 2.250000 5.750000 5.750000
C 2.750000 5.250000 5.750000
C 2.750000 5.750000 5.250000
C 3.000000 5.000000 5.000000
C 3.000000 5.500000 5.500000
C 3.500000 5.000000 5.500000
C 3.500000 5.500000 5.000000
C 3.250000 5.250000 5.250000
C 3.250000 5.750000 5.750000
C 3.750000 5.250000 5.750000
C 3.750000 5.750000 5.250000
C 4.000000 5.000000 5.000000
C 4.000000 5.500000 5.500000
C 4.500000 5.000000 5.500000
C 4.500000 5.500000 5.000000
C 4.250000 5.250000 5.250000
C 4.250000 5.750000 5.750000
C 4.750000 5.250000 5.750000
C 4.750000 5.750000 5.250000
C 5.000000 5.000000 5.000000
C 5.000000 5.500000 5.500000
C 5.500000 5.000000 5.500000
C 5.500000 5.500000 5.000000
C 5.250000 5.250000 5.250000
C 5.250000 5.750000 5.750000
C 5.750000 5.250000 5.750000
C 5.750000 5.750000 5.250000
1728
Frame 2/10
C 0.028464 0.011871 0.018309
C 0.017461 0.510465 0.510555
C 0.492897 0.014325 0.522400
C 0.504070 0.518993 0.002132
C 0.229335 0.273059 0.256083
C 0.230141 0.759301 0.747365
C 0.750072 0.244410 0.769851
C 0.736250 0.753321 0.249102
C 0.980937 0.014820 0.018854
C 0.995413 0.483834 0.493306
C 1.501957 0.015882 0.495061
C 1.477240 0.491604 0.006456
C 1.244643 0.245513 0.244228
C 1.240485 0.741593 0.757037
C 1.756598 0.261330 0.754890
C 1.743433 0.750103 0.234602
C 2.007163 0.005608 0.013492
C 2.001559 0.498667 0.518118
C 2.496786 0.005114 0.499597
C 2.488122 0.513132 0.007119
C 2.242767 0.246214 0.258059
C 2.246215 0.735000 0.759655
C 2.755610 0.244574 0.743211
C 2.740878 0.736527 0.241817
C 3.007916 0.006782 0.002400
C 3.003332 0.507898 0.514771
C 3.506387 0.002298 0.484980
C 3.510687 0.495619 0.002402
C 3.255217 0.265466 0.228227
C 3.259117 0.755752 0.746897
C 3.757591 0.248748 0.737796
C 3.744485 0.773340 0.247989
C 4.027464 0.012202 0.002496
C 3.981539 0.504717 0.506361
C 4.507822 0.014964 0.494448
C 4.490414 0.507878 0.013535
C 4.253872 0.260899 0.241695
C 4.248604 0.757355 0.762253
C 4.753287 0.260060 0.750021
C 4.750349 0.737698 0.247469
C 4.976790 0.000740 0.007954
C 5.005281 0.494050 0.492398
C 5.488714 0.009176 0.515013
C 5.499358 0.480716 0.023155
C 5.237893 0.239207 0.262412
C 5.247735 0.740380 0.765677
C 5.738822 0.256469 0.755524
C 5.736326 0.744467 0.245484
C 0.000559 0.981554 0.003976
C 0.015426 1.498241 0.505867
C 0.490286 0.991795 0.479202
C 0.489270 1.495416 0.021336
C 0.244160 1.240945 0.243172
C 0.237922 1.758704 0.729606
C 0.745899 1.235342 0.751487
C 0.754125 1.748646 0.266659
C 1.005035 0.988344 0.001477
C 0.987894 1.494707 0.498445
C 1.516811 1.001711 0.516058
C 1.499031 1.499388 0.006171
C 1.240289 1.241093 0.263158
C 1.234034 1.746337 0.737479
C 1.732631 1.254046 0.748585
C 1.744789 1.754005 0.265336
C 1.987450 1.011906 0.004307
C 1.999482 1.505229 0.495215
C 2.489915 1.002881 0.515504
C 2.503665 1.506018 0.006914
C 2.262265 1.254417 0.245454
C 2.247073 1.738169 0.741772
C 2.750533 1.266096 0.759072
C 2.739327 1.767055 0.243477
C 3.005077 1.002365 0.015433
C 3.007001 1.508414 0.502384
C 3.498042 1.006843 0.494140
C 3.518977 1.477425 0.000467
C 3.256495 1.247121 0.230236
C 3.241719 1.762279 0.765832
C 3.747793 1.259106 0.736985
C 3.764773 1.738942 0.241480
C 3.999291 1.018884 0.008141
C 4.007840 1.498802 0.504485
C 4.504947 0.986244 0.512979
C 4.505546 1.498114 0.017646
C 4.268779 1.237069 0.251158
C 4.259060 1.736053 0.735466
C 4.750202 1.254232 0.742663
C 4.752254 1.748995 0.239616
C 4.988078 1.000461 0.002373
C 5.006700 1.484063 0.487250
C 5.495650 1.006344 0.504668
C 5.482861 1.497162 0.005045
C 5.253967 1.232903 0.241703
C 5.243426 1.748565 0.741701
C 5.746315 1.262051 0.754119
C 5.739813 1.754305 0.242971
C 0.017247 1.989110 0.015285
C 0.000145 2.514613 0.498312
C 0.492649 1.980345 0.501538
C 0.515820 2.509741 0.012092
C 0.243094 2.251006 0.249316
C 0.259070 2.731655 0.747324
C 0.736860 2.250915 0.744711
C 0.731366 2.764619 0.255993
C 1.014652 2.020258 0.004699
C 1.008571 2.508357 0.496794
C 1.494840 1.998305 0.499932
C 1.518033 2.518644 0.003450
C 1.242899 2.241345 0.258746
C 1.235717 2.740429 0.747116
C 1.740667 2.258819 0.751576
C 1.771795 2.754397 0.251330
C 2.006551 2.009026 0.008489
C 2.003647 2.502502 0.495478
C 2.518789 1.999843 0.513633
C 2.507058 2.486703 0.019220
C 2.255607 2.242117 0.260148
C 2.250257 2.763321 0.747888
C 2.734421 2.260587 0.753339
C 2.755351 2.754103 0.242747
C 3.014350 2.000955 0.012866
C 2.984379 2.493074 0.518348
C 3.508239 1.992803 0.515100
C 3.492393 2.514766 0.019642
C 3.263096 2.253889 0.255132
C 3.262016 2.754205 0.752886
C 3.738924 2.259414 0.762862
C 3.759439 2.743975 0.250393
C 4.016698 2.003787 0.006128
C 4.010504 2.505784 0.488777
C 4.488193 1.985653 0.503816
C 4.499312 2.529808 0.013755
C 4.260754 2.245570 0.239103
C 4.238527 2.741931 0.744597
C 4.755213 2.250125 0.758468
C 4.752940 2.729750 0.252865
C 4.988910 1.995724 0.000459
C 4.999896 2.503769 0.504973
C 5.493165 1.981056 0.509089
C 5.493051 2.503373 0.016838
C 5.237319 2.254935 0.251961
C 5.249889 2.737016 0.740391
C 5.747475 2.259971 0.725469
C 5.734279 2.743702 0.265465
C 0.017178 3.007465 0.011865
C 0.002447 3.528645 0.498867
C 0.512946 2.996092 0.506091
C 0.506245 3.498883 0.000698
C 0.244115 3.248020 0.267501
C 0.242264 3.754988 0.754883
C 0.765813 3.256678 0.746264
C 0.757841 3.765228 0.256640
C 0.983856 2.980808 0.007215
C 1.010210 3.496232 0.514699
C 1.504902 3.008353 0.475994
C 1.501822 3.515648 0.001266
C 1.231425 3.248449 0.243523
C 1.253285 3.745772 0.747152
C 1.760292 3.249332 0.730216
C 1.752462 3.753026 0.244111
C 1.987796 2.987201 0.001171
C 1.991306 3.503447 0.486179
C 2.517397 3.006366 0.504441
C 2.500114 3.513109 0.009308
C 2.240771 3.253601 0.263173
C 2.270756 3.757756 0.763401
C 2.751562 3.239429 0.753720
C 2.726513 3.735726 0.262436
C 3.004380 3.014114 0.005365
C 2.995861 3.480387 0.498971
C 3.499390 3.001851 0.495499
C 3.501595 3.484232 0.006328
C 3.238850 3.258818 0.251779
C 3.254887 3.764664 0.744927
C 3.766995 3.242990 0.753018
C 3.755130 3.752632 0.244633
C 4.000032 3.003652 0.002705
C 3.984356 3.501420 0.505651
C 4.504783 2.988869 0.512580
C 4.485444 3.501875 0.014975
C 4.250159 3.253891 0.230829
C 4.238435 3.745754 0.754347
C 4.746566 3.258540 0.754794
C 4.761688 3.743329 0.234826
C 4.999343 3.010818 0.006917
C 4.997500 3.488361 0.487391
C 5.506478 3.007757 0.490825
C 5.497999 3.483878 0.009272
C 5.238498 3.259347 0.241136
C 5.254362 3.753915 0.749830
C 5.749712 3.244961 0.741769
C 5.736509 3.736486 0.263530
C 0.006818 3.983245 0.015535
C 0.015107 4.502531 0.480271
C 0.503470 3.980182 0.480976
C 0.490219 4.495613 0.001913
C 0.249843 4.247357 0.236121
C 0.262792 4.740785 0.765790
C 0.734957 4.235625 0.748684
C 0.741202 4.736595 0.263500
C 1.008217 3.990381 0.022297
C 1.014301 4.491560 0.490793
C 1.497863 3.991845 0.515359
C 1.472359 4.498022 0.015388
C 1.264362 4.251535 0.256109
C 1.252489 4.747019 0.769176
C 1.747788 4.254729 0.767413
C 1.759476 4.747433 0.234204
C 2.016847 3.980251 0.011159
C 2.003497 4.500154 0.481167
C 2.487364 3.998507 0.487372
C 2.492877 4.491272 0.013154
C 2.235221 4.247912 0.241807
C 2.238098 4.770112 0.736899
C 2.742407 4.245255 0.746291
C 2.771705 4.738896 0.257960
C 3.006635 3.991281 0.017724
C 2.996416 4.498347 0.513618
C 3.510385 3.987833 0.493538
C 3.492489 4.527130 0.008019
C 3.251979 4.248093 0.236453
C 3.224643 4.752772 0.767510
C 3.763233 4.236582 0.737053
C 3.752345 4.762645 0.243794
C 3.976098 4.012408 0.002038
C 3.991325 4.491337 0.504752
C 4.498225 4.009563 0.487261
C 4.480658 4.485349 0.000448
C 4.253247 4.235975 0.242990
C 4.251219 4.776113 0.751182
C 4.755864 4.268943 0.750347
C 4.731885 4.744217 0.262143
C 5.006286 4.002273 0.007309
C 4.991799 4.504673 0.480678
C 5.514158 3.995436 0.496207
C 5.479967 4.500390 0.013579
C 5.239550 4.256707 0.250521
C 5.248259 4.745781 0.766314
C 5.740232 4.238183 0.750252
C 5.736084 4.759735 0.252068
C 0.008748 4.980083 0.020251
C 0.015882 5.513579 0.482875
C 0.504833 5.018372 0.497038
C 0.478994 5.496812 0.014071
C 0.235688 5.239859 0.269860
C 0.243665 5.749269 0.738290
C 0.763447 5.261731 0.743615
C 0.748068 5.732651 0.231169
C 0.985946 4.990074 0.010932
C 0.994644 5.518445 0.489393
C 1.502618 5.007031 0.511954
C 1.515032 5.504187 0.002635
C 1.239613 5.248067 0.249445
C 1.237352 5.747923 0.733895
C 1.743858 5.252378 0.761280
C 1.743298 5.737369 0.265374
C 1.989152 5.003183 0.023876
C 1.986461 5.487376 0.505050
C 2.486712 4.992889 0.502964
C 2.502644 5.490623 0.007764
C 2.238659 5.236160 0.240457
C 2.265787 5.736061 0.766038
C 2.756071 5.264305 0.755999
C 2.770976 5.747943 0.253911
C 2.989089 4.986585 0.015846
C 2.999230 5.489415 0.506563
C 3.497906 4.999702 0.512903
C 3.491318 5.492096 0.006023
C 3.254841 5.239143 0.234886
C 3.273173 5.743909 0.730701
C 3.769854 5.244242 0.752082
C 3.769369 5.737551 0.244987
C 4.007509 4.984500 0.005229
C 4.001555 5.486419 0.478583
C 4.487919 4.986932 0.503323
C 4.501206 5.484586 0.006928
C 4.266981 5.250304 0.264356
C 4.220871 5.749677 0.767620
C 4.753616 5.231529 0.753878
C 4.758979 5.733332 0.259753
C 4.985925 5.001910 0.005049
C 4.997138 5.487355 0.492625
C 5.484019 4.998611 0.497560
C 5.488879 5.481096 0.003277
C 5.258049 5.250404 0.267678
C 5.240464 5.730639 0.738882
C 5.747371 5.227722 0.755287
C 5.740254 5.737421 0.231900
C 0.002678 0.008633 0.969164
C 0.007983 0.478574 1.509400
C 0.478967 0.002140 1.504815
C 0.494774 0.485476 1.007366
C 0.260337 0.257243 1.256600
C 0.248644 0.730632 1.737597
C 0.738475 0.257350 1.754101
C 0.768053 0.758290 1.243721
C 1.011290 0.007538 0.994033
C 1.014716 0.481290 1.506894
C 1.522828 0.002438 1.505290
C 1.481625 0.490822 0.998832
C 1.252029 0.241992 1.247746
C 1.259275 0.755832 1.754679
C 1.760411 0.267225 1.758809
C 1.751055 0.739561 1.236186
C 1.983144 0.006191 0.994650
C 2.021412 0.498298 1.490312
C 2.516110 0.000694 1.495249
C 2.484176 0.491144 0.996845
C 2.237906 0.256935 1.245968
C 2.268250 0.744879 1.742228
C 2.748277 0.260634 1.752598
C 2.738684 0.754393 1.234459
C 3.005812 0.012731 0.979165
C 2.997598 0.493360 1.511822
C 3.508552 0.004027 1.506928
C 3.522632 0.495776 1.008359
C 3.234804 0.242766 1.259048
C 3.256756 0.758823 1.739897
C 3.754735 0.268939 1.742580
C 3.766529 0.759222 1.251000
C 4.010431 0.025953 1.000067
C 3.997529 0.483275 1.496680
C 4.495249 0.021987 1.502107
C 4.487164 0.503362 0.997119
C 4.252441 0.241916 1.254222
C 4.262657 0.763574 1.735500
C 4.733431 0.245189 1.749332
C 4.755401 0.732110 1.260814
C 5.000182 0.018225 1.000158
C 5.014732 0.484747 1.498120
C 5.502293 0.004073 1.504033
C 5.486052 0.494014 0.977999
C 5.271319 0.256776 1.239380
C 5.240420 0.740641 1.738161
C 5.744491 0.259233 1.759421
C 5.740622 0.761970 1.264165
C 0.004746 1.009799 1.011549
C 0.000736 1.501568 1.487775
C 0.512204 0.999924 1.484687
C 0.493219 1.513188 0.988998
C 0.260805 1.239007 1.267274
C 0.240223 1.756997 1.756302
C 0.728755 1.261421 1.761190
C 0.767177 1.737933 1.249676
C 0.997416 1.012229 1.008793
C 1.016410 1.496785 1.509583
C 1.510337 0.996615 1.486509
C 1.499236 1.507194 1.016144
C 1.257691 1.240462 1.265447
C 1.248489 1.748621 1.751172
C 1.749504 1.260983 1.754913
C 1.759151 1.770627 1.260335
C 1.994060 0.983073 1.005061
C 2.011028 1.511626 1.491799
C 2.509248 0.995499 1.484306
C 2.485019 1.493955 0.990187
C 2.242402 1.248517 1.246869
C 2.261966 1.727747 1.754850
C 2.759879 1.236920 1.737927
C 2.746324 1.756741 1.263648
C 2.986653 1.010167 1.007226
C 2.991359 1.491872 1.510469
C 3.516841 0.992717 1.510673
C 3.515543 1.502518 0.984518
C 3.251697 1.245421 1.248169
C 3.251091 1.761134 1.753340
C 3.748486 1.262589 1.753839
C 3.750298 1.758602 1.260111
C 4.007863 1.010981 0.999871
C 4.005059 1.507429 1.492590
C 4.500603 1.008833 1.497551
C 4.486633 1.498829 0.993312
C 4.255356 1.238262 1.239159
C 4.235662 1.748493 1.753357
C 4.738550 1.245655 1.760425
C 4.749696 1.740352 1.243190
C 4.988309 0.992749 1.010472
C 4.985082 1.504025 1.497444
C 5.485083 0.997014 1.502076
C 5.484937 1.488112 0.998486
C 5.272616 1.243330 1.260460
C 5.255279 1.767588 1.739425
C 5.736606 1.238479 1.737650
C 5.748221 1.731641 1.239877
C 0.004407 1.995404 0.993650
C 0.000378 2.509670 1.494579
C 0.484709 1.995422 1.489660
C 0.489502 2.500670 1.009730
C 0.246013 2.231438 1.241059
C 0.238361 2.762697 1.757503
C 0.766381 2.244035 1.745695
C 0.758052 2.752876 1.235453
C 0.999366 1.987832 1.008415
C 0.988013 2.482417 1.495351
C 1.510121 1.985279 1.506971
C 1.508319 2.513738 0.995983
C 1.247755 2.251286 1.237180
C 1.223872 2.751451 1.753149
C 1.743708 2.231581 1.752754
C 1.764254 2.741193 1.247480
C 1.982925 2.016712 1.000105
C 2.003125 2.500525 1.503923
C 2.501603 1.993664 1.509259
C 2.512527 2.508480 0.999146
C 2.246203 2.257581 1.246357
C 2.251310 2.735468 1.744365
C 2.751902 2.261106 1.737199
C 2.753528 2.760818 1.255515
C 3.000109 2.021061 0.997004
C 2.999424 2.480851 1.486264
C 3.496478 1.988040 1.512801
C 3.476802 2.495191 0.993480
C 3.242433 2.238639 1.250669
C 3.257673 2.754117 1.744738
C 3.740468 2.266391 1.735027
C 3.737722 2.748807 1.229338
C 4.004629 1.985780 0.990868
C 3.999966 2.502482 1.491784
C 4.502214 2.009985 1.491200
C 4.489389 2.487323 1.008296
C 4.233476 2.248123 1.250480
C 4.245370 2.755238 1.761847
C 4.756080 2.260124 1.737476
C 4.764677 2.766067 1.243687
C 4.988469 1.997576 0.991190
C 5.015237 2.498040 1.517276
C 5.493736 2.005683 1.497464
C 5.506994 2.495505 1.010925
C 5.238940 2.237579 1.244903
C 5.232887 2.744270 1.755567
C 5.729388 2.234782 1.754340
C 5.742817 2.744739 1.234510
C 0.014622 2.987442 0.983909
C 0.014445 3.491477 1.485363
C 0.499800 2.977824 1.489851
C 0.497387 3.504181 0.993227
C 0.263188 3.264849 1.246809
C 0.254210 3.738077 1.746855
C 0.763153 3.257807 1.752152
C 0.762299 3.762623 1.250784
C 1.014934 2.991912 0.996562
C 1.002394 3.477650 1.505982
C 1.507173 3.019545 1.483927
C 1.494721 3.511195 0.990046
C 1.248228 3.257055 1.264872
C 1.240931 3.741683 1.762342
C 1.740728 3.251568 1.741276
C 1.754568 3.769403 1.248390
C 1.997653 2.998791 1.022045
C 2.004934 3.509833 1.493372
C 2.501631 2.998794 1.507946
C 2.503054 3.485476 1.016178
C 2.254490 3.230239 1.257432
C 2.261808 3.746131 1.731863
C 2.750591 3.228356 1.750103
C 2.757094 3.751179 1.227238
C 2.991481 2.999559 1.012985
C 3.016253 3.477498 1.501731
C 3.516230 3.011351 1.487196
C 3.503995 3.496008 1.003140
C 3.242157 3.241643 1.239549
C 3.255571 3.748418 1.746270
C 3.762323 3.260884 1.748875
C 3.753691 3.737536 1.258479
C 4.002936 2.995429 1.014777
C 3.998346 3.513769 1.500860
C 4.513148 3.008344 1.504477
C 4.503927 3.521725 0.995085
C 4.254255 3.232099 1.255797
C 4.257508 3.737925 1.739190
C 4.735259 3.248913 1.750841
C 4.765525 3.740337 1.264301
C 5.000768 3.024234 0.997707
C 4.987654 3.488878 1.491133
C 5.501665 2.982326 1.514905
C 5.493460 3.492200 1.012019
C 5.244235 3.241078 1.240756
C 5.275267 3.737986 1.748311
C 5.736659 3.261455 1.763593
C 5.737898 3.726781 1.257419
C 0.002452 4.005547 0.974896
C 0.005851 4.514494 1.489625
C 0.502570 4.002005 1.507117
C 0.489285 4.485159 1.009591
C 0.236408 4.269633 1.251066
C 0.258058 4.747373 1.749380
C 0.741194 4.237968 1.748794
C 0.736450 4.737934 1.246557
C 0.997237 3.994522 1.000377
C 0.990044 4.498246 1.504461
C 1.480663 3.999434 1.487141
C 1.496414 4.490665 0.977291
C 1.243688 4.256508 1.262694
C 1.249129 4.754783 1.769571
C 1.763579 4.249129 1.742767
C 1.756769 4.745154 1.244332
C 2.008707 4.014042 1.007939
C 2.019660 4.498999 1.497149
C 2.518894 3.987886 1.491891
C 2.492420 4.511606 0.997591
C 2.261974 4.258822 1.251733
C 2.253760 4.742973 1.736094
C 2.756451 4.256719 1.753624
C 2.755061 4.745382 1.229581
C 3.011676 4.012610 0.997299
C 3.007377 4.493387 1.496459
C 3.485146 3.999570 1.504486
C 3.486239 4.513812 0.996447
C 3.252200 4.230116 1.248848
C 3.250898 4.741259 1.729735
C 3.738073 4.247282 1.751270
C 3.749722 4.757209 1.256588
C 4.002210 3.996069 0.991614
C 3.987444 4.501982 1.507339
C 4.481250 3.995367 1.488855
C 4.506671 4.506814 0.985972
C 4.260881 4.262435 1.235879
C 4.265124 4.748694 1.748346
C 4.763516 4.248787 1.738189
C 4.745154 4.731454 1.255862
C 4.976697 3.995132 1.010162
C 5.015111 4.496611 1.505859
C 5.501238 4.008354 1.481075
C 5.493774 4.506442 0.975800
C 5.240021 4.262039 1.245045
C 5.254266 4.748682 1.738542
C 5.729884 4.255348 1.732694
C 5.742409 4.734849 1.239052
C 0.002457 5.015224 1.020366
C 0.021843 5.508725 1.486477
C 0.486982 5.001625 1.516014
C 0.492092 5.501156 0.985624
C 0.248831 5.250012 1.254187
C 0.263267 5.743796 1.750258
C 0.741204 5.252931 1.730481
C 0.734398 5.731883 1.244014
C 1.006953 4.994222 1.014517
C 0.990432 5.501314 1.495468
C 1.485910 5.005736 1.501198
C 1.488278 5.493686 0.982454
C 1.234192 5.270132 1.249145
C 1.257391 5.746598 1.760176
C 1.759446 5.246092 1.739415
C 1.745028 5.749925 1.247496
C 2.000958 4.996118 0.983786
C 1.993412 5.517912 1.496258
C 2.489531 4.990778 1.497308
C 2.510061 5.492783 1.005576
C 2.252371 5.244777 1.259943
C 2.269101 5.741707 1.742307
C 2.763870 5.243626 1.747662
C 2.759419 5.744242 1.261311
C 3.006941 5.012563 1.009452
C 3.019429 5.487826 1.515415
C 3.507646 5.001626 1.479714
C 3.500138 5.512131 0.991880
C 3.236804 5.249211 1.262230
C 3.242540 5.745931 1.741130
C 3.743530 5.232925 1.757087
C 3.766038 5.735014 1.236057
C 4.016218 5.009130 1.006125
C 3.987093 5.497218 1.516746
C 4.491491 4.994899 1.498515
C 4.495314 5.507918 0.995371
C 4.258798 5.244481 1.245189
C 4.237014 5.738172 1.737452
C 4.750852 5.250388 1.737815
C 4.760711 5.737132 1.243762
C 5.001713 5.006352 1.009905
C 5.007491 5.492864 1.500966
C 5.515939 4.990294 1.512399
C 5.480615 5.501117 1.001823
C 5.263055 5.248957 1.257731
C 5.250886 5.736876 1.737300
C 5.730411 5.264723 1.750455
C 5.742255 5.732120 1.255043
C 0.005672 0.005302 1.986252
C 0.002677 0.528370 2.516257
C 0.516346 0.004282 2.498923
C 0.483082 0.481823 1.988742
C 0.232937 0.259149 2.260773
C 0.249904 0.727122 2.737114
C 0.747387 0.264408 2.744896
C 0.744825 0.734772 2.239512
C 0.997892 0.000921 2.012622
C 0.983570 0.506815 2.499100
C 1.522889 0.006917 2.511044
C 1.510580 0.496638 2.004901
C 1.248848 0.245823 2.228221
C 1.261057 0.764312 2.742463
C 1.742126 0.254149 2.747638
C 1.760251 0.752344 2.238440
C 1.999022 0.022457 1.993460
C 1.992144 0.510326 2.485286
C 2.486703 0.015610 2.496276
C 2.479082 0.491090 2.005618
C 2.268775 0.240431 2.245143
C 2.247376 0.758316 2.745384
C 2.737712 0.250339 2.750647
C 2.745348 0.744249 2.248180
C 3.004651 0.008442 1.998285
C 3.011961 0.504649 2.499234
C 3.489813 0.006895 2.484409
C 3.501733 0.483753 2.001632
C 3.257311 0.259318 2.249022
C 3.245664 0.737401 2.755509
C 3.754419 0.251818 2.736228
C 3.747755 0.751265 2.255422
C 3.992618 0.017579 2.001038
C 4.002796 0.499996 2.512334
C 4.501573 0.009785 2.519578
C 4.506115 0.498943 1.985898
C 4.253519 0.263003 2.234950
C 4.239647 0.741193 2.752833
C 4.758281 0.251715 2.729733
C 4.762726 0.766321 2.243486
C 5.019259 0.008823 2.018995
C 5.003852 0.494888 2.520032
C 5.492931 0.013607 2.493335
C 5.490800 0.477923 2.003576
C 5.259060 0.261712 2.257597
C 5.252390 0.742049 2.761969
C 5.747101 0.265664 2.743246
C 5.739580 0.754140 2.233381
C 0.002406 0.986032 1.983776
C 0.008694 1.523362 2.499248
C 0.489175 1.002414 2.498577
C 0.497521 1.499634 2.018235
C 0.240052 1.253859 2.269564
C 0.249330 1.748043 2.765211
C 0.757948 1.244369 2.757191
C 0.747387 1.754050 2.270726
C 0.990150 1.007521 2.014330
C 0.998361 1.515715 2.499159
C 1.517517 1.012104 2.512223
C 1.490882 1.498208 2.011753
C 1.257328 1.230796 2.246004
C 1.234436 1.752504 2.747966
C 1.740954 1.259602 2.752250
C 1.751975 1.769478 2.246165
C 1.994755 1.015015 1.988386
C 1.989227 1.507626 2.490444
C 2.512168 0.993903 2.486732
C 2.506220 1.483231 2.010671
C 2.259194 1.258075 2.264761
C 2.248154 1.774940 2.751467
C 2.765504 1.251506 2.735112
C 2.754483 1.754872 2.232110
C 2.994769 0.989511 2.012190
C 3.017733 1.491004 2.492053
C 3.491804 0.987214 2.492471
C 3.511292 1.486173 2.001412
C 3.256615 1.240686 2.254270
C 3.237277 1.730261 2.741492
C 3.758139 1.250734 2.767775
C 3.755291 1.736273 2.251274
C 3.989459 0.987707 1.992365
C 4.002620 1.508765 2.492132
C 4.508852 1.013471 2.512661
C 4.503266 1.481516 2.012776
C 4.255258 1.242796 2.268865
C 4.251057 1.758419 2.757462
C 4.763714 1.249229 2.734098
C 4.741920 1.769381 2.257815
C 4.992334 0.987288 1.989689
C 5.020980 1.505959 2.485360
C 5.495060 0.980710 2.504375
C 5.495738 1.494746 1.998020
C 5.263167 1.265137 2.248169
C 5.259454 1.733434 2.769658
C 5.746589 1.258544 2.761149
C 5.729447 1.736874 2.253627
C 0.000750 1.978565 2.009770
C 0.006078 2.518764 2.484374
C 0.483417 2.005900 2.509480
C 0.482917 2.494809 1.989875
C 0.244275 2.258315 2.243751
C 0.257666 2.764415 2.760251
C 0.739510 2.232422 2.741435
C 0.760706 2.754125 2.229883
C 0.986141 2.003057 1.990991
C 0.980696 2.488224 2.509811
C 1.482322 1.997334 2.512863
C 1.489384 2.508009 2.004791
C 1.257790 2.248484 2.235913
C 1.254111 2.743918 2.758196
C 1.739036 2.238975 2.752423
C 1.739390 2.757536 2.253705
C 2.006057 2.022441 2.012084
C 2.004839 2.508472 2.494978
C 2.493676 1.985037 2.511267
C 2.509228 2.506341 1.995922
C 2.262878 2.260315 2.259795
C 2.252336 2.741581 2.737779
C 2.747458 2.251535 2.746247
C 2.770884 2.753443 2.247313
C 3.000437 2.003861 2.019622
C 2.988377 2.502215 2.514554
C 3.508433 1.994456 2.498843
C 3.500866 2.504396 2.014045
C 3.241905 2.239246 2.272152
C 3.239449 2.741463 2.738364
C 3.735355 2.262001 2.742240
C 3.762817 2.734787 2.233240
C 4.023383 2.006664 1.993935
C 3.992000 2.495420 2.479188
C 4.492857 1.986039 2.512201
C 4.509478 2.487989 1.982755
C 4.266306 2.253361 2.231181
C 4.264597 2.756024 2.762077
C 4.753252 2.244605 2.751991
C 4.749800 2.759401 2.254350
C 5.018056 1.995384 2.000968
C 4.989190 2.492632 2.497753
C 5.488138 1.994229 2.517038
C 5.509626 2.493605 2.001823
C 5.254891 2.253468 2.255651
C 5.241704 2.766817 2.746414
C 5.739531 2.268495 2.756706
C 5.738032 2.746244 2.241563
C 0.021241 2.994736 2.017323
C 0.003710 3.497041 2.494460
C 0.496603 2.995805 2.507060
C 0.509482 3.496138 1.995108
C 0.233510 3.246766 2.259875
C 0.232857 3.746554 2.744876
C 0.740833 3.235614 2.736550
C 0.739206 3.743680 2.257670
C 0.976566 3.007090 2.005491
C 0.996391 3.507668 2.497881
C 1.476890 2.997501 2.518984
C 1.506631 3.512945 2.002891
C 1.240706 3.247008 2.272685
C 1.239799 3.724261 2.750636
C 1.748060 3.250248 2.759338
C 1.765665 3.750834 2.261715
C 2.003297 2.980273 2.000964
C 2.017811 3.505246 2.487894
C 2.501058 3.008276 2.483877
C 2.525120 3.489275 1.995297
C 2.242854 3.236644 2.242380
C 2.243399 3.752664 2.768034
C 2.738577 3.260774 2.746880
C 2.744667 3.767047 2.239365
C 2.987631 3.017675 2.006304
C 2.999073 3.520109 2.503234
C 3.501889 3.019998 2.497056
C 3.494596 3.494257 1.992043
C 3.256179 3.231564 2.248815
C 3.273744 3.744273 2.751166
C 3.762111 3.261787 2.741223
C 3.763185 3.740240 2.262493
C 3.998412 3.014072 2.002607
C 4.014137 3.505076 2.492617
C 4.488269 2.995181 2.499730
C 4.503707 3.477120 2.002403
C 4.247197 3.251061 2.253614
C 4.264594 3.767955 2.746255
C 4.744784 3.261028 2.740600
C 4.757408 3.752820 2.237719
C 5.004769 2.986055 2.001178
C 4.988633 3.512913 2.495877
C 5.516005 2.983091 2.491774
C 5.489904 3.518030 2.008819
C 5.255542 3.244813 2.257729
C 5.238929 3.753914 2.740829
C 5.747906 3.234939 2.727186
C 5.737740 3.750043 2.246481
C 0.022620 4.004638 1.989851
C 0.013588 4.498058 2.507889
C 0.506694 4.000349 2.482311
C 0.479036 4.492628 2.006275
C 0.268714 4.249803 2.248464
C 0.243399 4.745308 2.750525
C 0.759042 4.247925 2.738672
C 0.746041 4.763528 2.252762
C 1.003870 3.982632 2.002497
C 0.982617 4.510000 2.502680
C 1.489014 3.990098 2.492864
C 1.493770 4.506869 1.989609
C 1.264696 4.250830 2.250091
C 1.237336 4.743320 2.742172
C 1.729867 4.247078 2.750192
C 1.764566 4.757051 2.255035
C 2.004250 3.998498 1.994862
C 1.985563 4.508009 2.504176
C 2.508152 4.002393 2.504780
C 2.499537 4.508994 2.024045
C 2.248148 4.264476 2.260930
C 2.244221 4.744813 2.740471
C 2.730716 4.251493 2.756413
C 2.755884 4.766047 2.250452
C 2.988287 3.998584 1.996262
C 2.995129 4.491736 2.510061
C 3.501112 4.018561 2.511225
C 3.478956 4.489743 2.012784
C 3.263017 4.244386 2.251759
C 3.260843 4.733466 2.752395
C 3.749261 4.267016 2.735942
C 3.748542 4.736019 2.238229
C 3.989429 3.986198 1.997119
C 3.990835 4.520862 2.500045
C 4.491968 4.019263 2.508785
C 4.503995 4.482876 1.988831
C 4.253958 4.264914 2.254320
C 4.248381 4.752588 2.762323
C 4.746721 4.245329 2.741121
C 4.756625 4.749866 2.241734
C 4.991162 4.005870 2.014520
C 4.993725 4.489413 2.491383
C 5.496285 4.012806 2.489223
C 5.517324 4.504670 1.999528
C 5.235250 4.240183 2.251831
C 5.249939 4.743927 2.766058
C 5.746232 4.260554 2.758962
C 5.731002 4.744961 2.242935
C 0.006180 5.014432 1.987759
C 0.003126 5.483714 2.487083
C 0.501647 4.994544 2.512029
C 0.486791 5.485881 2.000093
C 0.235968 5.256413 2.236031
C 0.252479 5.742135 2.742851
C 0.758529 5.259053 2.756422
C 0.756787 5.736760 2.236820
C 1.015946 5.008043 2.003382
C 1.012828 5.503693 2.492796
C 1.493844 5.009793 2.514836
C 1.480796 5.493006 2.009926
C 1.252741 5.258022 2.268629
C 1.236775 5.747834 2.754500
C 1.760735 5.229959 2.754123
C 1.765958 5.740592 2.248100
C 1.982122 5.008322 1.989809
C 2.005421 5.522016 2.493640
C 2.510694 4.980754 2.509974
C 2.508060 5.487610 1.996734
C 2.256792 5.248466 2.233413
C 2.268953 5.748474 2.743851
C 2.749591 5.236816 2.734213
C 2.736920 5.746116 2.256874
C 3.004643 5.000091 1.994886
C 2.991861 5.480791 2.505422
C 3.483721 5.017511 2.500715
C 3.500397 5.514800 2.002989
C 3.249229 5.246289 2.245919
C 3.232753 5.749504 2.737657
C 3.738133 5.251677 2.750842
C 3.769989 5.748467 2.237824
C 3.989662 4.984770 2.007181
C 3.999690 5.507736 2.494185
C 4.509261 4.984703 2.509624
C 4.498717 5.507962 1.985289
C 4.235371 5.258568 2.239177
C 4.262054 5.742987 2.763998
C 4.742202 5.271796 2.751181
C 4.732663 5.745292 2.262581
C 4.987469 5.000534 1.998048
C 5.015770 5.499124 2.505024
C 5.508673 4.998014 2.486333
C 5.478188 5.495131 1.990623
C 5.245620 5.249199 2.240600
C 5.261154 5.745509 2.727060
C 5.744612 5.262045 2.731664
C 5.736310 5.734494 2.234719
C 0.008369 0.017093 3.008581
C 0.011095 0.505637 3.479028
C 0.486848 0.005394 3.482278
C 0.508557 0.487338 2.996140
C 0.256947 0.251209 3.220387
C 0.234681 0.748275 3.739051
C 0.751965 0.237540 3.761043
C 0.746636 0.736495 3.260308
C 0.986906 0.001394 3.001089
C 0.996007 0.504224 3.512216
C 1.509261 0.002306 3.513981
C 1.498287 0.490024 2.984495
C 1.242867 0.249382 3.261242
C 1.242487 0.756142 3.737396
C 1.756238 0.245092 3.763521
C 1.764706 0.748040 3.243722
C 1.986978 0.000966 3.005702
C 1.982867 0.501576 3.513932
C 2.493450 0.012578 3.508390
C 2.499740 0.504355 3.011121
C 2.242325 0.242329 3.233480
C 2.232460 0.742469 3.739319
C 2.748578 0.269103 3.741549
C 2.755174 0.738623 3.257230
C 2.991141 0.008233 2.990416
C 3.011078 0.503463 3.479398
C 3.489935 0.004180 3.475138
C 3.497852 0.522221 3.001514
C 3.244160 0.242670 3.264556
C 3.247176 0.763582 3.756258
C 3.750004 0.227288 3.743582
C 3.745163 0.758814 3.237723
C 4.002430 0.018594 3.002306
C 4.006326 0.484323 3.512434
C 4.505052 0.001055 3.521905
C 4.486445 0.501031 3.000976
C 4.270149 0.233745 3.245370
C 4.263373 0.747416 3.756792
C 4.770792 0.246679 3.743344
C 4.753050 0.743340 3.272369
C 4.980647 0.004987 3.004026
C 5.009744 0.510510 3.488509
C 5.507481 0.021539 3.502380
C 5.501765 0.484566 2.998206
C 5.234456 0.243430 3.240875
C 5.241996 0.756266 3.750581
C 5.743155 0.262658 3.764907
C 5.740672 0.760901 3.253757
C 0.011262 0.990225 2.992975
C 0.018197 1.488714 3.498536
C 0.487104 1.005686 3.486532
C 0.498252 1.502824 3.007113
C 0.259845 1.239900 3.235020
C 0.248303 1.753378 3.769376
C 0.749271 1.255528 3.732277
C 0.741299 1.755907 3.244762
C 1.012581 1.008835 3.008198
C 0.993931 1.511124 3.506880
C 1.517264 1.007187 3.506349
C 1.517510 1.507764 3.011174
C 1.253765 1.271952 3.245033
C 1.261650 1.747553 3.762185
C 1.729592 1.244129 3.759107
C 1.738377 1.761373 3.273906
C 2.012283 0.998644 3.014187
C 1.985215 1.506053 3.495376
C 2.514540 0.990386 3.499563
C 2.494469 1.516398 2.985958
C 2.264358 1.245514 3.236102
C 2.267722 1.763795 3.743078
C 2.757442 1.262631 3.739762
C 2.766800 1.740293 3.250346
C 2.988744 1.004522 3.001964
C 3.020042 1.501817 3.488391
C 3.491499 1.021438 3.500782
C 3.508601 1.490566 2.999732
C 3.252045 1.266746 3.239013
C 3.253383 1.752661 3.762108
C 3.758188 1.259719 3.747054
C 3.760418 1.758829 3.239715
C 4.018274 1.006073 2.993101
C 3.988046 1.519178 3.500427
C 4.495265 1.000789 3.479612
C 4.502722 1.491303 3.014844
C 4.249987 1.246864 3.248336
C 4.240050 1.769297 3.742367
C 4.767707 1.257862 3.739428
C 4.763419 1.746266 3.239221
C 5.013121 0.992666 2.992245
C 5.008093 1.522706 3.496118
C 5.513278 1.011222 3.487935
C 5.513142 1.515183 2.987840
C 5.243878 1.256966 3.252404
C 5.237295 1.750671 3.762338
C 5.743300 1.258064 3.735287
C 5.749361 1.754888 3.267461
C 0.002937 2.021800 3.011714
C 0.004021 2.477640 3.496602
C 0.493457 2.012241 3.502716
C 0.494202 2.490611 3.013084
C 0.257181 2.227680 3.248953
C 0.244512 2.767672 3.748708
C 0.743806 2.246980 3.743937
C 0.762212 2.741962 3.249444
C 1.016597 2.002797 2.982526
C 1.004955 2.489116 3.516627
C 1.499491 2.013003 3.495131
C 1.486789 2.488819 3.006426
C 1.246456 2.240361 3.238131
C 1.241929 2.757524 3.750092
C 1.746715 2.245312 3.736218
C 1.755291 2.764078 3.257158
C 1.983117 2.019536 2.999468
C 2.009978 2.495905 3.493471
C 2.502615 2.010135 3.496439
C 2.484972 2.505293 2.986029
C 2.257642 2.234429 3.255882
C 2.235834 2.768461 3.750963
C 2.760327 2.249222 3.772871
C 2.750571 2.766011 3.242701
C 3.002524 1.993613 3.025916
C 2.998680 2.497160 3.493949
C 3.477725 1.990844 3.492356
C 3.518034 2.512349 2.993388
C 3.235805 2.251483 3.242903
C 3.248729 2.737958 3.754057
C 3.765478 2.247642 3.744844
C 3.742672 2.724497 3.261662
C 4.000404 1.996320 2.983012
C 3.988160 2.497404 3.502419
C 4.513898 1.990867 3.501247
C 4.506749 2.483601 2.990536
C 4.231688 2.240288 3.249351
C 4.233711 2.760837 3.762546
C 4.753654 2.248756 3.743641
C 4.757480 2.740245 3.256348
C 5.004287 1.987442 2.991695
C 4.994552 2.518825 3.518299
C 5.502151 1.995915 3.494512
C 5.485592 2.495033 3.010604
C 5.273858 2.243631 3.244893
C 5.256106 2.765427 3.765395
C 5.744220 2.257662 3.749942
C 5.726125 2.741806 3.246299
C 0.004216 2.983022 2.995671
C 0.002122 3.516575 3.508271
C 0.512185 2.991283 3.502540
C 0.486895 3.492848 2.995617
C 0.254644 3.257266 3.254080
C 0.247986 3.754124 3.767463
C 0.736020 3.245545 3.738387
C 0.744970 3.762256 3.256626
C 1.004047 2.998589 3.022494
C 0.992646 3.519285 3.486987
C 1.517346 3.003407 3.500379
C 1.506979 3.480653 3.006688
C 1.239071 3.251353 3.254675
C 1.244467 3.766234 3.742037
C 1.745654 3.258349 3.766535
C 1.761909 3.761641 3.263378
C 1.991940 3.015622 2.999556
C 2.003307 3.491440 3.497064
C 2.482619 2.986084 3.512261
C 2.486309 3.502719 2.982700
C 2.269780 3.246725 3.252205
C 2.240075 3.746464 3.737276
C 2.763016 3.235239 3.760180
C 2.764425 3.747173 3.251915
C 3.011192 2.991891 3.005773
C 2.995605 3.491538 3.508187
C 3.501938 2.990344 3.518047
C 3.496650 3.481926 3.009159
C 3.247017 3.245373 3.232454
C 3.234377 3.752400 3.747578
C 3.727188 3.253816 3.739382
C 3.743533 3.741572 3.257170
C 4.008433 3.000489 2.993463
C 3.988327 3.508910 3.508310
C 4.517383 3.010648 3.509932
C 4.490525 3.497541 2.987199
C 4.255797 3.233910 3.237746
C 4.273749 3.753660 3.744107
C 4.755695 3.240141 3.762975
C 4.748102 3.740415 3.246369
C 5.005040 3.007493 2.993841
C 5.015616 3.499169 3.500257
C 5.517088 2.993673 3.489275
C 5.495893 3.504100 3.012567
C 5.227758 3.239415 3.254954
C 5.262239 3.752443 3.762110
C 5.732718 3.247168 3.770367
C 5.731833 3.743079 3.259456
C 0.015599 4.000754 2.986766
C 0.006877 4.495090 3.503883
C 0.511956 4.006305 3.494598
C 0.504827 4.513166 3.006267
C 0.240678 4.247288 3.265815
C 0.262371 4.767032 3.763488
C 0.746536 4.253888 3.739201
C 0.756668 4.744598 3.230636
C 1.000955 3.981256 2.996971
C 0.993082 4.500723 3.500886
C 1.495689 4.012363 3.504043
C 1.505260 4.481661 3.003226
C 1.262695 4.258244 3.254591
C 1.246613 4.768492 3.747955
C 1.733151 4.249992 3.748088
C 1.730818 4.746817 3.240977
C 2.007278 4.002948 3.008159
C 2.002458 4.490300 3.484784
C 2.487470 3.986484 3.482743
C 2.500063 4.481854 3.011388
C 2.248766 4.246948 3.271150
C 2.257582 4.741127 3.760023
C 2.740370 4.230694 3.742240
C 2.755684 4.751047 3.267677
C 2.997372 4.002202 2.997301
C 2.995775 4.500175 3.491441
C 3.481329 4.000179 3.513676
C 3.503834 4.485747 2.991198
C 3.241310 4.228271 3.257145
C 3.245507 4.740399 3.748244
C 3.759467 4.256118 3.751863
C 3.736845 4.754878 3.271057
C 4.014685 4.002202 3.013987
C 3.989305 4.508526 3.507633
C 4.506797 3.985426 3.493995
C 4.506121 4.515373 2.984729
C 4.252169 4.255970 3.268298
C 4.238146 4.743658 3.740013
C 4.758198 4.233941 3.758889
C 4.740499 4.761179 3.244833
C 5.016660 4.004144 2.989200
C 4.993511 4.512674 3.482865
C 5.514860 4.000281 3.484234
C 5.492057 4.507786 3.010181
C 5.239498 4.258509 3.236522
C 5.241452 4.738755 3.753375
C 5.745749 4.254087 3.759721
C 5.747543 4.743821 3.241778
C 0.000809 5.013996 2.985634
C 0.016786 5.512130 3.489260
C 0.483364 5.008919 3.518891
C 0.499408 5.508738 3.009407
C 0.259500 5.260013 3.244820
C 0.258865 5.728360 3.737945
C 0.755024 5.232528 3.746546
C 0.756822 5.724273 3.253766
C 0.994848 5.014761 3.005989
C 0.990425 5.486297 3.513214
C 1.492353 5.004633 3.488721
C 1.491501 5.511120 2.987985
C 1.244058 5.250803 3.230612
C 1.247734 5.737898 3.760588
C 1.760682 5.251212 3.755718
C 1.751935 5.746668 3.234181
C 2.008817 5.022396 2.992211
C 2.005822 5.518909 3.504744
C 2.523403 5.000692 3.497111
C 2.488935 5.496064 2.978970
C 2.259682 5.263514 3.252098
C 2.246312 5.740625 3.763390
C 2.746054 5.264248 3.758638
C 2.746475 5.738879 3.236144
C 3.018867 4.991264 3.004250
C 3.012657 5.493165 3.484952
C 3.504967 5.023310 3.507707
C 3.490744 5.524533 2.998944
C 3.250090 5.264356 3.233070
C 3.245309 5.740633 3.730862
C 3.751584 5.244918 3.763662
C 3.758797 5.748154 3.267762
C 3.997330 4.994064 3.000443
C 3.992938 5.489026 3.494336
C 4.502090 5.003965 3.484540
C 4.478526 5.491864 2.992491
C 4.228562 5.257413 3.247494
C 4.245596 5.734607 3.755690
C 4.745436 5.263065 3.747569
C 4.757082 5.734661 3.260308
C 4.993544 5.003163 2.987995
C 4.990630 5.490490 3.501704
C 5.502276 4.998755 3.505177
C 5.485286 5.502112 3.000357
C 5.241913 5.262144 3.240235
C 5.256290 5.749886 3.747004
C 5.744704 5.244242 3.746079
C 5.738641 5.742362 3.227059
C 0.013515 0.028255 3.983537
C 0.003946 0.515873 4.476329
C 0.485496 0.018297 4.484012
C 0.514707 0.507677 3.992391
C 0.253953 0.251467 4.232788
C 0.248833 0.733922 4.736172
C 0.758431 0.236463 4.758268
C 0.742181 0.764897 4.243931
C 1.006621 0.013071 3.980983
C 0.998518 0.513974 4.510881
C 1.502699 0.020763 4.520458
C 1.521614 0.497668 3.984370
C 1.241905 0.239600 4.242550
C 1.254555 0.748547 4.759855
C 1.762534 0.255211 4.732956
C 1.760840 0.750115 4.242289
C 2.009903 0.015226 3.981681
C 2.009719 0.499853 4.509733
C 2.489803 0.013797 4.492186
C 2.503723 0.485642 3.986721
C 2.250330 0.247750 4.232526
C 2.246508 0.757060 4.740223
C 2.756748 0.274759 4.748294
C 2.748291 0.740020 4.270643
C 2.995754 0.012207 3.981734
C 2.985314 0.492158 4.493949
C 3.511003 0.010409 4.501572
C 3.490134 0.497711 3.987240
C 3.253737 0.251382 4.270086
C 3.250847 0.749298 4.734958
C 3.756538 0.242569 4.757135
C 3.757802 0.765104 4.238483
C 3.995924 0.019835 4.003760
C 3.986650 0.495599 4.510162
C 4.485222 0.015325 4.496854
C 4.508131 0.515430 4.010739
C 4.258559 0.257276 4.246404
C 4.251362 0.755037 4.769747
C 4.768536 0.249619 4.752987
C 4.748657 0.745147 4.263278
C 4.991971 0.007616 4.024481
C 4.980408 0.496186 4.496342
C 5.518039 0.012397 4.510361
C 5.490627 0.492518 3.997090
C 5.233569 0.249827 4.237138
C 5.263482 0.740990 4.737955
C 5.746999 0.227530 4.760673
C 5.731046 0.761057 4.256237
C 0.007322 1.003170 4.008447
C 0.012412 1.523887 4.487076
C 0.504505 1.002754 4.497096
C 0.511846 1.501839 3.991986
C 0.260749 1.249320 4.233016
C 0.249278 1.751788 4.739924
C 0.750445 1.239431 4.747230
C 0.759238 1.770371 4.237095
C 0.997494 1.009385 3.995236
C 1.014403 1.492869 4.505659
C 1.504036 1.002213 4.490776
C 1.490706 1.509739 4.017651
C 1.238088 1.236535 4.239953
C 1.254270 1.743424 4.765123
C 1.756755 1.252515 4.732963
C 1.748475 1.765917 4.260018
C 2.006177 0.998550 4.024460
C 2.009233 1.518939 4.508228
C 2.490789 0.993508 4.497679
C 2.486956 1.508971 3.993509
C 2.251432 1.237452 4.254829
C 2.257069 1.747284 4.747012
C 2.761333 1.270891 4.740723
C 2.736622 1.744130 4.237450
C 2.989283 1.016428 4.004730
C 3.015161 1.479305 4.502474
C 3.507893 0.991788 4.500595
C 3.502976 1.515139 4.016241
C 3.259257 1.238149 4.264699
C 3.238744 1.745318 4.755723
C 3.770342 1.254668 4.754596
C 3.744836 1.731829 4.260283
C 4.003512 1.018534 4.000681
C 4.013853 1.492514 4.506261
C 4.510261 0.984578 4.502845
C 4.511471 1.491175 3.987660
C 4.249887 1.255851 4.245235
C 4.254904 1.733057 4.756340
C 4.742720 1.260049 4.726433
C 4.747485 1.737227 4.258061
C 5.016147 1.004683 4.007353
C 5.008852 1.493149 4.499352
C 5.517186 1.015695 4.492845
C 5.490652 1.519009 4.006374
C 5.249017 1.241381 4.272506
C 5.257910 1.761563 4.756111
C 5.732998 1.243091 4.754141
C 5.735717 1.757345 4.253788
C 0.002379 2.009883 3.999971
C 0.013088 2.499586 4.487452
C 0.510193 2.004122 4.493007
C 0.496436 2.494418 3.985350
C 0.249313 2.236003 4.243040
C 0.255262 2.735891 4.740110
C 0.748222 2.250510 4.770342
C 0.773203 2.754448 4.244273
C 1.011042 1.994416 4.022169
C 1.005404 2.510935 4.503848
C 1.496356 2.002409 4.497719
C 1.519188 2.479594 4.010363
C 1.250333 2.271563 4.239945
C 1.264326 2.740720 4.741247
C 1.759537 2.240227 4.766669
C 1.751386 2.735781 4.260456
C 2.003626 2.003956 3.998433
C 2.004522 2.510196 4.505068
C 2.491546 1.982940 4.499887
C 2.491994 2.506042 4.008166
C 2.258417 2.256689 4.250576
C 2.256323 2.750816 4.740048
C 2.750829 2.247282 4.764656
C 2.759331 2.747113 4.233876
C 2.986621 1.999002 4.010329
C 3.002491 2.511451 4.493376
C 3.515500 1.998334 4.490039
C 3.497062 2.504162 3.988430
C 3.230846 2.247399 4.253032
C 3.251708 2.751398 4.749867
C 3.747914 2.269761 4.758150
C 3.766666 2.752746 4.252520
C 3.976400 1.999977 3.996905
C 3.999405 2.517300 4.502256
C 4.496075 1.987197 4.508140
C 4.493952 2.496319 4.000462
C 4.272643 2.259096 4.252044
C 4.245189 2.751884 4.749143
C 4.754337 2.260384 4.761652
C 4.736586 2.737840 4.235491
C 4.999565 2.010279 3.989820
C 5.005585 2.482196 4.502901
C 5.500520 2.016523 4.510463
C 5.506568 2.484337 4.001710
C 5.242699 2.251739 4.255099
C 5.262291 2.764074 4.752263
C 5.734518 2.261472 4.751081
C 5.734658 2.737405 4.255529
C 0.023079 2.984224 4.008585
C 0.006744 3.498375 4.478786
C 0.487348 3.012019 4.484453
C 0.494327 3.511342 4.012006
C 0.239952 3.237917 4.234011
C 0.255571 3.739134 4.757666
C 0.752001 3.252144 4.762635
C 0.738738 3.763027 4.243525
C 1.019431 3.011773 3.992869
C 0.995258 3.510954 4.484208
C 1.488482 2.998982 4.491326
C 1.484244 3.505867 3.997083
C 1.230640 3.240798 4.258372
C 1.243064 3.741823 4.758053
C 1.738144 3.246995 4.762536
C 1.767214 3.759587 4.249297
C 2.018033 3.003264 4.002152
C 1.999638 3.507234 4.485129
C 2.486996 3.004152 4.506923
C 2.497107 3.491296 3.985904
C 2.261927 3.260363 4.251274
C 2.246202 3.738989 4.762078
C 2.752674 3.262861 4.764648
C 2.737105 3.765078 4.248768
C 3.016048 2.983564 3.992104
C 3.002649 3.503597 4.503199
C 3.521323 2.994231 4.499104
C 3.493705 3.503136 3.978899
C 3.235358 3.242551 4.252371
C 3.249970 3.754633 4.734356
C 3.740552 3.237034 4.753724
C 3.727425 3.755623 4.248717
C 4.005035 3.009021 4.009162
C 4.020349 3.504774 4.503790
C 4.516582 3.004552 4.491730
C 4.498807 3.497933 3.984451
C 4.252744 3.233719 4.251544
C 4.262027 3.755148 4.738412
C 4.761077 3.265584 4.743272
C 4.754397 3.743741 4.243007
C 5.004597 2.978624 4.011248
C 5.010807 3.490041 4.512503
C 5.500451 2.991660 4.488908
C 5.494295 3.495585 3.989797
C 5.235790 3.232134 4.241744
C 5.244635 3.755611 4.764752
C 5.738608 3.253112 4.747735
C 5.748624 3.737164 4.273502
C 0.016455 4.023115 3.989398
C 0.010447 4.509016 4.520255
C 0.493648 4.009356 4.482063
C 0.503128 4.517363 3.998273
C 0.248283 4.244597 4.247458
C 0.253526 4.759716 4.738412
C 0.744980 4.242471 4.765319
C 0.742039 4.764915 4.239495
C 0.990809 4.005813 3.995769
C 0.997380 4.489744 4.487627
C 1.477284 3.992627 4.498811
C 1.489151 4.491766 4.013465
C 1.253219 4.238491 4.258466
C 1.247554 4.768333 4.748663
C 1.746594 4.240530 4.737686
C 1.746493 4.768520 4.252751
C 2.010837 4.019423 4.010940
C 2.011640 4.514985 4.500139
C 2.494156 4.017205 4.487548
C 2.482543 4.489162 4.002802
C 2.249515 4.260034 4.252783
C 2.248412 4.734168 4.755607
C 2.734444 4.262669 4.761042
C 2.763821 4.741103 4.251695
C 3.010937 3.999969 4.006001
C 3.000885 4.497912 4.490586
C 3.493405 3.999545 4.518164
C 3.495069 4.494250 3.989201
C 3.255357 4.278043 4.243870
C 3.258106 4.770075 4.763031
C 3.745227 4.242384 4.749400
C 3.734813 4.762175 4.260804
C 4.001055 4.006142 3.985025
C 4.013294 4.511619 4.504500
C 4.488816 4.020945 4.501448
C 4.487893 4.512706 3.997660
C 4.243371 4.252820 4.258173
C 4.263384 4.741314 4.745624
C 4.761863 4.237069 4.760019
C 4.737432 4.752911 4.254732
C 5.018961 3.996984 3.987241
C 4.986546 4.486194 4.495763
C 5.478742 4.004078 4.495358
C 5.491138 4.502143 4.005664
C 5.251241 4.250643 4.246965
C 5.250713 4.741258 4.764817
C 5.744812 4.240575 4.773363
C 5.730872 4.768030 4.246214
C 0.015967 5.004507 4.008307
C 0.009157 5.509817 4.495295
C 0.505715 4.993671 4.514758
C 0.506344 5.514396 3.992228
C 0.256223 5.235481 4.255488
C 0.234623 5.724918 4.750063
C 0.740312 5.233156 4.764802
C 0.766263 5.746146 4.245239
C 0.998283 4.995182 3.990696
C 1.000783 5.517599 4.496438
C 1.484490 5.007963 4.499050
C 1.511817 5.491892 4.006675
C 1.242898 5.260668 4.246035
C 1.233450 5.739742 4.761386
C 1.741716 5.248656 4.768106
C 1.753103 5.749135 4.254317
C 1.990246 5.005476 3.994490
C 2.009104 5.496380 4.497283
C 2.505834 4.975937 4.499750
C 2.504327 5.505237 4.009240
C 2.252434 5.244037 4.239921
C 2.240428 5.748170 4.735439
C 2.763568 5.244102 4.748753
C 2.734667 5.747754 4.250908
C 2.984143 4.990702 4.007997
C 3.001958 5.502553 4.492868
C 3.488364 5.000958 4.496583
C 3.511599 5.501610 3.982633
C 3.257910 5.244760 4.229139
C 3.235039 5.749481 4.740074
C 3.771454 5.245877 4.749648
C 3.747691 5.738522 4.270364
C 4.000205 4.998567 4.018469
C 3.999908 5.497012 4.504648
C 4.504556 5.003442 4.512885
C 4.490312 5.495219 3.999911
C 4.233476 5.248377 4.237487
C 4.240423 5.746732 4.737021
C 4.753200 5.242184 4.757903
C 4.728355 5.748744 4.236315
C 4.993810 4.983085 4.009705
C 4.995874 5.509838 4.485119
C 5.490219 5.010250 4.501990
C 5.513178 5.499454 3.997660
C 5.249063 5.238439 4.253012
C 5.226367 5.748311 4.748423
C 5.745400 5.255444 4.733768
C 5.723150 5.747687 4.226992
C 0.001551 0.002802 4.984805
C 0.001576 0.489029 5.513075
C 0.502378 0.006852 5.503441
C 0.508011 0.482061 4.999022
C 0.240758 0.255448 5.244214
C 0.246284 0.750168 5.748764
C 0.756121 0.232152 5.723501
C 0.732867 0.756492 5.253682
C 0.994712 0.007700 5.005418
C 1.015286 0.488702 5.495413
C 1.497499 0.002528 5.501903
C 1.506124 0.502075 4.986800
C 1.253470 0.243667 5.229638
C 1.242157 0.734618 5.737858
C 1.771266 0.235190 5.744808
C 1.738067 0.763947 5.252641
C 2.012684 0.011552 4.996470
C 2.010925 0.515033 5.509170
C 2.481282 0.002254 5.505194
C 2.497243 0.506092 5.007058
C 2.261463 0.254001 5.246963
C 2.248319 0.767554 5.739271
C 2.754275 0.261920 5.749753
C 2.746293 0.723710 5.252891
C 3.022999 0.001992 5.000657
C 3.003925 0.497344 5.496086
C 3.492681 0.006304 5.514470
C 3.494067 0.506957 5.024426
C 3.242766 0.263143 5.249534
C 3.245512 0.740698 5.734885
C 3.753195 0.247567 5.741717
C 3.739624 0.751917 5.245620
C 4.009482 0.017765 5.005733
C 3.994952 0.507544 5.505960
C 4.479876 0.014554 5.497552
C 4.517311 0.516090 4.997699
C 4.227619 0.262924 5.259889
C 4.237328 0.748175 5.745880
C 4.744505 0.239662 5.741629
C 4.758186 0.766008 5.251995
C 5.014371 0.007802 4.996320
C 4.988811 0.487472 5.499818
C 5.519788 0.016464 5.490592
C 5.511214 0.501267 4.982216
C 5.253565 0.242086 5.268111
C 5.267837 0.761176 5.736762
C 5.745761 0.226284 5.746660
C 5.741898 0.750155 5.271215
C 0.013947 1.009378 5.007483
C 0.005724 1.512985 5.506473
C 0.511899 0.993712 5.500679
C 0.493772 1.513859 5.001820
C 0.243147 1.242599 5.259402
C 0.252540 1.717588 5.745395
C 0.762694 1.234228 5.746984
C 0.739061 1.762363 5.246607
C 1.010945 0.996713 5.003015
C 1.009657 1.487262 5.508866
C 1.497906 1.012539 5.498701
C 1.507110 1.499767 4.996463
C 1.236654 1.236512 5.258300
C 1.267407 1.747433 5.733657
C 1.737918 1.244717 5.743251
C 1.749825 1.747244 5.231109
C 2.015985 0.987077 5.004696
C 1.985068 1.493494 5.500563
C 2.488074 1.008372 5.502612
C 2.499345 1.500855 4.984147
C 2.254593 1.249324 5.256885
C 2.262533 1.755986 5.747957
C 2.738335 1.224665 5.739062
C 2.739346 1.735372 5.232199
C 2.992535 0.999169 4.990505
C 2.990140 1.492338 5.490963
C 3.518966 0.998481 5.508377
C 3.476309 1.491157 4.987301
C 3.257364 1.259882 5.246269
C 3.268491 1.747214 5.746788
C 3.734039 1.252354 5.729503
C 3.757030 1.757718 5.258712
C 3.987690 0.994642 4.998329
C 3.978859 1.494184 5.487113
C 4.509027 0.996177 5.485808
C 4.509546 1.503035 5.014445
C 4.254146 1.248872 5.260128
C 4.275415 1.740228 5.731529
C 4.723975 1.245119 5.744374
C 4.757849 1.758340 5.265536
C 5.002539 1.001512 5.011619
C 5.007682 1.489861 5.513553
C 5.509083 1.007083 5.518443
C 5.492586 1.504079 4.999982
C 5.248925 1.260233 5.235279
C 5.230790 1.754357 5.742274
C 5.745917 1.271570 5.739376
C 5.743336 1.736505 5.260251
C 0.009963 1.974687 5.003371
C 0.010484 2.504214 5.481226
C 0.500335 1.998315 5.508800
C 0.510131 2.503511 4.993580
C 0.240318 2.241796 5.251314
C 0.247216 2.742816 5.736510
C 0.744340 2.250129 5.727215
C 0.745494 2.751500 5.263030
C 1.012925 1.999561 4.983515
C 0.985574 2.510101 5.507519
C 1.492970 1.986627 5.481015
C 1.506899 2.504273 5.012697
C 1.249561 2.248913 5.242385
C 1.253040 2.724059 5.736087
C 1.758374 2.264257 5.738861
C 1.744859 2.748920 5.270513
C 2.016228 1.983346 5.003837
C 2.008763 2.501814 5.497413
C 2.527384 1.997283 5.491363
C 2.491966 2.503209 4.995662
C 2.256194 2.251848 5.258807
C 2.247589 2.761185 5.749725
C 2.749573 2.236871 5.738512
C 2.740689 2.748731 5.264499
C 2.990777 1.980557 4.996856
C 2.999428 2.487167 5.501014
C 3.512820 1.999921 5.498892
C 3.493958 2.512921 4.997166
C 3.249175 2.242380 5.264988
C 3.244108 2.744080 5.720234
C 3.739621 2.228751 5.749605
C 3.745272 2.754888 5.249804
C 4.002196 1.985437 4.987557
C 4.016586 2.492837 5.505156
C 4.492965 1.992812 5.510132
C 4.508082 2.490085 4.999285
C 4.240580 2.235640 5.252599
C 4.235104 2.758150 5.738374
C 4.751810 2.226629 5.743747
C 4.740814 2.751499 5.268949
C 4.990701 2.001086 4.984165
C 5.002391 2.512648 5.503528
C 5.497223 1.988337 5.486951
C 5.491401 2.513176 5.007589
C 5.234256 2.259024 5.260496
C 5.249699 2.757711 5.743740
C 5.731158 2.239078 5.722269
C 5.739557 2.752970 5.228191
C 0.007896 3.004342 5.017068
C 0.008080 3.502554 5.496128
C 0.495026 3.003725 5.524742
C 0.490428 3.490602 5.018456
C 0.257569 3.240693 5.239979
C 0.237940 3.754455 5.732189
C 0.744889 3.250998 5.732733
C 0.765142 3.737887 5.263257
C 1.002863 2.999967 4.982960
C 1.012204 3.485986 5.494165
C 1.514212 2.998441 5.513439
C 1.498572 3.492925 4.994043
C 1.232241 3.266373 5.239639
C 1.232135 3.748402 5.724798
C 1.760418 3.256755 5.747986
C 1.749014 3.730921 5.252486
C 1.989619 2.982583 4.994041
C 2.015975 3.512975 5.503276
C 2.494889 2.998513 5.513022
C 2.494244 3.492837 4.984081
C 2.238977 3.245502 5.247460
C 2.249651 3.778001 5.741806
C 2.752884 3.252865 5.746378
C 2.740107 3.736876 5.234294
C 3.012388 2.998531 4.995798
C 3.009007 3.493786 5.511982
C 3.496730 2.978179 5.510592
C 3.492662 3.502998 4.992926
C 3.239843 3.254970 5.242490
C 3.252163 3.739178 5.748131
C 3.745545 3.250544 5.745954
C 3.738068 3.748145 5.241365
C 3.987626 3.007434 4.998485
C 3.986782 3.491262 5.501808
C 4.518733 2.996263 5.516238
C 4.492151 3.514202 4.990556
C 4.231786 3.247271 5.253746
C 4.244274 3.735613 5.746206
C 4.726921 3.248392 5.746206
C 4.737150 3.766897 5.237880
C 4.992937 3.003502 4.987415
C 4.988320 3.495195 5.506297
C 5.490222 2.995734 5.504479
C 5.489297 3.484557 4.993176
C 5.240358 3.258773 5.238974
C 5.251369 3.734415 5.749806
C 5.734672 3.232102 5.746639
C 5.749362 3.766962 5.251616
C 0.012687 4.000063 4.987344
C 0.000438 4.490725 5.518515
C 0.495134 4.009230 5.500204
C 0.487977 4.493318 5.013953
C 0.251944 4.247595 5.258659
C 0.248460 4.761482 5.732805
C 0.731922 4.233999 5.749232
C 0.745221 4.760757 5.239038
C 1.018257 3.993298 4.996127
C 0.983537 4.499516 5.508383
C 1.495509 3.986478 5.488897
C 1.485717 4.496145 5.016575
C 1.230222 4.245777 5.263460
C 1.229478 4.750424 5.746421
C 1.760023 4.260521 5.744338
C 1.756321 4.738736 5.260765
C 2.005560 4.000200 5.013583
C 2.005170 4.517998 5.515269
C 2.486426 3.984176 5.496183
C 2.499589 4.497909 5.010868
C 2.262768 4.235205 5.257705
C 2.269757 4.740568 5.749746
C 2.750837 4.252649 5.729377
C 2.737381 4.752079 5.238564
C 3.020284 3.996783 4.989168
C 2.993349 4.501141 5.493377
C 3.496438 4.000294 5.484546
C 3.490679 4.506555 4.997181
C 3.261793 4.263883 5.257686
C 3.242669 4.735366 5.738779
C 3.757411 4.230691 5.741794
C 3.735541 4.772367 5.249372
C 4.001310 3.996786 4.976290
C 3.993813 4.511577 5.507751
C 4.498660 4.009838 5.509327
C 4.494854 4.507339 5.019430
C 4.243094 4.235653 5.238980
C 4.240439 4.754136 5.738315
C 4.732814 4.259297 5.743018
C 4.745620 4.737581 5.246462
C 5.006386 3.991188 5.013983
C 5.005355 4.510508 5.500482
C 5.505838 4.002692 5.501822
C 5.516816 4.501562 5.018205
C 5.238107 4.265852 5.258773
C 5.231517 4.766626 5.748114
C 5.741030 4.244249 5.747281
C 5.739923 4.754204 5.221429
C 0.006044 4.992898 5.009092
C 0.018777 5.498357 5.524112
C 0.499358 4.997630 5.491634
C 0.509305 5.483269 5.002203
C 0.231079 5.241897 5.263732
C 0.271578 5.741560 5.745996
C 0.765174 5.247385 5.741267
C 0.754169 5.746958 5.224952
C 0.991431 4.994255 4.998813
C 1.014136 5.496268 5.515120
C 1.499893 4.983981 5.494297
C 1.511906 5.507371 5.000235
C 1.250821 5.262018 5.268678
C 1.227719 5.746992 5.723698
C 1.765522 5.256580 5.745079
C 1.762276 5.741567 5.226143
C 1.981720 5.001409 5.001200
C 2.015413 5.499055 5.501722
C 2.490909 4.986871 5.508595
C 2.504396 5.498270 4.989831
C 2.247617 5.247934 5.243626
C 2.276526 5.731284 5.733361
C 2.734754 5.261057 5.740771
C 2.765848 5.748203 5.232656
C 2.997035 5.014772 5.007601
C 3.003957 5.516013 5.500657
C 3.490111 4.997908 5.510262
C 3.478638 5.516588 4.994043
C 3.238541 5.242956 5.251938
C 3.256881 5.740582 5.747307
C 3.742234 5.238841 5.748692
C 3.746447 5.724701 5.244514
C 4.009135 4.998669 5.019403
C 4.001233 5.486262 5.489889
C 4.487647 5.009567 5.500141
C 4.497954 5.507844 4.992081
C 4.246374 5.254738 5.247653
C 4.240649 5.725633 5.736236
C 4.742376 5.236004 5.746343
C 4.742217 5.731514 5.247915
C 5.009888 4.998442 5.013441
C 5.013150 5.496572 5.480283
C 5.479894 4.992038 5.507470
C 5.486081 5.484165 4.995223
C 5.270176 5.243128 5.251215
C 5.253235 5.736489 5.739393
C 5.735614 5.271064 5.743570
C 5.733594 5.726810 5.245387
1728
Frame 3/10
C 0.056928 0.023743 0.036619
C 0.034922 0.520929 0.521110
C 0.485795 0.028649 0.544799
C 0.508141 0.537986 0.004263
C 0.208671 0.296117 0.262165
C 0.210281 0.768602 0.744730
C 0.750144 0.238819 0.789702
C 0.722500 0.756641 0.248204
C 0.961874 0.029639 0.037708
C 0.990827 0.467667 0.486612
C 1.503913 0.031764 0.490123
C 1.454481 0.483209 0.012911
C 1.239287 0.241026 0.238456
C 1.230970 0.733185 0.764073
C 1.763195 0.272660 0.759780
C 1.736866 0.750207 0.219204
C 2.014325 0.011215 0.026984
C 2.003119 0.497335 0.536236
C 2.493571 0.010228 0.499193
C 2.476243 0.526263 0.014238
C 2.235533 0.242428 0.266119
C 2.242431 0.720000 0.769310
C 2.761219 0.239149 0.736421
C 2.731757 0.723054 0.233635
C 3.015831 0.013564 0.004801
C 3.006664 0.515796 0.529543
C 3.512774 0.004597 0.469959
C 3.521374 0.491238 0.004804
C 3.260435 0.280932 0.206455
C 3.268235 0.761505 0.743793
C 3.765181 0.247496 0.725593
C 3.738970 0.796681 0.245978
C 4.054928 0.024404 0.004992
C 3.963079 0.509433 0.512721
C 4.515643 0.029928 0.488897
C 4.480827 0.515756 0.027069
C 4.257743 0.271798 0.233390
C 4.247209 0.764711 0.774506
C 4.756574 0.270120 0.750042
C 4.750699 0.725395 0.244938
C 4.953580 0.001480 0.015908
C 5.010562 0.488100 0.484797
C 5.477429 0.018352 0.530026
C 5.498716 0.461432 0.046309
C 5.225786 0.228414 0.274824
C 5.245471 0.730760 0.781355
C 5.727645 0.262939 0.761048
C 5.722652 0.738935 0.240968
C 0.001118 0.963109 0.007953
C 0.030852 1.496481 0.511735
C 0.480571 0.983589 0.458404
C 0.478541 1.490832 0.042672
C 0.238320 1.231889 0.236344
C 0.225844 1.767409 0.709212
C 0.741798 1.220683 0.752974
C 0.758250 1.747292 0.283318
C 1.010071 0.976688 0.002954
C 0.975788 1.489415 0.496890
C 1.533621 1.003422 0.532117
C 1.498062 1.498776 0.012343
C 1.230578 1.232186 0.276315
C 1.218067 1.742674 0.724958
C 1.715263 1.258092 0.747170
C 1.739579 1.758010 0.280671
C 1.974899 1.023811 0.008614
C 1.998964 1.510459 0.490430
C 2.479831 1.005761 0.531009
C 2.507330 1.512036 0.013829
C 2.274530 1.258835 0.240908
C 2.244145 1.726339 0.733544
C 2.751066 1.282193 0.768144
C 2.728654 1.784110 0.236953
C 3.010153 1.004731 0.030865
C 3.014002 1.516828 0.504767
C 3.496085 1.013686 0.488279
C 3.537955 1.454850 0.000934
C 3.262990 1.244242 0.210472
C 3.233438 1.774557 0.781665
C 3.745587 1.268211 0.723970
C 3.779546 1.727883 0.232961
C 3.998583 1.037767 0.016281
C 4.015679 1.497604 0.508970
C 4.509894 0.972489 0.525957
C 4.511092 1.496228 0.035292
C 4.287558 1.224138 0.252317
C 4.268120 1.722106 0.720932
C 4.750404 1.258464 0.735326
C 4.754508 1.747989 0.229231
C 4.976156 1.000922 0.004746
C 5.013400 1.468126 0.474499
C 5.491301 1.012687 0.509335
C 5.465721 1.494325 0.010090
C 5.257935 1.215806 0.233406
C 5.236852 1.747131 0.733402
C 5.742631 1.274102 0.758239
C 5.729626 1.758611 0.235942
C 0.034494 1.978219 0.030570
C 0.000291 2.529226 0.496624
C 0.485298 1.960689 0.503076
C 0.531640 2.519482 0.024185
C 0.236188 2.252013 0.248632
C 0.268139 2.713310 0.744648
C 0.723720 2.251831 0.739421
C 0.712731 2.779239 0.261986
C 1.029303 2.040515 0.009398
C 1.017141 2.516715 0.493587
C 1.489681 1.996610 0.499864
C 1.536067 2.537289 0.006899
C 1.235799 2.232690 0.267492
C 1.221434 2.730857 0.744231
C 1.731335 2.267637 0.753152
C 1.793589 2.758795 0.252660
C 2.013102 2.018053 0.016977
C 2.007295 2.505003 0.490956
C 2.537577 1.999687 0.527265
C 2.514116 2.473406 0.038439
C 2.261213 2.234234 0.270295
C 2.250513 2.776642 0.745775
C 2.718843 2.271173 0.756678
C 2.760701 2.758207 0.235494
C 3.028700 2.001910 0.025732
C 2.968759 2.486148 0.536696
C 3.516479 1.985606 0.530201
C 3.484786 2.529533 0.039283
C 3.276191 2.257777 0.260263
C 3.274032 2.758411 0.755771
C 3.727847 2.268827 0.775724
C 3.768879 2.737949 0.250786
C 4.033396 2.007573 0.012257
C 4.021009 2.511568 0.477554
C 4.476386 1.971307 0.507631
C 4.498624 2.559617 0.027510
C 4.271508 2.241139 0.228205
C 4.227054 2.733862 0.739194
C 4.760425 2.250250 0.766935
C 4.755880 2.709500 0.255729
C 4.977821 1.991448 0.000919
C 4.999792 2.507537 0.509945
C 5.486329 1.962111 0.518179
C 5.486102 2.506747 0.033675
C 5.224638 2.259869 0.253921
C 5.249779 2.724033 0.730782
C 5.744949 2.269942 0.700938
C 5.718558 2.737404 0.280930
C 0.034357 3.014930 0.023729
C 0.004893 3.557290 0.497734
C 0.525892 2.992183 0.512182
C 0.512490 3.497767 0.001395
C 0.238229 3.246040 0.285002
C 0.234529 3.759976 0.759765
C 0.781625 3.263355 0.742527
C 0.765682 3.780457 0.263280
C 0.967712 2.961616 0.014429
C 1.020420 3.492463 0.529398
C 1.509803 3.016707 0.451987
C 1.503644 3.531297 0.002532
C 1.212850 3.246897 0.237045
C 1.256571 3.741543 0.744304
C 1.770585 3.248663 0.710431
C 1.754924 3.756052 0.238221
C 1.975592 2.974402 0.002342
C 1.982611 3.506894 0.472358
C 2.534793 3.012732 0.508882
C 2.500227 3.526218 0.018615
C 2.231541 3.257203 0.276347
C 2.291512 3.765512 0.776803
C 2.753123 3.228859 0.757440
C 2.703025 3.721451 0.274872
C 3.008760 3.028229 0.010730
C 2.991721 3.460774 0.497942
C 3.498780 3.003701 0.490998
C 3.503190 3.468464 0.012656
C 3.227700 3.267637 0.253557
C 3.259774 3.779329 0.739854
C 3.783991 3.235980 0.756035
C 3.760260 3.755265 0.239265
C 4.000064 3.007303 0.005411
C 3.968712 3.502841 0.511302
C 4.509566 2.977739 0.525160
C 4.470888 3.503749 0.029949
C 4.250317 3.257781 0.211658
C 4.226871 3.741509 0.758694
C 4.743132 3.267081 0.759589
C 4.773376 3.736659 0.219651
C 4.998686 3.021635 0.013834
C 4.995001 3.476722 0.474781
C 5.512956 3.015515 0.481651
C 5.495997 3.467756 0.018543
C 5.226996 3.268694 0.232273
C 5.258724 3.757829 0.749661
C 5.749425 3.239922 0.733538
C 5.723019 3.722972 0.277059
C 0.013637 3.966490 0.031071
C 0.030215 4.505062 0.460543
C 0.506940 3.960363 0.461953
C 0.480439 4.491225 0.003827
C 0.249686 4.244714 0.222241
C 0.275584 4.731570 0.781580
C 0.719914 4.221251 0.747368
C 0.732403 4.723190 0.277000
C 1.016433 3.980762 0.044594
C 1.028601 4.483119 0.481586
C 1.495726 3.983690 0.530718
C 1.444718 4.496043 0.030775
C 1.278725 4.253069 0.262217
C 1.254977 4.744039 0.788353
C 1.745575 4.259459 0.784826
C 1.768952 4.744866 0.218409
C 2.033694 3.960503 0.022318
C 2.006993 4.500307 0.462334
C 2.474728 3.997015 0.474745
C 2.485754 4.482543 0.026309
C 2.220442 4.245824 0.233614
C 2.226196 4.790224 0.723798
C 2.734813 4.240510 0.742583
C 2.793410 4.727791 0.265920
C 3.013270 3.982563 0.035448
C 2.992833 4.496695 0.527236
C 3.520770 3.975667 0.487076
C 3.484978 4.554260 0.016038
C 3.253958 4.246186 0.222906
C 3.199286 4.755544 0.785019
C 3.776466 4.223163 0.724107
C 3.754690 4.775289 0.237588
C 3.952197 4.024815 0.004076
C 3.982650 4.482674 0.509504
C 4.496450 4.019125 0.474522
C 4.461317 4.470699 0.000896
C 4.256493 4.221950 0.235981
C 4.252437 4.802226 0.752363
C 4.761729 4.287886 0.750694
C 4.713770 4.738435 0.274285
C 5.012571 4.004546 0.014617
C 4.983598 4.509346 0.461356
C 5.528317 3.990872 0.492414
C 5.459934 4.500781 0.027159
C 5.229099 4.263413 0.251042
C 5.246517 4.741563 0.782628
C 5.730464 4.226366 0.750503
C 5.722169 4.769469 0.254136
C 0.017496 4.960166 0.040502
C 0.031764 5.527158 0.465749
C 0.509666 5.036743 0.494077
C 0.457989 5.493624 0.028141
C 0.221377 5.229718 0.289719
C 0.237331 5.748539 0.726580
C 0.776895 5.273461 0.737230
C 0.746135 5.715301 0.212338
C 0.971891 4.980148 0.021863
C 0.989288 5.536889 0.478785
C 1.505235 5.014061 0.523908
C 1.530064 5.508374 0.005271
C 1.229225 5.246135 0.248889
C 1.224705 5.745846 0.717789
C 1.737716 5.254756 0.772560
C 1.736596 5.724737 0.280748
C 1.978305 5.006366 0.047752
C 1.972922 5.474753 0.510100
C 2.473424 4.985777 0.505928
C 2.505288 5.481246 0.015529
C 2.227317 5.222321 0.230913
C 2.281575 5.722122 0.782075
C 2.762142 5.278609 0.761998
C 2.791951 5.745887 0.257823
C 2.978178 4.973171 0.031691
C 2.998459 5.478831 0.513126
C 3.495813 4.999405 0.525806
C 3.482636 5.484192 0.012046
C 3.259682 5.228286 0.219772
C 3.296346 5.737817 0.711402
C 3.789708 5.238484 0.754164
C 3.788738 5.725102 0.239974
C 4.015018 4.968999 0.010458
C 4.003110 5.472839 0.457166
C 4.475838 4.973865 0.506646
C 4.502411 5.469171 0.013856
C 4.283961 5.250609 0.278711
C 4.191742 5.749353 0.785239
C 4.757232 5.213058 0.757756
C 4.767958 5.716663 0.269506
C 4.971849 5.003821 0.010097
C 4.994276 5.474710 0.485250
C 5.468037 4.997222 0.495120
C 5.477758 5.462193 0.006555
C 5.266098 5.250809 0.285356
C 5.230927 5.711279 0.727764
C 5.744741 5.205443 0.760574
C 5.730508 5.724841 0.213801
C 0.005355 0.017266 0.938329
C 0.015965 0.457148 1.518800
C 0.457934 0.004280 1.509630
C 0.489549 0.470952 1.014732
C 0.270675 0.264486 1.263200
C 0.247288 0.711264 1.725194
C 0.726949 0.264699 1.758202
C 0.786106 0.766579 1.237442
C 1.022580 0.015075 0.988067
C 1.029433 0.462580 1.513789
C 1.545656 0.004876 1.510580
C 1.463249 0.481643 0.997663
C 1.254057 0.233984 1.245492
C 1.268551 0.761664 1.759358
C 1.770822 0.284450 1.767619
C 1.752109 0.729123 1.222373
C 1.966288 0.012382 0.989299
C 2.042824 0.496597 1.480624
C 2.532219 0.001388 1.490497
C 2.468352 0.482288 0.993691
C 2.225813 0.263869 1.241937
C 2.286499 0.739758 1.734456
C 2.746554 0.271268 1.755196
C 2.727368 0.758786 1.218919
C 3.011625 0.025462 0.958330
C 2.995195 0.486719 1.523645
C 3.517103 0.008054 1.513855
C 3.545264 0.491552 1.016718
C 3.219607 0.235532 1.268097
C 3.263512 0.767645 1.729793
C 3.759469 0.287877 1.735160
C 3.783057 0.768443 1.251999
C 4.020862 0.051905 1.000135
C 3.995058 0.466549 1.493359
C 4.490498 0.043974 1.504214
C 4.474328 0.506725 0.994238
C 4.254882 0.233833 1.258443
C 4.275314 0.777149 1.721001
C 4.716861 0.240379 1.748665
C 4.760803 0.714219 1.271628
C 5.000364 0.036451 1.000315
C 5.029464 0.469493 1.496240
C 5.504586 0.008147 1.508066
C 5.472104 0.488028 0.955999
C 5.292639 0.263551 1.228759
C 5.230840 0.731282 1.726321
C 5.738982 0.268467 1.768843
C 5.731245 0.773939 1.278329
C 0.009493 1.019598 1.023098
C 0.001472 1.503135 1.475549
C 0.524408 0.999847 1.469374
C 0.486437 1.526375 0.977995
C 0.271610 1.228014 1.284547
C 0.230446 1.763993 1.762603
C 0.707511 1.272843 1.772380
C 0.784354 1.725867 1.249351
C 0.994833 1.024459 1.017586
C 1.032821 1.493570 1.519167
C 1.520673 0.993230 1.473018
C 1.498473 1.514387 1.032288
C 1.265381 1.230923 1.280893
C 1.246979 1.747243 1.752344
C 1.749008 1.271965 1.759826
C 1.768303 1.791253 1.270670
C 1.988120 0.966146 1.010122
C 2.022056 1.523252 1.483598
C 2.518496 0.990999 1.468611
C 2.470038 1.487910 0.980373
C 2.234804 1.247034 1.243738
C 2.273932 1.705495 1.759699
C 2.769757 1.223839 1.725854
C 2.742649 1.763481 1.277296
C 2.973305 1.020334 1.014453
C 2.982717 1.483743 1.520938
C 3.533683 0.985434 1.521345
C 3.531085 1.505035 0.969035
C 3.253394 1.240841 1.246338
C 3.252182 1.772268 1.756680
C 3.746972 1.275178 1.757678
C 3.750596 1.767205 1.270222
C 4.015725 1.021962 0.999742
C 4.010118 1.514859 1.485179
C 4.501206 1.017666 1.495102
C 4.473266 1.497658 0.986623
C 4.260712 1.226523 1.228318
C 4.221325 1.746987 1.756713
C 4.727100 1.241310 1.770851
C 4.749393 1.730704 1.236380
C 4.976617 0.985497 1.020945
C 4.970163 1.508050 1.494888
C 5.470166 0.994029 1.504151
C 5.469874 1.476225 0.996972
C 5.295231 1.236659 1.270920
C 5.260558 1.785175 1.728850
C 5.723212 1.226958 1.725300
C 5.746443 1.713282 1.229755
C 0.008814 1.990807 0.987299
C 0.000755 2.519339 1.489159
C 0.469418 1.990845 1.479320
C 0.479004 2.501340 1.019461
C 0.242027 2.212876 1.232118
C 0.226722 2.775394 1.765006
C 0.782762 2.238069 1.741391
C 0.766105 2.755752 1.220907
C 0.998732 1.975665 1.016831
C 0.976026 2.464835 1.490702
C 1.520242 1.970559 1.513942
C 1.516638 2.527476 0.991967
C 1.245509 2.252573 1.224361
C 1.197744 2.752901 1.756298
C 1.737416 2.213161 1.755507
C 1.778508 2.732387 1.244959
C 1.965849 2.033425 1.000210
C 2.006250 2.501049 1.507847
C 2.503206 1.987328 1.518518
C 2.525055 2.516960 0.998293
C 2.242406 2.265162 1.242713
C 2.252620 2.720937 1.738731
C 2.753804 2.272212 1.724398
C 2.757056 2.771636 1.261030
C 3.000218 2.042123 0.994008
C 2.998848 2.461702 1.472528
C 3.492956 1.976080 1.525602
C 3.453605 2.490382 0.986959
C 3.234866 2.227278 1.251338
C 3.265346 2.758233 1.739475
C 3.730935 2.282782 1.720053
C 3.725444 2.747614 1.208675
C 4.009257 1.971560 0.981736
C 3.999932 2.504963 1.483568
C 4.504427 2.019970 1.482401
C 4.478778 2.474646 1.016591
C 4.216952 2.246247 1.250961
C 4.240741 2.760475 1.773694
C 4.762160 2.270248 1.724952
C 4.779353 2.782134 1.237374
C 4.976937 1.995152 0.982379
C 5.030473 2.496081 1.534552
C 5.487471 2.011365 1.494928
C 5.513988 2.491010 1.021849
C 5.227880 2.225157 1.239806
C 5.215774 2.738540 1.761134
C 5.708776 2.219564 1.758679
C 5.735635 2.739478 1.219020
C 0.029244 2.974883 0.967818
C 0.028891 3.482954 1.470725
C 0.499600 2.955647 1.479702
C 0.494774 3.508362 0.986454
C 0.276376 3.279697 1.243617
C 0.258420 3.726154 1.743709
C 0.776307 3.265615 1.754305
C 0.774597 3.775245 1.251567
C 1.029867 2.983824 0.993124
C 1.004788 3.455300 1.511963
C 1.514345 3.039091 1.467854
C 1.489443 3.522389 0.980092
C 1.246457 3.264109 1.279743
C 1.231863 3.733366 1.774683
C 1.731456 3.253136 1.732552
C 1.759136 3.788805 1.246780
C 1.995305 2.997581 1.044090
C 2.009868 3.519666 1.486743
C 2.503262 2.997588 1.515891
C 2.506108 3.470952 1.032356
C 2.258979 3.210478 1.264865
C 2.273616 3.742262 1.713727
C 2.751181 3.206712 1.750206
C 2.764187 3.752358 1.204476
C 2.982961 2.999118 1.025970
C 3.032506 3.454995 1.503462
C 3.532460 3.022702 1.474392
C 3.507990 3.492016 1.006279
C 3.234313 3.233285 1.229098
C 3.261141 3.746835 1.742539
C 3.774646 3.271767 1.747750
C 3.757382 3.725073 1.266959
C 4.005872 2.990858 1.029553
C 3.996691 3.527538 1.501721
C 4.526296 3.016689 1.508953
C 4.507854 3.543449 0.990171
C 4.258509 3.214198 1.261593
C 4.265016 3.725849 1.728379
C 4.720517 3.247827 1.751681
C 4.781050 3.730673 1.278602
C 5.001536 3.048468 0.995413
C 4.975309 3.477756 1.482265
C 5.503330 2.964652 1.529810
C 5.486920 3.484399 1.024039
C 5.238470 3.232156 1.231512
C 5.300534 3.725972 1.746622
C 5.723319 3.272910 1.777186
C 5.725796 3.703562 1.264839
C 0.004904 4.011094 0.949792
C 0.011702 4.528989 1.479251
C 0.505140 4.004009 1.514235
C 0.478570 4.470317 1.019181
C 0.222816 4.289265 1.252131
C 0.266117 4.744745 1.748760
C 0.732387 4.225936 1.747587
C 0.722901 4.725867 1.243113
C 0.994475 3.989043 1.000754
C 0.980089 4.496491 1.508921
C 1.461326 3.998869 1.474282
C 1.492828 4.481331 0.954582
C 1.237376 4.263016 1.275388
C 1.248259 4.759565 1.789143
C 1.777159 4.248257 1.735534
C 1.763537 4.740307 1.238663
C 2.017415 4.028085 1.015878
C 2.039320 4.497998 1.494298
C 2.537788 3.975772 1.483782
C 2.484841 4.523212 0.995182
C 2.273947 4.267644 1.253465
C 2.257520 4.735946 1.722189
C 2.762901 4.263438 1.757248
C 2.760122 4.740765 1.209161
C 3.023351 4.025221 0.994597
C 3.014755 4.486773 1.492918
C 3.470292 3.999141 1.508972
C 3.472479 4.527624 0.992894
C 3.254401 4.210232 1.247696
C 3.251796 4.732518 1.709471
C 3.726146 4.244564 1.752540
C 3.749444 4.764418 1.263176
C 4.004420 3.992138 0.983228
C 3.974888 4.503964 1.514677
C 4.462500 3.990734 1.477710
C 4.513341 4.513627 0.971944
C 4.271763 4.274869 1.221757
C 4.280247 4.747389 1.746692
C 4.777032 4.247574 1.726379
C 4.740307 4.712908 1.261723
C 4.953394 3.990264 1.020324
C 5.030222 4.493222 1.511717
C 5.502476 4.016707 1.462150
C 5.487548 4.512884 0.951600
C 5.230042 4.274079 1.240091
C 5.258532 4.747365 1.727084
C 5.709768 4.260696 1.715388
C 5.734818 4.719699 1.228104
C 0.004914 5.030449 1.040731
C 0.043686 5.517451 1.472953
C 0.473964 5.003251 1.532028
C 0.484184 5.502312 0.971249
C 0.247661 5.250024 1.258375
C 0.276534 5.737593 1.750516
C 0.732408 5.255863 1.710962
C 0.718796 5.713766 1.238028
C 1.013906 4.988444 1.029034
C 0.980864 5.502628 1.490936
C 1.471820 5.011472 1.502396
C 1.476555 5.487371 0.964907
C 1.218384 5.290264 1.248290
C 1.264782 5.743196 1.770351
C 1.768892 5.242184 1.728831
C 1.740056 5.749851 1.244993
C 2.001916 4.992235 0.967572
C 1.986825 5.535824 1.492515
C 2.479061 4.981556 1.494616
C 2.520122 5.485566 1.011151
C 2.254743 5.239554 1.269885
C 2.288203 5.733414 1.734614
C 2.777740 5.237251 1.745325
C 2.768838 5.738484 1.272621
C 3.013881 5.025125 1.018903
C 3.038859 5.475651 1.530830
C 3.515291 5.003252 1.459428
C 3.500275 5.524261 0.983761
C 3.223607 5.248422 1.274460
C 3.235081 5.741862 1.732261
C 3.737061 5.215850 1.764174
C 3.782076 5.720027 1.222114
C 4.032435 5.018259 1.012250
C 3.974186 5.494436 1.533492
C 4.482982 4.989797 1.497031
C 4.490628 5.515837 0.990742
C 4.267596 5.238963 1.240377
C 4.224028 5.726343 1.724905
C 4.751704 5.250776 1.725631
C 4.771421 5.724264 1.237524
C 5.003427 5.012704 1.019810
C 5.014983 5.485727 1.501932
C 5.531877 4.980587 1.524798
C 5.461229 5.502235 1.003646
C 5.276110 5.247914 1.265461
C 5.251771 5.723752 1.724600
C 5.710821 5.279446 1.750910
C 5.734511 5.714239 1.260087
C 0.011344 0.010603 1.972505
C 0.005355 0.556739 2.532515
C 0.532692 0.008564 2.497845
C 0.466163 0.463647 1.977484
C 0.215874 0.268299 2.271547
C 0.249808 0.704244 2.724229
C 0.744774 0.278816 2.739793
C 0.739650 0.719544 2.229024
C 0.995785 0.001842 2.025244
C 0.967141 0.513629 2.498200
C 1.545778 0.013833 2.522089
C 1.521160 0.493275 2.009803
C 1.247697 0.241647 2.206441
C 1.272114 0.778625 2.734926
C 1.734253 0.258297 2.745277
C 1.770502 0.754687 2.226881
C 1.998044 0.044914 1.986920
C 1.984289 0.520651 2.470572
C 2.473407 0.031220 2.492551
C 2.458163 0.482179 2.011236
C 2.287551 0.230862 2.240285
C 2.244751 0.766632 2.740768
C 2.725425 0.250678 2.751295
C 2.740697 0.738498 2.246360
C 3.009301 0.016884 1.996569
C 3.023921 0.509298 2.498468
C 3.479626 0.013790 2.468819
C 3.503467 0.467507 2.003263
C 3.264623 0.268635 2.248044
C 3.241327 0.724801 2.761018
C 3.758839 0.253636 2.722455
C 3.745510 0.752531 2.260845
C 3.985236 0.035159 2.002076
C 4.005592 0.499991 2.524667
C 4.503146 0.019570 2.539156
C 4.512230 0.497885 1.971795
C 4.257038 0.276007 2.219900
C 4.229295 0.732386 2.755665
C 4.766562 0.253431 2.709466
C 4.775452 0.782641 2.236972
C 5.038518 0.017645 2.037990
C 5.007703 0.489776 2.540064
C 5.485862 0.027214 2.486670
C 5.481600 0.455847 2.007153
C 5.268121 0.273425 2.265195
C 5.254780 0.734097 2.773937
C 5.744202 0.281327 2.736492
C 5.729161 0.758281 2.216761
C 0.004812 0.972064 1.967553
C 0.017388 1.546725 2.498497
C 0.478350 1.004828 2.497153
C 0.495042 1.499268 2.036470
C 0.230105 1.257718 2.289127
C 0.248661 1.746086 2.780421
C 0.765896 1.238739 2.764381
C 0.744773 1.758100 2.291452
C 0.980299 1.015042 2.028660
C 0.996721 1.531430 2.498319
C 1.535034 1.024208 2.524447
C 1.481764 1.496417 2.023506
C 1.264655 1.211591 2.242009
C 1.218872 1.755008 2.745932
C 1.731908 1.269203 2.754501
C 1.753951 1.788956 2.242329
C 1.989510 1.030031 1.976771
C 1.978455 1.515251 2.480888
C 2.524336 0.987805 2.473464
C 2.512440 1.466463 2.021342
C 2.268389 1.266150 2.279523
C 2.246307 1.799879 2.752933
C 2.781009 1.253012 2.720224
C 2.758965 1.759743 2.214220
C 2.989537 0.979023 2.024380
C 3.035466 1.482009 2.484106
C 3.483607 0.974428 2.484942
C 3.522584 1.472346 2.002823
C 3.263230 1.231371 2.258540
C 3.224553 1.710521 2.732985
C 3.766278 1.251468 2.785550
C 3.760581 1.722547 2.252548
C 3.978918 0.975413 1.984730
C 4.005241 1.517530 2.484264
C 4.517705 1.026943 2.525323
C 4.506531 1.463032 2.025553
C 4.260516 1.235593 2.287731
C 4.252114 1.766838 2.764923
C 4.777427 1.248459 2.718196
C 4.733841 1.788763 2.265630
C 4.984669 0.974576 1.979378
C 5.041961 1.511919 2.470720
C 5.490120 0.961420 2.508751
C 5.491475 1.489493 1.996040
C 5.276335 1.280273 2.246339
C 5.268908 1.716868 2.789315
C 5.743178 1.267088 2.772297
C 5.708893 1.723748 2.257255
C 0.001501 1.957130 2.019539
C 0.012156 2.537528 2.468747
C 0.466834 2.011800 2.518959
C 0.465834 2.489618 1.979750
C 0.238549 2.266629 2.237502
C 0.265331 2.778829 2.770503
C 0.729020 2.214844 2.732870
C 0.771413 2.758249 2.209766
C 0.972282 2.006115 1.981982
C 0.961393 2.476448 2.519621
C 1.464644 1.994667 2.525725
C 1.478767 2.516017 2.009582
C 1.265580 2.246969 2.221826
C 1.258222 2.737836 2.766392
C 1.728072 2.227950 2.754846
C 1.728780 2.765072 2.257409
C 2.012113 2.044883 2.024169
C 2.009678 2.516944 2.489957
C 2.487353 1.970074 2.522534
C 2.518457 2.512682 1.991845
C 2.275755 2.270630 2.269591
C 2.254673 2.733163 2.725557
C 2.744915 2.253070 2.742494
C 2.791769 2.756886 2.244626
C 3.000875 2.007723 2.039245
C 2.976754 2.504429 2.529109
C 3.516867 1.988912 2.497687
C 3.501731 2.508791 2.028090
C 3.233810 2.228492 2.294303
C 3.228898 2.732926 2.726728
C 3.720709 2.274001 2.734480
C 3.775633 2.719573 2.216480
C 4.046765 2.013328 1.987871
C 3.984001 2.490840 2.458376
C 4.485714 1.972078 2.524403
C 4.518957 2.475978 1.965511
C 4.282611 2.256723 2.212363
C 4.279193 2.762047 2.774153
C 4.756503 2.239210 2.753981
C 4.749600 2.768801 2.258699
C 5.036112 1.990767 2.001935
C 4.978380 2.485265 2.495506
C 5.476275 1.988457 2.534076
C 5.519251 2.487211 2.003646
C 5.259783 2.256935 2.261302
C 5.233409 2.783633 2.742829
C 5.729062 2.286989 2.763412
C 5.726065 2.742487 2.233125
C 0.042482 2.989471 2.034646
C 0.007420 3.494083 2.488921
C 0.493205 2.991611 2.514120
C 0.518963 3.492276 1.990215
C 0.217020 3.243531 2.269750
C 0.215714 3.743108 2.739753
C 0.731667 3.221228 2.723101
C 0.728412 3.737359 2.265341
C 0.953132 3.014180 2.010981
C 0.992783 3.515336 2.495762
C 1.453781 2.995001 2.537968
C 1.513262 3.525891 2.005782
C 1.231411 3.244015 2.295371
C 1.229597 3.698522 2.751272
C 1.746120 3.250497 2.768676
C 1.781330 3.751669 2.273430
C 2.006593 2.960545 2.001928
C 2.035621 3.510492 2.475788
C 2.502116 3.016553 2.467753
C 2.550240 3.478549 1.990593
C 2.235708 3.223287 2.234760
C 2.236799 3.755327 2.786067
C 2.727154 3.271548 2.743759
C 2.739335 3.784094 2.228729
C 2.975263 3.035350 2.012607
C 2.998147 3.540218 2.506469
C 3.503778 3.039997 2.494113
C 3.489193 3.488514 1.984085
C 3.262359 3.213127 2.247631
C 3.297488 3.738546 2.752333
C 3.774222 3.273574 2.732446
C 3.776369 3.730481 2.274985
C 3.996824 3.028144 2.005215
C 4.028274 3.510151 2.485234
C 4.476538 2.990362 2.499459
C 4.507413 3.454239 2.004806
C 4.244393 3.252123 2.257228
C 4.279188 3.785910 2.742511
C 4.739568 3.272056 2.731201
C 4.764815 3.755640 2.225437
C 5.009538 2.972110 2.002356
C 4.977266 3.525825 2.491753
C 5.532010 2.966182 2.483548
C 5.479808 3.536059 2.017638
C 5.261084 3.239626 2.265458
C 5.227859 3.757829 2.731659
C 5.745811 3.219877 2.704372
C 5.725480 3.750087 2.242963
C 0.045239 4.009277 1.979702
C 0.027177 4.496117 2.515779
C 0.513388 4.000698 2.464622
C 0.458071 4.485255 2.012551
C 0.287429 4.249607 2.246927
C 0.236799 4.740615 2.751050
C 0.768084 4.245850 2.727345
C 0.742082 4.777057 2.255524
C 1.007741 3.965264 2.004995
C 0.965233 4.519999 2.505360
C 1.478028 3.980196 2.485728
C 1.487540 4.513738 1.979217
C 1.279392 4.251661 2.250182
C 1.224671 4.736641 2.734345
C 1.709734 4.244157 2.750385
C 1.779131 4.764102 2.260071
C 2.008500 3.996996 1.989725
C 1.971127 4.516018 2.508352
C 2.516305 4.004787 2.509561
C 2.499073 4.517987 2.048091
C 2.246297 4.278952 2.271860
C 2.238443 4.739626 2.730942
C 2.711432 4.252986 2.762826
C 2.761769 4.782094 2.250904
C 2.976574 3.997167 1.992525
C 2.990258 4.483472 2.520122
C 3.502224 4.037122 2.522449
C 3.457912 4.479486 2.025568
C 3.276033 4.238773 2.253518
C 3.271686 4.716932 2.754790
C 3.748522 4.284032 2.721884
C 3.747085 4.722038 2.226457
C 3.978858 3.972395 1.994237
C 3.981671 4.541725 2.500089
C 4.483937 4.038525 2.517570
C 4.507989 4.465751 1.977661
C 4.257916 4.279828 2.258640
C 4.246762 4.755177 2.774646
C 4.743442 4.240658 2.732243
C 4.763249 4.749732 2.233468
C 4.982325 4.011740 2.029039
C 4.987451 4.478827 2.482766
C 5.492569 4.025611 2.478445
C 5.534648 4.509341 1.999056
C 5.220499 4.230365 2.253661
C 5.249878 4.737853 2.782116
C 5.742464 4.271108 2.767925
C 5.712004 4.739922 2.235870
C 0.012359 5.028865 1.975518
C 0.006253 5.467429 2.474166
C 0.503294 4.989087 2.524059
C 0.473582 5.471761 2.000186
C 0.221936 5.262827 2.222061
C 0.254959 5.734271 2.735702
C 0.767058 5.268106 2.762845
C 0.763574 5.723520 2.223639
C 1.031891 5.016085 2.006764
C 1.025656 5.507387 2.485592
C 1.487688 5.019586 2.529671
C 1.461592 5.486012 2.019852
C 1.255481 5.266044 2.287258
C 1.223550 5.745668 2.758999
C 1.771470 5.209919 2.758245
C 1.781916 5.731184 2.246200
C 1.964245 5.016644 1.979619
C 2.010842 5.544031 2.487281
C 2.521389 4.961508 2.519948
C 2.516119 5.475219 1.993469
C 2.263584 5.246932 2.216826
C 2.287906 5.746947 2.737701
C 2.749182 5.223632 2.718427
C 2.723839 5.742232 2.263749
C 3.009287 5.000182 1.989771
C 2.983723 5.461582 2.510844
C 3.467442 5.035021 2.501431
C 3.500794 5.529600 2.005979
C 3.248459 5.242578 2.241839
C 3.215505 5.749009 2.725313
C 3.726266 5.253355 2.751685
C 3.789978 5.746934 2.225647
C 3.979324 4.969540 2.014362
C 3.999380 5.515473 2.488369
C 4.518521 4.969407 2.519247
C 4.497434 5.515924 1.970578
C 4.220743 5.267135 2.228355
C 4.274107 5.735974 2.777995
C 4.734404 5.293593 2.752361
C 4.715327 5.740583 2.275161
C 4.974938 5.001068 1.996097
C 5.031539 5.498248 2.510049
C 5.517346 4.996028 2.472666
C 5.456375 5.490261 1.981245
C 5.241240 5.248397 2.231200
C 5.272307 5.741019 2.704121
C 5.739224 5.274091 2.713327
C 5.722620 5.718987 2.219439
C 0.016739 0.034187 3.017161
C 0.022189 0.511274 3.458055
C 0.473696 0.010788 3.464557
C 0.517114 0.474676 2.992279
C 0.263894 0.252418 3.190775
C 0.219361 0.746549 3.728102
C 0.753930 0.225080 3.772087
C 0.743271 0.722990 3.270616
C 0.973813 0.002788 3.002179
C 0.992014 0.508448 3.524432
C 1.518523 0.004612 3.527963
C 1.496574 0.480049 2.968989
C 1.235735 0.248764 3.272485
C 1.234975 0.762284 3.724792
C 1.762475 0.240184 3.777043
C 1.779413 0.746080 3.237445
C 1.973955 0.001932 3.011404
C 1.965733 0.503152 3.527863
C 2.486901 0.025156 3.516780
C 2.499480 0.508710 3.022242
C 2.234649 0.234658 3.216961
C 2.214921 0.734938 3.728637
C 2.747156 0.288207 3.733097
C 2.760348 0.727247 3.264460
C 2.982283 0.016466 2.980832
C 3.022157 0.506926 3.458796
C 3.479870 0.008360 3.450276
C 3.495705 0.544442 3.003028
C 3.238320 0.235339 3.279113
C 3.244352 0.777164 3.762516
C 3.750008 0.204577 3.737163
C 3.740325 0.767628 3.225445
C 4.004860 0.037189 3.004611
C 4.012652 0.468645 3.524867
C 4.510105 0.002110 3.543809
C 4.472891 0.502063 3.001952
C 4.290298 0.217490 3.240741
C 4.276747 0.744833 3.763583
C 4.791584 0.243358 3.736689
C 4.756099 0.736680 3.294739
C 4.961295 0.009973 3.008051
C 5.019489 0.521021 3.477017
C 5.514962 0.043079 3.504759
C 5.503531 0.469132 2.996413
C 5.218912 0.236859 3.231749
C 5.233992 0.762532 3.751163
C 5.736309 0.275315 3.779814
C 5.731344 0.771802 3.257515
C 0.022524 0.980451 2.985949
C 0.036393 1.477427 3.497072
C 0.474207 1.011372 3.473063
C 0.496505 1.505648 3.014226
C 0.269689 1.229800 3.220040
C 0.246606 1.756756 3.788752
C 0.748541 1.261057 3.714555
C 0.732597 1.761815 3.239525
C 1.025161 1.017670 3.016396
C 0.987861 1.522249 3.513760
C 1.534529 1.014374 3.512697
C 1.535021 1.515527 3.022349
C 1.257530 1.293904 3.240066
C 1.273300 1.745106 3.774370
C 1.709184 1.238257 3.768214
C 1.726753 1.772746 3.297812
C 2.024566 0.997288 3.028375
C 1.970430 1.512107 3.490751
C 2.529080 0.980772 3.499126
C 2.488938 1.532797 2.971917
C 2.278715 1.241028 3.222203
C 2.285444 1.777589 3.736157
C 2.764885 1.275262 3.729524
C 2.783600 1.730586 3.250691
C 2.977488 1.009044 3.003927
C 3.040085 1.503634 3.476781
C 3.482998 1.042876 3.501565
C 3.517202 1.481132 2.999463
C 3.254091 1.283493 3.228025
C 3.256767 1.755323 3.774217
C 3.766375 1.269437 3.744109
C 3.770836 1.767657 3.229431
C 4.036548 1.012145 2.986202
C 3.976092 1.538356 3.500854
C 4.490530 1.001578 3.459224
C 4.505444 1.482605 3.029689
C 4.249974 1.243728 3.246672
C 4.230100 1.788594 3.734734
C 4.785414 1.265723 3.728857
C 4.776838 1.742532 3.228442
C 5.026242 0.985333 2.984490
C 5.016185 1.545412 3.492236
C 5.526556 1.022445 3.475869
C 5.526285 1.530366 2.975681
C 5.237756 1.263932 3.254808
C 5.224590 1.751343 3.774676
C 5.736600 1.266128 3.720574
C 5.748722 1.759776 3.284923
C 0.005875 2.043600 3.023427
C 0.008042 2.455281 3.493204
C 0.486914 2.024481 3.505433
C 0.488404 2.481222 3.026168
C 0.264362 2.205359 3.247905
C 0.239023 2.785344 3.747416
C 0.737611 2.243960 3.737873
C 0.774424 2.733923 3.248887
C 1.033193 2.005594 2.965051
C 1.009910 2.478233 3.533253
C 1.498983 2.026005 3.490263
C 1.473579 2.477639 3.012852
C 1.242912 2.230722 3.226261
C 1.233857 2.765049 3.750183
C 1.743430 2.240624 3.722436
C 1.760582 2.778156 3.264317
C 1.966234 2.039072 2.998936
C 2.019956 2.491810 3.486941
C 2.505230 2.020269 3.492878
C 2.469944 2.510585 2.972058
C 2.265285 2.218857 3.261764
C 2.221669 2.786921 3.751925
C 2.770654 2.248444 3.795742
C 2.751141 2.782022 3.235402
C 3.005047 1.987226 3.051832
C 2.997360 2.494320 3.487899
C 3.455450 1.981688 3.484713
C 3.536068 2.524697 2.986777
C 3.221609 2.252967 3.235807
C 3.247457 2.725915 3.758114
C 3.780956 2.245284 3.739689
C 3.735344 2.698994 3.273323
C 4.000809 1.992640 2.966023
C 3.976320 2.494808 3.504838
C 4.527797 1.981734 3.502495
C 4.513498 2.467202 2.981073
C 4.213377 2.230575 3.248701
C 4.217423 2.771673 3.775092
C 4.757308 2.247512 3.737283
C 4.764959 2.730491 3.262696
C 5.008575 1.974885 2.983390
C 4.989104 2.537650 3.536599
C 5.504302 1.991830 3.489023
C 5.471184 2.490066 3.021208
C 5.297716 2.237261 3.239786
C 5.262213 2.780853 3.780791
C 5.738440 2.265324 3.749884
C 5.702250 2.733612 3.242598
C 0.008432 2.966043 2.991342
C 0.004245 3.533149 3.516541
C 0.524371 2.982566 3.505079
C 0.473791 3.485696 2.991235
C 0.259287 3.264532 3.258159
C 0.245972 3.758247 3.784927
C 0.722040 3.241090 3.726774
C 0.739941 3.774512 3.263253
C 1.008095 2.997179 3.044987
C 0.985293 3.538570 3.473974
C 1.534692 3.006814 3.500759
C 1.513958 3.461306 3.013375
C 1.228141 3.252705 3.259350
C 1.238933 3.782469 3.734075
C 1.741309 3.266698 3.783070
C 1.773817 3.773282 3.276756
C 1.983880 3.031245 2.999112
C 2.006615 3.482879 3.494128
C 2.465237 2.972168 3.524521
C 2.472618 3.505438 2.965400
C 2.289560 3.243450 3.254409
C 2.230150 3.742929 3.724552
C 2.776032 3.220479 3.770360
C 2.778849 3.744345 3.253829
C 3.022384 2.983782 3.011545
C 2.991210 3.483075 3.516374
C 3.503876 2.980687 3.536093
C 3.493299 3.463852 3.018319
C 3.244035 3.240745 3.214908
C 3.218754 3.754800 3.745156
C 3.704377 3.257632 3.728763
C 3.737067 3.733143 3.264340
C 4.016866 3.000978 2.986926
C 3.976653 3.517820 3.516620
C 4.534767 3.021296 3.519864
C 4.481050 3.495081 2.974398
C 4.261594 3.217821 3.225492
C 4.297498 3.757320 3.738215
C 4.761389 3.230282 3.775950
C 4.746204 3.730830 3.242738
C 5.010080 3.014986 2.987683
C 5.031233 3.498337 3.500513
C 5.534177 2.987346 3.478550
C 5.491785 3.508200 3.025134
C 5.205516 3.228830 3.259909
C 5.274477 3.754886 3.774219
C 5.715436 3.244335 3.790733
C 5.713667 3.736158 3.268912
C 0.031197 4.001507 2.973532
C 0.013754 4.490180 3.507766
C 0.523912 4.012609 3.489196
C 0.509655 4.526332 3.012534
C 0.231355 4.244576 3.281631
C 0.274742 4.784063 3.776975
C 0.743072 4.257775 3.728402
C 0.763337 4.739197 3.211272
C 1.001910 3.962511 2.993941
C 0.986164 4.501445 3.501771
C 1.491378 4.024726 3.508086
C 1.510520 4.463322 3.006451
C 1.275390 4.266487 3.259182
C 1.243226 4.786983 3.745910
C 1.716301 4.249984 3.746175
C 1.711636 4.743633 3.231954
C 2.014557 4.005897 3.016318
C 2.004917 4.480600 3.469569
C 2.474941 3.972967 3.465486
C 2.500127 4.463708 3.022775
C 2.247532 4.243896 3.292300
C 2.265165 4.732255 3.770046
C 2.730741 4.211388 3.734479
C 2.761368 4.752094 3.285354
C 2.994744 4.004403 2.994602
C 2.991550 4.500351 3.482883
C 3.462657 4.000358 3.527352
C 3.507667 4.471493 2.982397
C 3.232619 4.206542 3.264290
C 3.241015 4.730797 3.746488
C 3.768934 4.262236 3.753726
C 3.723691 4.759757 3.292115
C 4.029371 4.004404 3.027975
C 3.978609 4.517053 3.515265
C 4.513595 3.970852 3.487990
C 4.512243 4.530747 2.969458
C 4.254338 4.261941 3.286595
C 4.226291 4.737316 3.730025
C 4.766396 4.217882 3.767779
C 4.730998 4.772359 3.239667
C 5.033319 4.008288 2.978400
C 4.987021 4.525349 3.465730
C 5.529720 4.000562 3.468467
C 5.484113 4.515572 3.020362
C 5.228996 4.267017 3.223044
C 5.232904 4.727511 3.756749
C 5.741497 4.258175 3.769442
C 5.745086 4.737642 3.233556
C 0.001618 5.027992 2.971269
C 0.033571 5.524260 3.478520
C 0.466729 5.017838 3.537781
C 0.498815 5.517476 3.018814
C 0.269001 5.270026 3.239640
C 0.267731 5.706719 3.725890
C 0.760048 5.215057 3.743093
C 0.763644 5.698546 3.257532
C 0.989696 5.029522 3.011979
C 0.980849 5.472595 3.526428
C 1.484705 5.009266 3.477443
C 1.483002 5.522239 2.975971
C 1.238116 5.251606 3.211224
C 1.245468 5.725796 3.771176
C 1.771364 5.252425 3.761437
C 1.753870 5.743337 3.218362
C 2.017633 5.044792 2.984421
C 2.011644 5.537818 3.509489
C 2.546806 5.001383 3.494223
C 2.477871 5.492127 2.957940
C 2.269363 5.277029 3.254197
C 2.242625 5.731251 3.776780
C 2.742108 5.278495 3.767277
C 2.742950 5.727758 3.222288
C 3.037733 4.982528 3.008501
C 3.025315 5.486330 3.469904
C 3.509934 5.046620 3.515415
C 3.481488 5.549066 2.997888
C 3.250180 5.278712 3.216141
C 3.240619 5.731266 3.711725
C 3.753168 5.239836 3.777325
C 3.767594 5.746308 3.285524
C 3.994659 4.988128 3.000886
C 3.985875 5.478053 3.488671
C 4.504180 5.007930 3.469081
C 4.457051 5.483728 2.984981
C 4.207124 5.264827 3.244987
C 4.241192 5.719215 3.761380
C 4.740873 5.276131 3.745139
C 4.764164 5.719322 3.270617
C 4.987088 5.006326 2.975990
C 4.981259 5.480979 3.503408
C 5.504551 4.997510 3.510353
C 5.470572 5.504225 3.000714
C 5.233827 5.274288 3.230469
C 5.262579 5.749772 3.744009
C 5.739407 5.238484 3.742157
C 5.727282 5.734725 3.204117
C 0.027029 0.056509 3.967074
C 0.007892 0.531745 4.452658
C 0.470992 0.036595 4.468024
C 0.529415 0.515355 3.984781
C 0.257907 0.252935 4.215576
C 0.247666 0.717844 4.722344
C 0.766862 0.222926 4.766535
C 0.734362 0.779794 4.237863
C 1.013241 0.026142 3.961965
C 0.997036 0.527947 4.521762
C 1.505398 0.041526 4.540916
C 1.543227 0.495336 3.968741
C 1.233811 0.229201 4.235101
C 1.259111 0.747094 4.769710
C 1.775068 0.260422 4.715912
C 1.771680 0.750230 4.234579
C 2.019806 0.030452 3.963362
C 2.019437 0.499705 4.519465
C 2.479606 0.027595 4.484373
C 2.507446 0.471284 3.973443
C 2.250660 0.245500 4.215051
C 2.243015 0.764120 4.730445
C 2.763495 0.299517 4.746587
C 2.746582 0.730040 4.291285
C 2.991508 0.024415 3.963468
C 2.970627 0.484316 4.487899
C 3.522006 0.020817 4.503144
C 3.480268 0.495421 3.974481
C 3.257475 0.252764 4.290172
C 3.251695 0.748597 4.719915
C 3.763076 0.235138 4.764269
C 3.765605 0.780208 4.226966
C 3.991848 0.039669 4.007519
C 3.973301 0.491198 4.520325
C 4.470445 0.030649 4.493707
C 4.516262 0.530860 4.021479
C 4.267118 0.264552 4.242808
C 4.252724 0.760073 4.789494
C 4.787072 0.249239 4.755974
C 4.747315 0.740294 4.276555
C 4.983941 0.015232 4.048963
C 4.960817 0.492373 4.492684
C 5.536078 0.024793 4.520722
C 5.481254 0.485037 3.994180
C 5.217139 0.249655 4.224275
C 5.276965 0.731981 4.725910
C 5.743998 0.205060 4.771346
C 5.712092 0.772113 4.262475
C 0.014643 1.006340 4.016893
C 0.024825 1.547775 4.474153
C 0.509010 1.005507 4.494193
C 0.523692 1.503678 3.983972
C 0.271498 1.248639 4.216033
C 0.248557 1.753576 4.729849
C 0.750889 1.228861 4.744459
C 0.768476 1.790741 4.224191
C 0.994989 1.018770 3.990472
C 1.028807 1.485738 4.511317
C 1.508073 1.004425 4.481553
C 1.481411 1.519477 4.035302
C 1.226176 1.223071 4.229906
C 1.258540 1.736848 4.780246
C 1.763510 1.255030 4.715926
C 1.746951 1.781833 4.270035
C 2.012353 0.997099 4.048920
C 2.018467 1.537879 4.516457
C 2.481577 0.987015 4.495357
C 2.473912 1.517942 3.987019
C 2.252864 1.224903 4.259658
C 2.264138 1.744568 4.744024
C 2.772667 1.291781 4.731445
C 2.723244 1.738259 4.224899
C 2.978566 1.032855 4.009459
C 3.030323 1.458609 4.504948
C 3.515785 0.983576 4.501190
C 3.505951 1.530278 4.032482
C 3.268513 1.226297 4.279399
C 3.227489 1.740635 4.761446
C 3.790684 1.259336 4.759192
C 3.739672 1.713658 4.270567
C 4.007024 1.037069 4.001362
C 4.027706 1.485029 4.512522
C 4.520521 0.969156 4.505689
C 4.522942 1.482350 3.975319
C 4.249775 1.261702 4.240470
C 4.259809 1.716115 4.762680
C 4.735439 1.270098 4.702867
C 4.744970 1.724455 4.266123
C 5.032294 1.009367 4.014705
C 5.017705 1.486298 4.498704
C 5.534371 1.031389 4.485690
C 5.481303 1.538017 4.012749
C 5.248033 1.232762 4.295012
C 5.265820 1.773127 4.762221
C 5.715995 1.236182 4.758282
C 5.721434 1.764691 4.257576
C 0.004757 2.019766 3.999941
C 0.026177 2.499171 4.474903
C 0.520386 2.008243 4.486014
C 0.492872 2.488837 3.970701
C 0.248626 2.222007 4.236080
C 0.260524 2.721783 4.730220
C 0.746444 2.251019 4.790683
C 0.796407 2.758896 4.238546
C 1.022085 1.988831 4.044337
C 1.010808 2.521870 4.507696
C 1.492712 2.004818 4.495437
C 1.538377 2.459189 4.020727
C 1.250666 2.293126 4.229890
C 1.278651 2.731439 4.732493
C 1.769074 2.230455 4.783338
C 1.752773 2.721563 4.270912
C 2.007251 2.007912 3.996866
C 2.009043 2.520392 4.510136
C 2.483091 1.965881 4.499774
C 2.483989 2.512084 4.016331
C 2.266833 2.263378 4.251152
C 2.262646 2.751631 4.730095
C 2.751658 2.244564 4.779311
C 2.768661 2.744226 4.217753
C 2.973242 1.998004 4.020658
C 3.004982 2.522901 4.486752
C 3.531001 1.996669 4.480077
C 3.494123 2.508325 3.976860
C 3.211692 2.244798 4.256063
C 3.253416 2.752796 4.749733
C 3.745827 2.289521 4.766300
C 3.783333 2.755492 4.255041
C 3.952800 1.999954 3.993811
C 3.998811 2.534601 4.504512
C 4.492150 1.974394 4.516280
C 4.487903 2.492637 4.000924
C 4.295286 2.268191 4.254089
C 4.240377 2.753768 4.748286
C 4.758675 2.270767 4.773305
C 4.723173 2.725680 4.220982
C 4.999129 2.020557 3.979640
C 5.011169 2.464393 4.505801
C 5.501040 2.033047 4.520927
C 5.513137 2.468673 4.003421
C 5.235398 2.253477 4.260198
C 5.274582 2.778148 4.754525
C 5.719035 2.272943 4.752162
C 5.719315 2.724810 4.261058
C 0.046158 2.968448 4.017169
C 0.013488 3.496751 4.457572
C 0.474695 3.024038 4.468906
C 0.488653 3.522684 4.024013
C 0.229903 3.225833 4.218021
C 0.261141 3.728267 4.765332
C 0.754002 3.254288 4.775270
C 0.727476 3.776053 4.237050
C 1.038861 3.023546 3.985738
C 0.990517 3.521909 4.468415
C 1.476963 2.997964 4.482652
C 1.468488 3.511734 3.994166
C 1.211280 3.231595 4.266744
C 1.236128 3.733646 4.766107
C 1.726289 3.243989 4.775071
C 1.784429 3.769173 4.248594
C 2.036067 3.006529 4.004305
C 1.999276 3.514469 4.470258
C 2.473992 3.008304 4.513845
C 2.494214 3.482592 3.971809
C 2.273855 3.270725 4.252547
C 2.242405 3.727979 4.774156
C 2.755348 3.275723 4.779295
C 2.724210 3.780155 4.247536
C 3.032096 2.967128 3.984208
C 3.005297 3.507193 4.506397
C 3.542646 2.988461 4.498209
C 3.487409 3.506272 3.957799
C 3.220716 3.235102 4.254741
C 3.249940 3.759266 4.718712
C 3.731104 3.224068 4.757447
C 3.704850 3.761246 4.247434
C 4.010070 3.018042 4.018323
C 4.040698 3.509547 4.507581
C 4.533165 3.009105 4.483461
C 4.497614 3.495866 3.968901
C 4.255487 3.217438 4.253088
C 4.274055 3.760297 4.726824
C 4.772153 3.281169 4.736545
C 4.758794 3.737483 4.236014
C 5.009193 2.957247 4.022496
C 5.021613 3.480083 4.525007
C 5.500902 2.983320 4.477815
C 5.488591 3.491171 3.979595
C 5.221580 3.214267 4.233487
C 5.239271 3.761221 4.779504
C 5.727216 3.256225 4.745469
C 5.747248 3.724329 4.297004
C 0.032910 4.046229 3.978796
C 0.020895 4.518032 4.540509
C 0.487297 4.018713 4.464127
C 0.506256 4.534726 3.996547
C 0.246566 4.239194 4.244916
C 0.257051 4.769432 4.726824
C 0.739960 4.234942 4.780638
C 0.734077 4.779830 4.228991
C 0.981618 4.011626 3.991537
C 0.994760 4.479487 4.475254
C 1.454568 3.985253 4.497621
C 1.478303 4.483531 4.026929
C 1.256438 4.226981 4.266932
C 1.245108 4.786667 4.747327
C 1.743189 4.231061 4.725372
C 1.742985 4.787040 4.255502
C 2.021674 4.038847 4.021880
C 2.023281 4.529969 4.500278
C 2.488313 4.034410 4.475096
C 2.465086 4.478324 4.005604
C 2.249031 4.270069 4.255565
C 2.246825 4.718335 4.761213
C 2.718888 4.275338 4.772084
C 2.777643 4.732206 4.253389
C 3.021875 3.999938 4.012002
C 3.001770 4.495823 4.481172
C 3.486811 3.999091 4.536328
C 3.490137 4.488501 3.978402
C 3.260714 4.306086 4.237740
C 3.266213 4.790151 4.776061
C 3.740455 4.234768 4.748800
C 3.719626 4.774350 4.271608
C 4.002110 4.012284 3.970050
C 4.026589 4.523238 4.509000
C 4.477632 4.041890 4.502896
C 4.475786 4.525411 3.995319
C 4.236742 4.255641 4.266346
C 4.276768 4.732629 4.741248
C 4.773726 4.224138 4.770039
C 4.724864 4.755822 4.259463
C 5.037922 3.993968 3.974482
C 4.973092 4.472388 4.491527
C 5.457485 4.008156 4.490715
C 5.482276 4.504286 4.011329
C 5.252482 4.251286 4.243930
C 5.251426 4.732516 4.779633
C 5.739624 4.231149 4.796725
C 5.711744 4.786060 4.242428
C 0.031933 5.009015 4.016615
C 0.018314 5.519635 4.490590
C 0.511431 4.987341 4.529517
C 0.512688 5.528793 3.984457
C 0.262445 5.220962 4.260976
C 0.219245 5.699836 4.750126
C 0.730624 5.216313 4.779605
C 0.782526 5.742293 4.240479
C 0.996566 4.990363 3.981392
C 1.001565 5.535197 4.492876
C 1.468981 5.015927 4.498100
C 1.523635 5.483783 4.013350
C 1.235796 5.271336 4.242071
C 1.216901 5.729483 4.772772
C 1.733432 5.247311 4.786213
C 1.756205 5.748270 4.258635
C 1.980493 5.010952 3.988980
C 2.018209 5.492760 4.494566
C 2.511667 4.951874 4.499501
C 2.508655 5.510473 4.018479
C 2.254867 5.238075 4.229843
C 2.230856 5.746340 4.720878
C 2.777136 5.238204 4.747506
C 2.719333 5.745508 4.251816
C 2.968287 4.981404 4.015995
C 3.003917 5.505106 4.485737
C 3.476727 5.001915 4.493166
C 3.523198 5.503221 3.965266
C 3.265819 5.239519 4.208277
C 3.220078 5.748963 4.730147
C 3.792907 5.241754 4.749296
C 3.745382 5.727043 4.290728
C 4.000410 4.997134 4.036938
C 3.999815 5.494025 4.509296
C 4.509111 5.006884 4.525770
C 4.480625 5.490438 3.999823
C 4.216952 5.246754 4.224974
C 4.230846 5.743464 4.724043
C 4.756400 5.234368 4.765807
C 4.706710 5.747488 4.222631
C 4.987620 4.966171 4.019411
C 4.991748 5.519675 4.470237
C 5.480438 5.020500 4.503980
C 5.526356 5.498908 3.995319
C 5.248126 5.226877 4.256025
C 5.202735 5.746622 4.746845
C 5.740800 5.260887 4.717535
C 5.696300 5.745375 4.203984
C 0.003102 0.005603 4.969610
C 0.003152 0.478059 5.526151
C 0.504757 0.013705 5.506883
C 0.516022 0.464122 4.998043
C 0.231517 0.260895 5.238429
C 0.242568 0.750336 5.747527
C 0.762241 0.214304 5.697002
C 0.715734 0.762983 5.257363
C 0.989425 0.015401 5.010836
C 1.030572 0.477404 5.490826
C 1.494997 0.005056 5.503805
C 1.512249 0.504150 4.973600
C 1.256939 0.237335 5.209277
C 1.234313 0.719235 5.725716
C 1.792533 0.220380 5.739616
C 1.726134 0.777895 5.255282
C 2.025368 0.023104 4.992939
C 2.021850 0.530066 5.518340
C 2.462565 0.004508 5.510387
C 2.494485 0.512184 5.014116
C 2.272926 0.258003 5.243925
C 2.246638 0.785108 5.728541
C 2.758550 0.273839 5.749507
C 2.742585 0.697419 5.255783
C 3.045998 0.003984 5.001313
C 3.007849 0.494689 5.492172
C 3.485363 0.012609 5.528939
C 3.488134 0.513914 5.048851
C 3.235533 0.276286 5.249069
C 3.241023 0.731397 5.719769
C 3.756391 0.245133 5.733434
C 3.729247 0.753834 5.241239
C 4.018963 0.035531 5.011467
C 3.989904 0.515089 5.511919
C 4.459753 0.029108 5.495104
C 4.534622 0.532180 4.995397
C 4.205239 0.275848 5.269777
C 4.224656 0.746350 5.741760
C 4.739009 0.229324 5.733258
C 4.766372 0.782017 5.253990
C 5.028743 0.015603 4.992640
C 4.977622 0.474944 5.499636
C 5.539577 0.032927 5.481184
C 5.522428 0.502533 4.964433
C 5.257130 0.234172 5.286222
C 5.285674 0.772352 5.723525
C 5.741521 0.202567 5.743319
C 5.733796 0.750309 5.292430
C 0.027894 1.018756 5.014967
C 0.011447 1.525970 5.512947
C 0.523798 0.987423 5.501357
C 0.487544 1.527718 5.003641
C 0.236293 1.235198 5.268804
C 0.255081 1.685175 5.740789
C 0.775388 1.218456 5.743967
C 0.728122 1.774725 5.243215
C 1.021890 0.993427 5.006031
C 1.019314 1.474525 5.517731
C 1.495811 1.025078 5.497403
C 1.514220 1.499535 4.992926
C 1.223308 1.223024 5.266600
C 1.284814 1.744866 5.717314
C 1.725836 1.239435 5.736503
C 1.749650 1.744488 5.212218
C 2.031970 0.974154 5.009393
C 1.970136 1.486987 5.501127
C 2.476148 1.016744 5.505224
C 2.498690 1.501709 4.968294
C 2.259185 1.248648 5.263770
C 2.275067 1.761972 5.745914
C 2.726670 1.199330 5.728124
C 2.728693 1.720743 5.214398
C 2.985069 0.998338 4.981011
C 2.980281 1.484677 5.481927
C 3.537932 0.996961 5.516755
C 3.452618 1.482313 4.974601
C 3.264728 1.269763 5.242538
C 3.286982 1.744429 5.743576
C 3.718079 1.254708 5.709005
C 3.764059 1.765436 5.267423
C 3.975380 0.989284 4.996659
C 3.957718 1.488367 5.474226
C 4.518054 0.992353 5.471617
C 4.519092 1.506070 5.028890
C 4.258293 1.247743 5.270255
C 4.300831 1.730455 5.713057
C 4.697951 1.240237 5.738748
C 4.765699 1.766680 5.281072
C 5.005078 1.003024 5.023237
C 5.015364 1.479721 5.527106
C 5.518166 1.014166 5.536887
C 5.485172 1.508158 4.999964
C 5.247850 1.270467 5.220557
C 5.211580 1.758713 5.734547
C 5.741834 1.293141 5.728753
C 5.736671 1.723010 5.270501
C 0.019927 1.949374 5.006743
C 0.020967 2.508428 5.462452
C 0.500669 1.996630 5.517600
C 0.520261 2.507021 4.987160
C 0.230635 2.233592 5.252627
C 0.244432 2.735633 5.723020
C 0.738679 2.250257 5.704430
C 0.740988 2.753001 5.276059
C 1.025851 1.999122 4.967029
C 0.971148 2.520202 5.515039
C 1.485940 1.973253 5.462029
C 1.513797 2.508546 5.025395
C 1.249122 2.247826 5.234770
C 1.256079 2.698119 5.722174
C 1.766748 2.278514 5.727721
C 1.739719 2.747841 5.291026
C 2.032457 1.966693 5.007675
C 2.017526 2.503629 5.494827
C 2.554769 1.994566 5.482727
C 2.483931 2.506419 4.991325
C 2.262388 2.253695 5.267615
C 2.245178 2.772370 5.749449
C 2.749147 2.223742 5.727024
C 2.731378 2.747463 5.278998
C 2.981555 1.961115 4.993713
C 2.998856 2.474334 5.502028
C 3.525640 1.999842 5.497784
C 3.487915 2.525842 4.994333
C 3.248351 2.234759 5.279977
C 3.238216 2.738159 5.690468
C 3.729242 2.207502 5.749211
C 3.740545 2.759777 5.249607
C 4.004391 1.970874 4.975114
C 4.033173 2.485675 5.510311
C 4.485930 1.985623 5.520264
C 4.516165 2.480170 4.998569
C 4.231160 2.221281 5.255198
C 4.220207 2.766299 5.726747
C 4.753620 2.203257 5.737494
C 4.731629 2.752999 5.287898
C 4.981401 2.002172 4.968330
C 5.004782 2.525296 5.507055
C 5.494445 1.976674 5.473901
C 5.482801 2.526353 5.015179
C 5.218512 2.268048 5.270991
C 5.249397 2.765423 5.737479
C 5.712315 2.228156 5.694537
C 5.729114 2.755940 5.206383
C 0.015791 3.008685 5.034136
C 0.016161 3.505108 5.492256
C 0.490053 3.007450 5.549483
C 0.480857 3.481203 5.036912
C 0.265138 3.231386 5.229958
C 0.225880 3.758909 5.714378
C 0.739779 3.251996 5.715466
C 0.780283 3.725774 5.276515
C 1.005726 2.999935 4.965921
C 1.024408 3.471971 5.488329
C 1.528424 2.996883 5.526877
C 1.497143 3.485849 4.988087
C 1.214482 3.282746 5.229278
C 1.214269 3.746805 5.699595
C 1.770836 3.263509 5.745972
C 1.748029 3.711841 5.254973
C 1.979237 2.965165 4.988082
C 2.031950 3.525950 5.506552
C 2.489779 2.997025 5.526044
C 2.488488 3.485674 4.968162
C 2.227955 3.241003 5.244920
C 2.249302 3.806002 5.733612
C 2.755769 3.255730 5.742756
C 2.730214 3.723753 5.218589
C 3.024775 2.997062 4.991597
C 3.018015 3.487571 5.523964
C 3.493459 2.956358 5.521183
C 3.485323 3.505996 4.985851
C 3.229686 3.259941 5.234980
C 3.254325 3.728356 5.746262
C 3.741089 3.251087 5.741909
C 3.726135 3.746289 5.232730
C 3.975251 3.014869 4.996970
C 3.973563 3.482524 5.503616
C 4.537467 2.992526 5.532476
C 4.484302 3.528403 4.981112
C 4.213572 3.244541 5.257491
C 4.238549 3.721225 5.742412
C 4.703842 3.246783 5.742413
C 4.724301 3.783793 5.225760
C 4.985874 3.007004 4.974831
C 4.976640 3.490391 5.512595
C 5.480444 2.991467 5.508958
C 5.478594 3.469114 4.986352
C 5.230716 3.267545 5.227948
C 5.252738 3.718830 5.749613
C 5.719344 3.214204 5.743278
C 5.748724 3.783925 5.253231
C 0.025374 4.000125 4.974688
C 0.000876 4.481450 5.537031
C 0.490268 4.018460 5.500408
C 0.475953 4.486635 5.027907
C 0.253888 4.245191 5.267318
C 0.246920 4.772963 5.715610
C 0.713844 4.217998 5.748463
C 0.740442 4.771515 5.228076
C 1.036514 3.986596 4.992255
C 0.967074 4.499033 5.516766
C 1.491019 3.972957 5.477793
C 1.471434 4.492289 5.033151
C 1.210444 4.241554 5.276921
C 1.208955 4.750847 5.742843
C 1.770045 4.271042 5.738675
C 1.762641 4.727473 5.271530
C 2.011120 4.000400 5.027166
C 2.010340 4.535995 5.530539
C 2.472851 3.968353 5.492367
C 2.499177 4.495818 5.021737
C 2.275536 4.220409 5.265409
C 2.289514 4.731136 5.749493
C 2.751674 4.255298 5.708754
C 2.724762 4.754158 5.227127
C 3.040569 3.993565 4.978336
C 2.986698 4.502282 5.486754
C 3.492877 4.000587 5.469092
C 3.481358 4.513110 4.994363
C 3.273586 4.277767 5.265372
C 3.235339 4.720732 5.727558
C 3.764822 4.211383 5.733588
C 3.721081 4.794735 5.248743
C 4.002620 3.993572 4.952580
C 3.987627 4.523155 5.515503
C 4.497321 4.019675 5.518654
C 4.489708 4.514678 5.038860
C 4.236188 4.221306 5.227959
C 4.230877 4.758272 5.726630
C 4.715628 4.268593 5.736036
C 4.741240 4.725163 5.242923
C 5.012773 3.982375 5.027966
C 5.010709 4.521017 5.500964
C 5.511676 4.005383 5.503645
C 5.533632 4.503124 5.036409
C 5.226214 4.281704 5.267546
C 5.213033 4.783252 5.746228
C 5.732060 4.238498 5.744562
C 5.729845 4.758408 5.192859
C 0.012088 4.985796 5.018183
C 0.037555 5.496713 5.548223
C 0.498716 4.995261 5.483268
C 0.518609 5.466538 5.004406
C 0.212159 5.233794 5.277463
C 0.293156 5.733121 5.741993
C 0.780349 5.244770 5.732534
C 0.758338 5.743917 5.199904
C 0.982861 4.988510 4.997626
C 1.028272 5.492535 5.530239
C 1.499785 4.967962 5.488594
C 1.523812 5.514742 5.000470
C 1.251643 5.274037 5.287355
C 1.205438 5.743984 5.697396
C 1.781044 5.263160 5.740158
C 1.774552 5.733134 5.202285
C 1.963441 5.002819 5.002399
C 2.030825 5.498109 5.503444
C 2.481817 4.973742 5.517191
C 2.508791 5.496541 4.979661
C 2.245233 5.245867 5.237252
C 2.303053 5.712568 5.716723
C 2.719509 5.272115 5.731542
C 2.781697 5.746406 5.215313
C 2.994069 5.029544 5.015202
C 3.007914 5.532026 5.501315
C 3.480222 4.995817 5.520523
C 3.457276 5.533176 4.988085
C 3.227083 5.235913 5.253877
C 3.263761 5.731164 5.744614
C 3.734467 5.227683 5.747383
C 3.742893 5.699403 5.239028
C 4.018269 4.997337 5.038806
C 4.002465 5.472525 5.479779
C 4.475294 5.019133 5.500282
C 4.495908 5.515687 4.984162
C 4.242747 5.259476 5.245306
C 4.231298 5.701266 5.722472
C 4.734753 5.222009 5.742687
C 4.734434 5.713027 5.245830
C 5.019776 4.996884 5.026882
C 5.026300 5.493145 5.460565
C 5.459788 4.984077 5.514940
C 5.472162 5.468331 4.990446
C 5.290353 5.236256 5.252431
C 5.256470 5.722978 5.728787
C 5.721228 5.292128 5.737141
C 5.717189 5.703619 5.240773
1728
Frame 4/10
C 0.085392 0.035614 0.054928
C 0.052383 0.531394 0.531665
C 0.478692 0.042974 0.567199
C 0.512211 0.556979 0.006395
C 0.188006 0.319176 0.268248
C 0.190422 0.777902 0.742095
C 0.750216 0.233229 0.809553
C 0.708750 0.759962 0.247306
C 0.942812 0.044459 0.056561
C 0.986240 0.451501 0.479917
C 1.505870 0.047646 0.485184
C 1.431721 0.474813 0.019367
C 1.233930 0.236540 0.232684
C 1.221455 0.724778 0.771110
C 1.769793 0.283990 0.764670
C 1.730298 0.750310 0.203806
C 2.021488 0.016823 0.040475
C 2.004678 0.496002 0.554354
C 2.490357 0.015342 0.498790
C 2.464365 0.539395 0.021357
C 2.228300 0.238642 0.274178
C 2.238646 0.705000 0.778965
C 2.766829 0.233723 0.729632
C 2.722635 0.709581 0.225452
C 3.023747 0.020346 0.007201
C 3.009996 0.523695 0.544314
C 3.519160 0.006895 0.454939
C 3.532062 0.486856 0.007205
C 3.265652 0.296398 0.184682
C 3.277352 0.767257 0.740690
C 3.772772 0.246243 0.713389
C 3.733455 0.820021 0.243967
C 4.082392 0.036606 0.007488
C 3.944618 0.514150 0.519082
C 4.523465 0.044892 0.483345
C 4.471241 0.523634 0.040604
C 4.261615 0.282697 0.225084
C 4.245813 0.772066 0.786759
C 4.759861 0.280180 0.750062
C 4.751048 0.713093 0.242407
C 4.930369 0.002219 0.023862
C 5.015843 0.482149 0.477195
C 5.466143 0.027527 0.545039
C 5.498075 0.442148 0.069464
C 5.213680 0.217621 0.287236
C 5.243206 0.721139 0.797032
C 5.716467 0.269408 0.766572
C 5.708977 0.733402 0.236451
C 0.001677 0.944663 0.011929
C 0.046277 1.494722 0.517602
C 0.470857 0.975384 0.437605
C 0.467811 1.486248 0.064009
C 0.232479 1.222834 0.229516
C 0.213767 1.776113 0.688818
C 0.737696 1.206025 0.754461
C 0.762374 1.745938 0.299977
C 1.015106 0.965033 0.004431
C 0.963682 1.484122 0.495335
C 1.550432 1.005133 0.548175
C 1.497093 1.498164 0.018514
C 1.220868 1.223279 0.289473
C 1.202101 1.739011 0.712437
C 1.697894 1.262138 0.745755
C 1.734368 1.762015 0.296007
C 1.962349 1.035717 0.012921
C 1.998445 1.515688 0.485644
C 2.469746 1.008642 0.546513
C 2.510994 1.518054 0.020743
C 2.286794 1.263252 0.236362
C 2.241218 1.714508 0.725315
C 2.751599 1.298289 0.777216
C 2.717982 1.801165 0.230430
C 3.015230 1.007096 0.046298
C 3.021003 1.525242 0.507151
C 3.494127 1.020529 0.482419
C 3.556932 1.432274 0.001401
C 3.269485 1.241363 0.190708
C 3.225157 1.786836 0.797497
C 3.743380 1.277317 0.710954
C 3.794319 1.716825 0.224441
C 3.997874 1.056651 0.024422
C 4.023519 1.496406 0.513455
C 4.514842 0.958733 0.538936
C 4.516637 1.494342 0.052939
C 4.306338 1.211207 0.253475
C 4.277180 1.708158 0.706398
C 4.750606 1.262696 0.727988
C 4.756762 1.746984 0.218847
C 4.964234 1.001383 0.007118
C 5.020100 1.452188 0.461749
C 5.486951 1.019031 0.514003
C 5.448582 1.491487 0.015135
C 5.261902 1.198709 0.225109
C 5.230278 1.745696 0.725103
C 5.738946 1.286154 0.762358
C 5.719438 1.762916 0.228914
C 0.051740 1.967329 0.045854
C 0.000436 2.543839 0.494936
C 0.477947 1.941034 0.504614
C 0.547460 2.529223 0.036277
C 0.229281 2.253019 0.247948
C 0.277209 2.694965 0.741972
C 0.710580 2.252746 0.734132
C 0.694097 2.793858 0.267980
C 1.043955 2.060773 0.014097
C 1.025712 2.525072 0.490381
C 1.484521 1.994916 0.499796
C 1.554100 2.555933 0.010349
C 1.228698 2.224036 0.276239
C 1.207152 2.721286 0.741347
C 1.722002 2.276456 0.754728
C 1.815384 2.763192 0.253990
C 2.019653 2.027079 0.025466
C 2.010942 2.507505 0.486434
C 2.556366 1.999530 0.540898
C 2.521174 2.460109 0.057659
C 2.266820 2.226351 0.280443
C 2.250770 2.789964 0.743663
C 2.703264 2.281760 0.760017
C 2.766052 2.762310 0.228241
C 3.043050 2.002866 0.038598
C 2.953138 2.479222 0.555044
C 3.524718 1.978409 0.545301
C 3.477179 2.544299 0.058925
C 3.289287 2.261666 0.265395
C 3.286047 2.762616 0.758657
C 3.716771 2.278241 0.788586
C 3.778318 2.731924 0.251179
C 4.050094 2.011360 0.018385
C 4.031513 2.517352 0.466330
C 4.464579 1.956960 0.511447
C 4.497937 2.589425 0.041266
C 4.282263 2.236709 0.217308
C 4.215581 2.725793 0.733791
C 4.765638 2.250374 0.775403
C 4.758820 2.689250 0.258594
C 4.966731 1.987171 0.001378
C 4.999689 2.511306 0.514918
C 5.479494 1.943167 0.527268
C 5.479154 2.510120 0.050513
C 5.211957 2.264804 0.255882
C 5.249668 2.711049 0.721174
C 5.742424 2.279913 0.676407
C 5.702837 2.731107 0.296396
C 0.051535 3.022395 0.035594
C 0.007340 3.585935 0.496601
C 0.538839 2.988275 0.518273
C 0.518735 3.496650 0.002093
C 0.232344 3.244060 0.302503
C 0.226793 3.764964 0.764648
C 0.797438 3.270033 0.738791
C 0.773523 3.795685 0.269920
C 0.951568 2.942424 0.021644
C 1.030630 3.488695 0.544098
C 1.514705 3.025060 0.427981
C 1.505466 3.546945 0.003798
C 1.194275 3.245346 0.230568
C 1.259856 3.737315 0.741456
C 1.780877 3.247995 0.690647
C 1.757386 3.759078 0.232332
C 1.963389 2.961603 0.003513
C 1.973917 3.510341 0.458537
C 2.552190 3.019097 0.513323
C 2.500341 3.539327 0.027923
C 2.222312 3.260804 0.289520
C 2.312268 3.773268 0.790204
C 2.754685 3.218288 0.761160
C 2.679538 3.707177 0.287308
C 3.013140 3.042343 0.016095
C 2.987582 3.441161 0.496913
C 3.498170 3.005552 0.486497
C 3.504785 3.452696 0.018985
C 3.216550 3.276455 0.255336
C 3.264660 3.793993 0.734782
C 3.800986 3.228971 0.759053
C 3.765389 3.757897 0.233898
C 4.000096 3.010955 0.008116
C 3.953068 3.504261 0.516953
C 4.514349 2.966608 0.537740
C 4.456332 3.505624 0.044924
C 4.250476 3.261672 0.192487
C 4.215306 3.737263 0.763042
C 4.739698 3.275621 0.764383
C 4.785064 3.729988 0.204477
C 4.998029 3.032453 0.020751
C 4.992501 3.465083 0.462172
C 5.519434 3.023272 0.472476
C 5.493996 3.451634 0.027815
C 5.215494 3.278041 0.223409
C 5.263085 3.761744 0.749491
C 5.749137 3.234883 0.725307
C 5.709528 3.709458 0.290589
C 0.020455 3.949734 0.046606
C 0.045322 4.507593 0.440814
C 0.510410 3.940545 0.442929
C 0.470658 4.486838 0.005740
C 0.249530 4.242070 0.208362
C 0.288375 4.722354 0.797370
C 0.704871 4.206876 0.746053
C 0.723605 4.709785 0.290500
C 1.024650 3.971142 0.066891
C 1.042902 4.474679 0.472379
C 1.493589 3.975536 0.546077
C 1.417078 4.494065 0.046163
C 1.293087 4.254604 0.268326
C 1.257466 4.741058 0.807529
C 1.743363 4.264188 0.802239
C 1.778428 4.742299 0.202613
C 2.050541 3.940754 0.033476
C 2.010490 4.500461 0.443501
C 2.462091 3.995522 0.462117
C 2.478631 4.473815 0.039463
C 2.205664 4.243735 0.225420
C 2.214293 4.810335 0.710697
C 2.727220 4.235765 0.738874
C 2.815115 4.716687 0.273880
C 3.019905 3.973844 0.053173
C 2.989249 4.495042 0.540854
C 3.531155 3.963500 0.480614
C 3.477466 4.581390 0.024057
C 3.255937 4.244280 0.209359
C 3.173929 4.758316 0.802529
C 3.789699 4.209745 0.711160
C 3.757034 4.787934 0.231382
C 3.928295 4.037223 0.006114
C 3.973975 4.474011 0.514256
C 4.494675 4.028688 0.461783
C 4.441975 4.456048 0.001344
C 4.259740 4.207925 0.228971
C 4.253656 4.828339 0.753545
C 4.767593 4.306830 0.751041
C 4.695655 4.732652 0.286428
C 5.018857 4.006820 0.021926
C 4.975397 4.514019 0.442034
C 5.542475 3.986308 0.488621
C 5.439901 4.501171 0.040738
C 5.218649 4.270120 0.251563
C 5.244776 4.737344 0.798942
C 5.720696 4.214549 0.750755
C 5.708253 4.779204 0.256203
C 0.026243 4.940249 0.060753
C 0.047646 5.540737 0.448624
C 0.514498 5.055115 0.491115
C 0.436983 5.490437 0.042212
C 0.207065 5.219577 0.309579
C 0.230996 5.747808 0.714871
C 0.790342 5.285192 0.730845
C 0.744203 5.697952 0.193507
C 0.957837 4.970222 0.032795
C 0.983931 5.555334 0.468178
C 1.507853 5.021092 0.535861
C 1.545096 5.512561 0.007906
C 1.218838 5.244202 0.248334
C 1.212057 5.743770 0.701684
C 1.731574 5.257134 0.783840
C 1.729894 5.712106 0.296121
C 1.967457 5.009548 0.071628
C 1.959383 5.462129 0.515150
C 2.460136 4.978666 0.508892
C 2.507932 5.471869 0.023293
C 2.215976 5.208481 0.221370
C 2.297362 5.708184 0.798113
C 2.768214 5.292914 0.767997
C 2.812927 5.743830 0.261734
C 2.967267 4.959756 0.047537
C 2.997689 5.468246 0.519689
C 3.493719 4.999107 0.538709
C 3.473954 5.476289 0.018069
C 3.264523 5.217429 0.204658
C 3.319519 5.731726 0.692102
C 3.809562 5.232726 0.756246
C 3.808106 5.712653 0.234961
C 4.022527 4.953499 0.015687
C 4.004665 5.459258 0.435749
C 4.463757 4.960797 0.509969
C 4.503617 5.453757 0.020784
C 4.300942 5.250913 0.293067
C 4.162613 5.749030 0.802859
C 4.760847 5.194587 0.761634
C 4.776937 5.699995 0.279258
C 4.957774 5.005731 0.015146
C 4.991414 5.462065 0.477876
C 5.452056 4.995834 0.492680
C 5.466637 5.443289 0.009832
C 5.274148 5.251213 0.303034
C 5.221391 5.691918 0.716646
C 5.742112 5.183165 0.765861
C 5.720762 5.712262 0.195701
C 0.008033 0.025899 0.907493
C 0.023948 0.435722 1.528199
C 0.436901 0.006420 1.514446
C 0.484323 0.456428 1.022099
C 0.281012 0.271729 1.269801
C 0.245932 0.691896 1.712791
C 0.715424 0.272049 1.762304
C 0.804159 0.774869 1.231162
C 1.033870 0.022613 0.982100
C 1.044149 0.443870 1.520683
C 1.568484 0.007314 1.515871
C 1.444874 0.472465 0.996495
C 1.256086 0.225976 1.243238
C 1.277826 0.767496 1.764037
C 1.781234 0.301674 1.776428
C 1.753164 0.718684 1.208559
C 1.949432 0.018573 0.983949
C 2.064236 0.494895 1.470936
C 2.548329 0.002082 1.485746
C 2.452528 0.473432 0.990536
C 2.213719 0.270804 1.237905
C 2.304749 0.734636 1.726684
C 2.744832 0.281902 1.757794
C 2.716052 0.763179 1.203378
C 3.017437 0.038193 0.937495
C 2.992793 0.480079 1.535467
C 3.525655 0.012081 1.520783
C 3.567896 0.487328 1.025077
C 3.204411 0.228297 1.277145
C 3.270267 0.776468 1.719690
C 3.764204 0.306816 1.727740
C 3.799586 0.777665 1.252999
C 4.031294 0.077858 1.000202
C 3.992587 0.449824 1.490039
C 4.485747 0.065961 1.506321
C 4.461492 0.510087 0.991357
C 4.257323 0.225749 1.262665
C 4.287971 0.790723 1.706501
C 4.700292 0.235568 1.747997
C 4.766204 0.696329 1.282441
C 5.000545 0.054676 1.000473
C 5.044197 0.454240 1.494360
C 5.506879 0.012220 1.512100
C 5.458155 0.482042 0.933998
C 5.313958 0.270327 1.218139
C 5.221260 0.721923 1.714482
C 5.733473 0.277700 1.778264
C 5.721867 0.785909 1.292494
C 0.014239 1.029398 1.034647
C 0.002208 1.504703 1.463324
C 0.536612 0.999771 1.454061
C 0.479656 1.539563 0.966993
C 0.282416 1.217021 1.301821
C 0.220668 1.770990 1.768905
C 0.686266 1.284264 1.783571
C 0.801530 1.713800 1.249027
C 0.992249 1.036688 1.026379
C 1.049231 1.490355 1.528750
C 1.531010 0.989845 1.459526
C 1.497709 1.521581 1.048433
C 1.273072 1.221385 1.296340
C 1.245468 1.745864 1.753516
C 1.748512 1.282948 1.764739
C 1.777454 1.811880 1.281005
C 1.982180 0.949219 1.015184
C 2.033084 1.534878 1.475397
C 2.527744 0.986498 1.452917
C 2.455057 1.481865 0.970560
C 2.227206 1.245552 1.240606
C 2.285897 1.683242 1.764549
C 2.779636 1.210759 1.713782
C 2.738973 1.770222 1.290943
C 2.959958 1.030501 1.021679
C 2.974076 1.475615 1.531408
C 3.550524 0.978150 1.532018
C 3.546628 1.507553 0.953553
C 3.255091 1.236262 1.244507
C 3.253274 1.783401 1.760020
C 3.745458 1.287767 1.761517
C 3.750895 1.775807 1.280333
C 4.023588 1.032944 0.999614
C 4.015178 1.522288 1.477769
C 4.501809 1.026500 1.492652
C 4.459899 1.496487 0.979935
C 4.266067 1.214785 1.217477
C 4.206987 1.745480 1.760070
C 4.715650 1.236965 1.781276
C 4.749089 1.721056 1.229570
C 4.964926 0.978246 1.031417
C 4.955245 1.512076 1.492331
C 5.455249 0.991043 1.506227
C 5.454811 1.464337 0.995459
C 5.317847 1.229989 1.281380
C 5.265837 1.802763 1.718275
C 5.709818 1.215437 1.712950
C 5.744664 1.694922 1.219632
C 0.013222 1.986211 0.980949
C 0.001133 2.529009 1.483738
C 0.454127 1.986267 1.468980
C 0.468506 2.502010 1.029191
C 0.238040 2.194313 1.223176
C 0.215083 2.788091 1.772509
C 0.799143 2.232104 1.737086
C 0.774157 2.758628 1.206360
C 0.998098 1.963497 1.025246
C 0.964039 2.447252 1.486053
C 1.530363 1.955838 1.520913
C 1.524956 2.541214 0.987950
C 1.243264 2.253859 1.211541
C 1.171616 2.754352 1.759447
C 1.731124 2.194742 1.758261
C 1.792761 2.723580 1.242439
C 1.948774 2.050137 1.000316
C 2.009376 2.501574 1.511770
C 2.504809 1.980993 1.527776
C 2.537582 2.525440 0.997439
C 2.238608 2.272742 1.239070
C 2.253930 2.706405 1.733096
C 2.755705 2.283319 1.711597
C 2.760584 2.782454 1.266545
C 3.000327 2.063184 0.991012
C 2.998272 2.442553 1.458792
C 3.489434 1.964120 1.538404
C 3.430407 2.485574 0.980439
C 3.227300 2.215916 1.252008
C 3.273019 2.762350 1.734213
C 3.721403 2.299173 1.705080
C 3.713166 2.746421 1.188013
C 4.013886 1.957340 0.972604
C 3.999898 2.507445 1.475352
C 4.506641 2.029955 1.473601
C 4.468167 2.461969 1.024887
C 4.200428 2.244370 1.251441
C 4.236111 2.765713 1.785540
C 4.768240 2.280373 1.712429
C 4.794030 2.798201 1.231061
C 4.965406 1.992728 0.973569
C 5.045710 2.494121 1.551828
C 5.481207 2.017048 1.492392
C 5.520982 2.486515 1.032774
C 5.216820 2.212736 1.234708
C 5.198661 2.732810 1.766702
C 5.688163 2.204346 1.763019
C 5.728452 2.734217 1.203530
C 0.043865 2.962325 0.951726
C 0.043336 3.474430 1.456088
C 0.499400 2.933471 1.469553
C 0.492161 3.512542 0.979680
C 0.289565 3.294546 1.240426
C 0.262630 3.714232 1.740564
C 0.789460 3.273422 1.756457
C 0.786896 3.787868 1.252351
C 1.044801 2.975736 0.989687
C 1.007182 3.432951 1.517945
C 1.521518 3.058636 1.451781
C 1.484164 3.533584 0.970138
C 1.244685 3.271164 1.294615
C 1.222794 3.725049 1.787025
C 1.722184 3.254703 1.723828
C 1.763704 3.808208 1.245170
C 1.992958 2.996372 1.066135
C 2.014803 3.529498 1.480115
C 2.504893 2.996382 1.523837
C 2.509162 3.456427 1.048534
C 2.263469 3.190716 1.272297
C 2.285424 3.738393 1.695590
C 2.751772 3.185068 1.750310
C 2.771281 3.753536 1.181713
C 2.974442 2.998677 1.038955
C 3.048758 3.432493 1.505193
C 3.548691 3.034053 1.461588
C 3.511985 3.488025 1.009419
C 3.226470 3.224928 1.218647
C 3.266712 3.745253 1.738809
C 3.786969 3.282651 1.746625
C 3.761073 3.712609 1.275438
C 4.008808 2.986287 1.044330
C 3.995037 3.541307 1.502581
C 4.539443 3.025033 1.513430
C 4.511781 3.565174 0.985256
C 4.262764 3.196297 1.267390
C 4.272524 3.713774 1.717569
C 4.705776 3.246740 1.752522
C 4.796575 3.721010 1.292902
C 5.002305 3.072701 0.993120
C 4.962963 3.466634 1.473398
C 5.504995 2.946978 1.544715
C 5.480380 3.476599 1.036058
C 5.232705 3.223234 1.222267
C 5.325801 3.713958 1.744933
C 5.709978 3.284365 1.790779
C 5.713694 3.680344 1.272258
C 0.007355 4.016641 0.924688
C 0.017552 4.543483 1.468876
C 0.507710 4.006014 1.521352
C 0.467856 4.455476 1.028772
C 0.209225 4.308898 1.253197
C 0.274175 4.742118 1.748140
C 0.723581 4.213904 1.746381
C 0.709351 4.713801 1.239670
C 0.991712 3.983565 1.001131
C 0.970133 4.494737 1.513382
C 1.441988 3.998303 1.461423
C 1.489243 4.471996 0.931873
C 1.231064 4.269524 1.288083
C 1.247388 4.764348 1.808714
C 1.790738 4.247386 1.728301
C 1.770306 4.735461 1.232995
C 2.026122 4.042127 1.023817
C 2.058980 4.496998 1.491447
C 2.556682 3.963658 1.475672
C 2.477261 4.534818 0.992773
C 2.285921 4.276467 1.255198
C 2.261280 4.728920 1.708283
C 2.769352 4.270157 1.760871
C 2.765183 4.736147 1.188742
C 3.035027 4.037831 0.991896
C 3.022132 4.480160 1.489378
C 3.455438 3.998711 1.513457
C 3.458718 4.541435 0.989340
C 3.256601 4.190348 1.246544
C 3.252694 4.723777 1.689206
C 3.714219 4.241846 1.753810
C 3.749166 4.771627 1.269764
C 4.006630 3.988207 0.974842
C 3.962332 4.505947 1.522016
C 4.443750 3.986100 1.466566
C 4.520012 4.520441 0.957916
C 4.282644 4.287304 1.207636
C 4.295371 4.746083 1.745038
C 4.790549 4.246361 1.714568
C 4.735461 4.694362 1.267585
C 4.930090 3.985396 1.030486
C 5.045333 4.489834 1.517576
C 5.503713 4.025061 1.443225
C 5.481323 4.519326 0.927401
C 5.220063 4.286118 1.235136
C 5.262798 4.746047 1.715626
C 5.689652 4.266044 1.698083
C 5.727226 4.704548 1.217156
C 0.007371 5.045673 1.061097
C 0.065529 5.526176 1.459430
C 0.460947 5.004876 1.548042
C 0.476277 5.503468 0.956873
C 0.246492 5.250037 1.262562
C 0.289802 5.731389 1.750774
C 0.723612 5.258794 1.691443
C 0.703193 5.695649 1.232042
C 1.020858 4.982665 1.043551
C 0.971296 5.503942 1.486403
C 1.457729 5.017208 1.503594
C 1.464833 5.481057 0.947361
C 1.202576 5.310395 1.247435
C 1.272173 5.739795 1.780527
C 1.778339 5.238276 1.718246
C 1.735084 5.749776 1.242489
C 2.002875 4.988353 0.951359
C 1.980237 5.553735 1.488773
C 2.468592 4.972334 1.491924
C 2.530184 5.478349 1.016727
C 2.257114 5.234331 1.279828
C 2.307304 5.725122 1.726921
C 2.791609 5.230877 1.742987
C 2.778257 5.732726 1.283932
C 3.020822 5.037688 1.028355
C 3.058288 5.463477 1.546245
C 3.522937 5.004878 1.439141
C 3.500413 5.536392 0.975641
C 3.210411 5.247633 1.286689
C 3.227621 5.737793 1.723391
C 3.730591 5.198775 1.771262
C 3.798114 5.705041 1.208171
C 4.048653 5.027389 1.018375
C 3.961279 5.491654 1.550238
C 4.474472 4.984696 1.495546
C 4.485943 5.523755 0.986113
C 4.276394 5.233444 1.235566
C 4.211042 5.714515 1.712357
C 4.752556 5.251164 1.713446
C 4.782132 5.711396 1.231285
C 5.005140 5.019055 1.029716
C 5.022474 5.478591 1.502898
C 5.547816 4.970881 1.537197
C 5.441844 5.503352 1.005469
C 5.289165 5.246872 1.273192
C 5.252657 5.710628 1.711899
C 5.691232 5.294170 1.751364
C 5.726766 5.696359 1.265130
C 0.017016 0.015905 1.958757
C 0.008032 0.585109 2.548772
C 0.549037 0.012846 2.496768
C 0.449245 0.445470 1.966226
C 0.198811 0.277448 2.282320
C 0.249712 0.681366 2.711343
C 0.742160 0.293224 2.734689
C 0.734476 0.704316 2.218537
C 0.993677 0.002763 2.037866
C 0.950711 0.520444 2.497300
C 1.568667 0.020750 2.533133
C 1.531740 0.489913 2.014704
C 1.246545 0.237470 2.184662
C 1.283171 0.792937 2.727388
C 1.726379 0.262446 2.742915
C 1.780754 0.757031 2.215321
C 1.997066 0.067371 1.980380
C 1.976433 0.530977 2.455857
C 2.460110 0.046829 2.488827
C 2.437245 0.473269 2.016854
C 2.306326 0.221293 2.235428
C 2.242127 0.774948 2.736152
C 2.713137 0.251017 2.751942
C 2.736045 0.732746 2.244541
C 3.013952 0.025326 1.994854
C 3.035882 0.513948 2.497701
C 3.469440 0.020685 2.453228
C 3.505200 0.451260 2.004895
C 3.271934 0.277953 2.247066
C 3.236991 0.712202 2.766527
C 3.763258 0.255454 2.708683
C 3.743265 0.753796 2.266267
C 3.977854 0.052738 2.003114
C 4.008387 0.499987 2.537001
C 4.504718 0.029354 2.558734
C 4.518345 0.496828 1.957693
C 4.260556 0.289010 2.204850
C 4.218942 0.723580 2.758498
C 4.774843 0.255146 2.689199
C 4.788178 0.798962 2.230458
C 5.057778 0.026468 2.056984
C 5.011555 0.484664 2.560096
C 5.478793 0.040822 2.480005
C 5.472400 0.433770 2.010729
C 5.277181 0.285137 2.272792
C 5.257170 0.726146 2.785906
C 5.741304 0.296991 2.729737
C 5.718741 0.762421 2.200142
C 0.007218 0.958096 1.951329
C 0.026082 1.570087 2.497745
C 0.467526 1.007242 2.495730
C 0.492564 1.498901 2.054705
C 0.220157 1.261577 2.308691
C 0.247991 1.744130 2.795632
C 0.773844 1.233108 2.771572
C 0.742160 1.762150 2.312178
C 0.970449 1.022563 2.042990
C 0.995082 1.547145 2.497478
C 1.552551 1.036311 2.536670
C 1.472646 1.494625 2.035260
C 1.271983 1.192387 2.238013
C 1.203307 1.757513 2.743898
C 1.722862 1.278805 2.756751
C 1.755926 1.808434 2.238494
C 1.984265 1.045046 1.965157
C 1.967682 1.522877 2.471332
C 2.536504 0.981708 2.460195
C 2.518659 1.449694 2.032014
C 2.277583 1.274225 2.294284
C 2.244461 1.824819 2.754400
C 2.796513 1.254519 2.705336
C 2.763448 1.764615 2.196330
C 2.984306 0.968534 2.036570
C 3.053199 1.473013 2.476159
C 3.475411 0.961642 2.477413
C 3.533877 1.458519 2.004235
C 3.269845 1.222057 2.262810
C 3.211830 1.690782 2.724477
C 3.774417 1.252202 2.803325
C 3.765872 1.708820 2.253821
C 3.968377 0.963120 1.977095
C 4.007861 1.526295 2.476397
C 4.526557 1.040414 2.537984
C 4.509797 1.444547 2.038329
C 4.265773 1.228389 2.306596
C 4.253171 1.775258 2.772385
C 4.791141 1.247688 2.702294
C 4.725761 1.808144 2.273445
C 4.977003 0.961864 1.969068
C 5.062941 1.517878 2.456079
C 5.485180 0.942130 2.513126
C 5.487213 1.484239 1.994061
C 5.289502 1.295410 2.244508
C 5.278362 1.700301 2.808973
C 5.739767 1.275632 2.783446
C 5.688340 1.710621 2.260882
C 0.002251 1.935695 2.029309
C 0.018234 2.556291 2.453121
C 0.450251 2.017701 2.528439
C 0.448752 2.484427 1.969625
C 0.232824 2.274944 2.231253
C 0.272997 2.793244 2.780754
C 0.718530 2.197267 2.724305
C 0.782119 2.762374 2.189649
C 0.958423 2.009172 1.972973
C 0.942089 2.464672 2.529432
C 1.446967 1.992001 2.538588
C 1.468151 2.524026 2.014372
C 1.273370 2.245453 2.207739
C 1.262333 2.731754 2.774588
C 1.717108 2.216925 2.757269
C 1.718171 2.772608 2.261114
C 2.018170 2.067324 2.036253
C 2.014517 2.525416 2.484935
C 2.481029 1.955110 2.533801
C 2.527685 2.519023 1.987767
C 2.288633 2.280945 2.279386
C 2.257009 2.724744 2.713336
C 2.742373 2.254606 2.738741
C 2.812653 2.760329 2.241939
C 3.001312 2.011584 2.058867
C 2.965131 2.506644 2.543663
C 3.525300 1.983367 2.496530
C 3.502597 2.513187 2.042134
C 3.225715 2.217738 2.316455
C 3.218347 2.724390 2.715092
C 3.706064 2.286002 2.726720
C 3.788450 2.704360 2.199720
C 4.070148 2.019993 1.981806
C 3.976001 2.486259 2.437564
C 4.478571 1.958118 2.536604
C 4.528435 2.463968 1.948266
C 4.298917 2.260084 2.193544
C 4.293790 2.768071 2.786230
C 4.759755 2.233815 2.755972
C 4.749400 2.778202 2.263049
C 5.054168 1.986151 2.002903
C 4.967569 2.477897 2.493259
C 5.464413 1.982686 2.551115
C 5.528877 2.480816 2.005470
C 5.264674 2.260403 2.266952
C 5.225113 2.800450 2.739243
C 5.718594 2.305484 2.770119
C 5.714097 2.738731 2.224688
C 0.063723 2.984207 2.051969
C 0.011130 3.491124 2.483381
C 0.489808 2.987416 2.521180
C 0.528445 3.488414 1.985323
C 0.200531 3.240297 2.279625
C 0.198571 3.739662 2.734629
C 0.722500 3.206841 2.709651
C 0.717619 3.731039 2.273011
C 0.929697 3.021270 2.016472
C 0.989174 3.523004 2.493643
C 1.430671 2.992502 2.556953
C 1.519893 3.538836 2.008673
C 1.222117 3.241023 2.318056
C 1.219396 3.672782 2.751909
C 1.744180 3.250745 2.778014
C 1.796994 3.752503 2.285145
C 2.009890 2.940818 2.002892
C 2.053432 3.515738 2.463682
C 2.503175 3.024829 2.451630
C 2.575360 3.467824 1.985890
C 2.228563 3.209931 2.227140
C 2.230198 3.757991 2.804101
C 2.715731 3.282322 2.740639
C 2.734002 3.801142 2.218094
C 2.962894 3.053025 2.018911
C 2.997220 3.560327 2.509703
C 3.505666 3.059995 2.491169
C 3.483789 3.482772 1.976128
C 3.268538 3.194691 2.246446
C 3.321232 3.732818 2.753499
C 3.786333 3.285361 2.723669
C 3.789554 3.720721 2.287478
C 3.995235 3.042217 2.007822
C 4.042412 3.515227 2.477851
C 4.464807 2.985543 2.499189
C 4.511120 3.431359 2.007209
C 4.241590 3.253184 2.260842
C 4.293782 3.803865 2.738766
C 4.734351 3.283085 2.721801
C 4.772223 3.758461 2.213156
C 5.014308 2.958166 2.003534
C 4.965899 3.538738 2.487630
C 5.548014 2.949273 2.475322
C 5.469712 3.554089 2.026457
C 5.266626 3.234438 2.273186
C 5.216788 3.761743 2.722488
C 5.743717 3.204816 2.681558
C 5.713221 3.750130 2.239444
C 0.067859 4.013915 1.969553
C 0.040765 4.494175 2.523668
C 0.520083 4.001047 2.446933
C 0.437107 4.477883 2.018826
C 0.306143 4.249410 2.245391
C 0.230198 4.735923 2.751575
C 0.777127 4.243775 2.716017
C 0.738123 4.790585 2.258286
C 1.011611 3.947896 2.007492
C 0.947850 4.529999 2.508040
C 1.467042 3.970294 2.478592
C 1.481310 4.520608 1.968826
C 1.294088 4.252491 2.250274
C 1.212007 4.729961 2.726517
C 1.689600 4.241235 2.750577
C 1.793697 4.771153 2.265106
C 2.012749 3.995494 1.984587
C 1.956690 4.524027 2.512529
C 2.524457 4.007180 2.514341
C 2.498610 4.526981 2.072136
C 2.244445 4.293428 2.282791
C 2.232664 4.734438 2.721412
C 2.692148 4.254479 2.769239
C 2.767653 4.798141 2.251356
C 2.964861 3.995751 1.988787
C 2.985387 4.475208 2.530183
C 3.503336 4.055683 2.533674
C 3.436868 4.469230 2.038351
C 3.289050 4.233159 2.255276
C 3.282529 4.700399 2.757185
C 3.747783 4.301048 2.707826
C 3.745627 4.708057 2.214686
C 3.968287 3.958593 1.991356
C 3.972506 4.562587 2.500134
C 4.475905 4.057788 2.526354
C 4.511984 4.448627 1.966492
C 4.261874 4.294743 2.262960
C 4.245144 4.757765 2.786968
C 4.740162 4.235987 2.723364
C 4.769874 4.749597 2.225201
C 4.973487 4.017610 2.043559
C 4.981176 4.468240 2.474149
C 5.488854 4.038417 2.467668
C 5.551973 4.514011 1.998585
C 5.205749 4.220548 2.255492
C 5.249817 4.731780 2.798173
C 5.738696 4.281663 2.776887
C 5.693005 4.734883 2.228806
C 0.018539 5.043297 1.963277
C 0.009379 5.451143 2.461249
C 0.504941 4.983631 2.536088
C 0.460373 5.457642 2.000279
C 0.207903 5.269240 2.208092
C 0.257438 5.726406 2.728552
C 0.775586 5.277159 2.769267
C 0.770362 5.710280 2.210459
C 1.047837 5.024128 2.010145
C 1.038485 5.511080 2.478387
C 1.481532 5.029380 2.544507
C 1.442387 5.479017 2.029778
C 1.258222 5.274066 2.305886
C 1.210325 5.743502 2.763499
C 1.782205 5.189878 2.762368
C 1.797873 5.721776 2.244300
C 1.946367 5.024966 1.969428
C 2.016263 5.566047 2.480921
C 2.532083 4.942263 2.529922
C 2.524179 5.462829 1.990203
C 2.270376 5.245397 2.200239
C 2.306859 5.745421 2.731552
C 2.748773 5.210448 2.702640
C 2.710759 5.738348 2.270623
C 3.013930 5.000273 1.984657
C 2.975584 5.442372 2.516266
C 3.451163 5.052532 2.502146
C 3.501191 5.544400 2.008968
C 3.247688 5.238866 2.237758
C 3.198258 5.748513 2.712970
C 3.714399 5.255032 2.752527
C 3.809967 5.745402 2.213471
C 3.968986 4.954310 2.021543
C 3.999069 5.523209 2.482554
C 4.527782 4.954110 2.528871
C 4.496151 5.523887 1.955867
C 4.206114 5.275703 2.217532
C 4.286161 5.728962 2.791993
C 4.726607 5.315389 2.753542
C 4.697990 5.735875 2.287742
C 4.962407 5.001602 1.994145
C 5.047309 5.497373 2.515073
C 5.526020 4.994042 2.458999
C 5.434563 5.485392 1.971868
C 5.236860 5.247596 2.221800
C 5.283461 5.736528 2.681181
C 5.733837 5.286136 2.694991
C 5.708930 5.703481 2.204158
C 0.025108 0.051280 3.025742
C 0.033284 0.516912 3.437083
C 0.460544 0.016182 3.446835
C 0.525671 0.462013 2.988419
C 0.270841 0.253626 3.161162
C 0.204042 0.744824 3.717154
C 0.755895 0.212619 3.783130
C 0.739907 0.709485 3.280924
C 0.960719 0.004182 3.003268
C 0.988022 0.512672 3.536647
C 1.527784 0.006918 3.541944
C 1.494862 0.470073 2.953484
C 1.228602 0.248146 3.283727
C 1.227462 0.768426 3.712188
C 1.768713 0.235276 3.790564
C 1.794119 0.744120 3.231167
C 1.960933 0.002898 3.017106
C 1.948600 0.504727 3.541795
C 2.480351 0.037735 3.525170
C 2.499220 0.513065 3.033362
C 2.226974 0.226986 3.200441
C 2.197381 0.727406 3.717956
C 2.745734 0.307310 3.724646
C 2.765522 0.715870 3.271691
C 2.973424 0.024699 2.971248
C 3.033235 0.510388 3.438193
C 3.469805 0.012541 3.425414
C 3.493557 0.566663 3.004542
C 3.232480 0.228009 3.293669
C 3.241529 0.790745 3.768774
C 3.750012 0.181865 3.730745
C 3.735488 0.776442 3.213168
C 4.007291 0.055783 3.006917
C 4.018978 0.452968 3.537301
C 4.515157 0.003165 3.565714
C 4.459336 0.503094 3.002927
C 4.310448 0.201235 3.236111
C 4.290120 0.742249 3.770375
C 4.812376 0.240037 3.730033
C 4.759149 0.730020 3.317108
C 4.941942 0.014960 3.012077
C 5.029233 0.531531 3.465526
C 5.522443 0.064618 3.507139
C 5.505296 0.453699 2.994619
C 5.203368 0.230289 3.222624
C 5.225988 0.768798 3.751744
C 5.729464 0.287973 3.794721
C 5.722016 0.782703 3.261272
C 0.033786 0.970676 2.978924
C 0.054590 1.466141 3.495609
C 0.461311 1.017058 3.459595
C 0.494757 1.508472 3.021340
C 0.279534 1.219701 3.205059
C 0.244908 1.760134 3.808128
C 0.747812 1.266585 3.696832
C 0.723896 1.767722 3.234287
C 1.037742 1.026505 3.024593
C 0.981792 1.533373 3.520641
C 1.551793 1.021561 3.519046
C 1.552531 1.523291 3.033523
C 1.261295 1.315855 3.235099
C 1.284951 1.742658 3.786555
C 1.688776 1.232386 3.777321
C 1.715130 1.784119 3.321719
C 2.036849 0.995932 3.042562
C 1.955644 1.518160 3.486127
C 2.543620 0.971158 3.498689
C 2.483406 1.549195 2.957875
C 2.293073 1.236542 3.208305
C 2.303165 1.791384 3.729235
C 2.772327 1.287892 3.719287
C 2.800400 1.720879 3.251037
C 2.966232 1.013566 3.005891
C 3.060127 1.505450 3.465172
C 3.474497 1.064314 3.502347
C 3.525803 1.471697 2.999195
C 3.256136 1.300239 3.217038
C 3.260150 1.757984 3.786325
C 3.774563 1.279156 3.741163
C 3.781254 1.776486 3.219146
C 4.054822 1.018218 2.979303
C 3.964138 1.557533 3.501280
C 4.485794 1.002366 3.438836
C 4.508166 1.473908 3.044533
C 4.249961 1.240592 3.245008
C 4.220149 1.807891 3.727101
C 4.803122 1.273585 3.718285
C 4.790257 1.738799 3.217663
C 5.039363 0.977999 2.976734
C 5.024278 1.568117 3.488354
C 5.539835 1.033667 3.463804
C 5.539427 1.545549 2.963521
C 5.231633 1.270898 3.257213
C 5.211884 1.752014 3.787013
C 5.729901 1.274192 3.705861
C 5.748084 1.764664 3.302384
C 0.008812 2.065400 3.035141
C 0.012064 2.432921 3.489807
C 0.480371 2.036722 3.508149
C 0.482606 2.471833 3.039252
C 0.271543 2.183039 3.246858
C 0.233535 2.803016 3.746124
C 0.731417 2.240940 3.731810
C 0.786636 2.725885 3.248331
C 1.049790 2.008391 2.947577
C 1.014864 2.467349 3.549880
C 1.498474 2.039008 3.485394
C 1.460368 2.466458 3.019279
C 1.239368 2.221083 3.214392
C 1.225786 2.772573 3.750275
C 1.740144 2.235937 3.708653
C 1.765873 2.792234 3.271475
C 1.949352 2.058608 2.998405
C 2.029934 2.487716 3.480412
C 2.507846 2.030404 3.489318
C 2.454916 2.515878 2.958088
C 2.272927 2.203286 3.267646
C 2.207503 2.805382 3.752888
C 2.780981 2.247665 3.818612
C 2.751712 2.798033 3.228103
C 3.007571 1.980838 3.077748
C 2.996040 2.491480 3.481848
C 3.433175 1.972532 3.477069
C 3.554102 2.537046 2.980165
C 3.207414 2.254450 3.228710
C 3.246186 2.713873 3.762170
C 3.796434 2.242925 3.734533
C 3.728016 2.673491 3.284985
C 4.001213 1.988960 2.949035
C 3.964479 2.492212 3.507257
C 4.541695 1.972601 3.503742
C 4.520247 2.450803 2.971609
C 4.195065 2.220863 3.248052
C 4.201134 2.782510 3.787639
C 4.760962 2.246267 3.730924
C 4.772439 2.720736 3.269045
C 5.012862 1.962327 2.975085
C 4.983655 2.556475 3.554898
C 5.506453 1.987746 3.483535
C 5.456776 2.485099 3.031812
C 5.321573 2.230892 3.234679
C 5.268319 2.796280 3.796186
C 5.732660 2.272986 3.749826
C 5.678375 2.725418 3.238897
C 0.012648 2.949065 2.987013
C 0.006367 3.549724 3.524812
C 0.536556 2.973849 3.507619
C 0.460686 3.478544 2.986852
C 0.263931 3.271798 3.262239
C 0.243958 3.762371 3.802390
C 0.708060 3.236634 3.715162
C 0.734911 3.786767 3.269879
C 1.012142 2.995768 3.067481
C 0.977939 3.557855 3.460961
C 1.552038 3.010220 3.501138
C 1.520937 3.441959 3.020063
C 1.217212 3.254058 3.264025
C 1.233400 3.798703 3.726112
C 1.736963 3.275047 3.799606
C 1.785726 3.784923 3.290135
C 1.975820 3.046867 2.998668
C 2.009922 3.474319 3.491192
C 2.447856 2.958251 3.536782
C 2.458928 3.508157 2.948101
C 2.309340 3.240175 3.256614
C 2.220225 3.739393 3.711828
C 2.789048 3.205718 3.780540
C 2.793274 3.741518 3.255744
C 3.033576 2.975673 3.017318
C 2.986816 3.474613 3.524561
C 3.505813 2.971031 3.554140
C 3.489949 3.445778 3.027478
C 3.241052 3.236118 3.197363
C 3.203130 3.757200 3.742733
C 3.681565 3.261448 3.718145
C 3.730600 3.724715 3.271510
C 4.025299 3.001468 2.980389
C 3.964980 3.526730 3.524930
C 4.552150 3.031944 3.529797
C 4.471575 3.492622 2.961597
C 4.267392 3.201731 3.213238
C 4.321246 3.760981 3.732322
C 4.767084 3.220423 3.788925
C 4.744305 3.721245 3.239107
C 5.015120 3.022479 2.981524
C 5.046849 3.497506 3.500770
C 5.551265 2.981020 3.467825
C 5.487678 3.512301 3.037701
C 5.183273 3.218245 3.264863
C 5.286716 3.757329 3.786329
C 5.698154 3.241503 3.811100
C 5.695500 3.729237 3.278368
C 0.046796 4.002261 2.960298
C 0.020631 4.485271 3.511650
C 0.535868 4.018914 3.483795
C 0.514482 4.539499 3.018801
C 0.222033 4.241863 3.297446
C 0.287113 4.801095 3.790463
C 0.739608 4.261663 3.717603
C 0.770005 4.733795 3.191908
C 1.002865 3.943767 2.990912
C 0.979246 4.502168 3.502657
C 1.487066 4.037089 3.512129
C 1.515780 4.444982 3.009677
C 1.288084 4.274731 3.263773
C 1.239839 4.805475 3.743865
C 1.699452 4.249976 3.744263
C 1.692454 4.740450 3.222931
C 2.021835 4.008845 3.024477
C 2.007375 4.470899 3.454353
C 2.462411 3.959451 3.448230
C 2.500190 4.445562 3.034163
C 2.246298 4.240845 3.313450
C 2.272747 4.723382 3.780069
C 2.721111 4.192082 3.726719
C 2.767052 4.753141 3.303030
C 2.992116 4.006605 2.991903
C 2.987324 4.500526 3.474324
C 3.443986 4.000537 3.541029
C 3.511501 4.457240 2.973595
C 3.223929 4.184813 3.271435
C 3.236522 4.721196 3.744731
C 3.778401 4.268354 3.755589
C 3.710536 4.764635 3.313172
C 4.044056 4.006607 3.041962
C 3.967914 4.525579 3.522898
C 4.520392 3.956278 3.481986
C 4.518364 4.546120 2.954187
C 4.256508 4.267911 3.304893
C 4.214437 4.730975 3.720038
C 4.774594 4.201823 3.776668
C 4.721498 4.783538 3.234500
C 5.049979 4.012432 2.967600
C 4.980532 4.538023 3.448595
C 5.544580 4.000843 3.452701
C 5.476170 4.523358 3.030542
C 5.218494 4.275526 3.209567
C 5.224356 4.716266 3.760124
C 5.737246 4.262262 3.779163
C 5.742630 4.731463 3.225335
C 0.002427 5.041988 2.956903
C 0.050357 5.536391 3.467780
C 0.450093 5.026756 3.556672
C 0.498223 5.526214 3.028221
C 0.278501 5.280039 3.234460
C 0.276596 5.685079 3.713835
C 0.765071 5.197585 3.739639
C 0.770466 5.672819 3.261298
C 0.984545 5.044284 3.017968
C 0.971274 5.458892 3.539642
C 1.477058 5.013899 3.466164
C 1.474503 5.533359 2.963956
C 1.232175 5.252409 3.191835
C 1.243202 5.713694 3.781765
C 1.782046 5.253637 3.767155
C 1.755805 5.740005 3.202543
C 2.026450 5.067189 2.976632
C 2.017467 5.556727 3.514233
C 2.570209 5.002075 3.491334
C 2.466806 5.488191 2.936910
C 2.279045 5.290543 3.256295
C 2.238937 5.721876 3.790170
C 2.738162 5.292743 3.775915
C 2.739426 5.716636 3.208432
C 3.056600 4.973792 3.012751
C 3.037972 5.479494 3.454855
C 3.514901 5.069930 3.523122
C 3.472231 5.573599 2.996832
C 3.250270 5.293067 3.199211
C 3.235928 5.721899 3.692587
C 3.754752 5.234754 3.790987
C 3.776391 5.744461 3.303286
C 3.991989 4.982193 3.001329
C 3.978813 5.467079 3.483007
C 4.506271 5.011895 3.453621
C 4.435577 5.475592 2.977472
C 4.185687 5.272240 3.242481
C 4.236788 5.703822 3.767070
C 4.736309 5.289196 3.742708
C 4.771246 5.703984 3.280925
C 4.980632 5.009489 2.963985
C 4.971889 5.471469 3.505112
C 5.506827 4.996264 3.515530
C 5.455858 5.506337 3.001071
C 5.225740 5.286432 3.220704
C 5.268869 5.749657 3.741013
C 5.734111 5.232727 3.738236
C 5.715923 5.727087 3.181176
C 0.040544 0.084764 3.950611
C 0.011838 0.547618 4.428987
C 0.456488 0.054892 4.452036
C 0.544122 0.523032 3.977172
C 0.261860 0.254402 4.198364
C 0.246500 0.701766 4.708516
C 0.775293 0.209389 4.774803
C 0.726544 0.794692 4.231794
C 1.019862 0.039213 3.942948
C 0.995554 0.541921 4.532643
C 1.508097 0.062290 4.561375
C 1.564841 0.493004 3.953111
C 1.225716 0.218801 4.227651
C 1.263666 0.745641 4.779565
C 1.787602 0.265633 4.698868
C 1.782520 0.750345 4.226868
C 2.029710 0.045678 3.945043
C 2.029156 0.499558 4.529198
C 2.469410 0.041392 4.476559
C 2.511169 0.456926 3.960164
C 2.250991 0.243250 4.197577
C 2.239523 0.771181 4.720668
C 2.770243 0.324276 4.744881
C 2.744873 0.720060 4.311928
C 2.987261 0.036622 3.945201
C 2.955941 0.476474 4.481848
C 3.533009 0.031226 4.504716
C 3.470401 0.493132 3.961721
C 3.261212 0.254145 4.310258
C 3.252542 0.747895 4.704873
C 3.769614 0.227706 4.771404
C 3.773407 0.795311 4.215449
C 3.987773 0.059504 4.011279
C 3.959951 0.486797 4.530487
C 4.455667 0.045974 4.490561
C 4.524393 0.546291 4.032218
C 4.275677 0.271827 4.239212
C 4.254086 0.765110 4.809241
C 4.805609 0.248858 4.758961
C 4.745972 0.735441 4.289833
C 4.975912 0.022848 4.073444
C 4.941225 0.488559 4.489027
C 5.554117 0.037190 4.531083
C 5.471881 0.477555 3.991270
C 5.200708 0.249482 4.211413
C 5.290447 0.722971 4.713865
C 5.740997 0.182590 4.782019
C 5.693138 0.783170 4.268712
C 0.021965 1.009511 4.025340
C 0.037237 1.571662 4.461229
C 0.513515 1.008261 4.491289
C 0.535538 1.505518 3.975958
C 0.282248 1.247959 4.199049
C 0.247835 1.755364 4.719773
C 0.751334 1.218292 4.741689
C 0.777714 1.811112 4.211286
C 0.992483 1.028156 3.985707
C 1.043210 1.478607 4.516976
C 1.512109 1.006638 4.472329
C 1.472117 1.529216 4.052953
C 1.214264 1.209606 4.219859
C 1.262809 1.730272 4.795368
C 1.770265 1.257546 4.698889
C 1.745426 1.797750 4.280053
C 2.018530 0.995649 4.073381
C 2.027700 1.556818 4.524685
C 2.472366 0.980523 4.493036
C 2.460869 1.526913 3.980528
C 2.254296 1.212355 4.264486
C 2.271207 1.741851 4.741036
C 2.784000 1.312672 4.722168
C 2.709866 1.732389 4.212349
C 2.967849 1.049283 4.014189
C 3.045484 1.437914 4.507423
C 3.523678 0.975365 4.501785
C 3.508927 1.545418 4.048722
C 3.277770 1.214446 4.294098
C 3.216233 1.735953 4.767169
C 3.811025 1.264005 4.763788
C 3.734509 1.695487 4.280850
C 4.010536 1.055603 4.002043
C 4.041559 1.477543 4.518783
C 4.530782 0.953734 4.508534
C 4.534413 1.473525 3.962979
C 4.249662 1.267554 4.235705
C 4.264713 1.699172 4.769021
C 4.728159 1.280147 4.679300
C 4.742455 1.711682 4.274184
C 5.048440 1.014050 4.022058
C 5.026557 1.479447 4.498056
C 5.551557 1.047084 4.478534
C 5.471955 1.557026 4.019123
C 5.247050 1.224143 4.317518
C 5.273730 1.784690 4.768332
C 5.698993 1.229272 4.762424
C 5.707151 1.772036 4.261363
C 0.007136 2.029648 3.999912
C 0.039265 2.498757 4.462355
C 0.530580 2.012365 4.479022
C 0.489308 2.483255 3.956051
C 0.247938 2.208010 4.229120
C 0.265786 2.707674 4.720331
C 0.744666 2.251529 4.811025
C 0.819610 2.763344 4.232820
C 1.033127 1.983247 4.066506
C 1.016212 2.532805 4.511545
C 1.489069 2.007226 4.493156
C 1.557565 2.438783 4.031090
C 1.250998 2.314689 4.219835
C 1.292977 2.722159 4.723740
C 1.778611 2.220682 4.800007
C 1.754159 2.707344 4.281368
C 2.010877 2.011867 3.995299
C 2.013565 2.530588 4.515204
C 2.474637 1.948821 4.499661
C 2.475983 2.518125 4.024497
C 2.275250 2.270067 4.251727
C 2.268968 2.752447 4.720143
C 2.752488 2.241846 4.793967
C 2.777992 2.741339 4.201629
C 2.959863 1.997006 4.030987
C 3.007473 2.534352 4.480129
C 3.546501 1.995003 4.470116
C 3.491185 2.512487 3.965290
C 3.192538 2.242196 4.259095
C 3.255124 2.754195 4.749600
C 3.743741 2.309282 4.774449
C 3.799999 2.758238 4.257561
C 3.929199 1.999931 3.990716
C 3.998216 2.551901 4.506767
C 4.488224 1.961592 4.524420
C 4.481855 2.488956 4.001386
C 4.317928 2.277287 4.256133
C 4.235566 2.755652 4.747430
C 4.763012 2.281151 4.784957
C 4.709759 2.713521 4.206474
C 4.998694 2.030836 3.969461
C 5.016754 2.446589 4.508702
C 5.501560 2.049570 4.531390
C 5.519705 2.453010 4.005131
C 5.228097 2.255216 4.265297
C 5.286873 2.792221 4.756788
C 5.703553 2.284415 4.753242
C 5.703973 2.712215 4.266587
C 0.069237 2.952672 4.025754
C 0.020232 3.495126 4.436357
C 0.462043 3.036058 4.453358
C 0.482980 3.534026 4.036019
C 0.219855 3.213750 4.202032
C 0.266712 3.717401 4.772999
C 0.756003 3.256433 4.787904
C 0.716214 3.789080 4.230575
C 1.058292 3.035320 3.978607
C 0.985775 3.532863 4.452623
C 1.465445 2.996946 4.473978
C 1.452732 3.517601 3.991249
C 1.191920 3.222393 4.275116
C 1.229192 3.725468 4.774160
C 1.714433 3.240984 4.787607
C 1.801643 3.778760 4.247891
C 2.054100 3.009793 4.006457
C 1.998915 3.521703 4.455387
C 2.460988 3.012456 4.520768
C 2.491321 3.473889 3.957713
C 2.285782 3.281088 4.253821
C 2.238607 3.716968 4.786234
C 2.758022 3.288584 4.793943
C 2.711315 3.795233 4.246303
C 3.048144 2.950692 3.976312
C 3.007946 3.510790 4.509596
C 3.563969 2.982692 4.497313
C 3.481114 3.509408 3.936698
C 3.206074 3.227653 4.257112
C 3.249910 3.763898 4.703068
C 3.721656 3.211102 4.761171
C 3.682275 3.766869 4.246151
C 4.015105 3.027063 4.027485
C 4.061048 3.514321 4.511371
C 4.549747 3.013657 4.475191
C 4.496421 3.493799 3.953352
C 4.258231 3.201158 4.254633
C 4.286082 3.765445 4.715236
C 4.783230 3.296753 4.729817
C 4.763191 3.731224 4.229021
C 5.013790 2.935871 4.033744
C 5.032420 3.470124 4.537510
C 5.501353 2.974980 4.466723
C 5.482886 3.486756 3.969392
C 5.207370 3.196401 4.225231
C 5.233906 3.766832 4.794256
C 5.715824 3.259337 4.743204
C 5.745872 3.711493 4.320506
C 0.049365 4.069344 3.968194
C 0.031342 4.527048 4.560764
C 0.480945 4.028069 4.446190
C 0.509384 4.552089 3.994820
C 0.244848 4.233791 4.242374
C 0.260577 4.779148 4.715236
C 0.734940 4.227413 4.795956
C 0.726116 4.794744 4.218486
C 0.972427 4.017440 3.987306
C 0.992139 4.469231 4.462880
C 1.431852 3.977880 4.496432
C 1.467454 4.475297 4.040394
C 1.259657 4.215472 4.275398
C 1.242663 4.805000 4.745990
C 1.739783 4.221591 4.713058
C 1.739478 4.805560 4.258253
C 2.032512 4.058270 4.032820
C 2.034921 4.544954 4.500418
C 2.482469 4.051615 4.462644
C 2.447629 4.467487 4.008406
C 2.248546 4.280103 4.258348
C 2.245237 4.702503 4.766820
C 2.703332 4.288007 4.783127
C 2.791464 4.723309 4.255084
C 3.032812 3.999907 4.018003
C 3.002655 4.493735 4.471758
C 3.480216 3.998636 4.554493
C 3.485206 4.482751 3.967603
C 3.266071 4.334129 4.231611
C 3.274319 4.810226 4.789092
C 3.735682 4.227152 4.748200
C 3.704439 4.786525 4.282412
C 4.003164 4.018426 3.955075
C 4.039883 4.534856 4.513500
C 4.466448 4.062835 4.504344
C 4.463678 4.538117 3.992979
C 4.230113 4.258461 4.274519
C 4.290152 4.723943 4.736872
C 4.785589 4.211206 4.780058
C 4.712296 4.758733 4.264195
C 5.056882 3.990951 3.961723
C 4.959637 4.458581 4.487290
C 5.436227 4.012235 4.486073
C 5.473415 4.506429 4.016993
C 5.253723 4.251929 4.240894
C 5.252139 4.723773 4.794450
C 5.734437 4.221724 4.820088
C 5.692616 4.804089 4.238642
C 0.047900 5.013522 4.024922
C 0.027471 5.529452 4.485885
C 0.517146 4.981012 4.544275
C 0.519032 5.543189 3.976685
C 0.268668 5.206444 4.266464
C 0.203868 5.674753 4.750189
C 0.720935 5.199469 4.794407
C 0.798788 5.738439 4.235718
C 0.994848 4.985545 3.972088
C 1.002348 5.552796 4.489314
C 1.453471 5.023890 4.497150
C 1.535452 5.475675 4.020024
C 1.228694 5.282004 4.238106
C 1.200351 5.719225 4.784158
C 1.725148 5.245967 4.804319
C 1.759308 5.747405 4.262952
C 1.970739 5.016428 3.983470
C 2.027313 5.489139 4.491849
C 2.517501 4.927811 4.499251
C 2.512982 5.515710 4.027719
C 2.257301 5.232112 4.219764
C 2.221284 5.744511 4.706317
C 2.790704 5.232307 4.746258
C 2.704000 5.743262 4.252724
C 2.952430 4.972107 4.023992
C 3.005875 5.507659 4.478605
C 3.465091 5.002873 4.489749
C 3.534797 5.504831 3.947899
C 3.273729 5.234279 4.187416
C 3.205118 5.748444 4.720221
C 3.814361 5.237632 4.748945
C 3.743073 5.715565 4.311092
C 4.000615 4.995701 4.055407
C 3.999723 5.491037 4.513944
C 4.513667 5.010326 4.538655
C 4.470937 5.485657 3.999734
C 4.200428 5.245131 4.212461
C 4.221268 5.740196 4.711064
C 4.759600 5.226552 4.773710
C 4.685065 5.746232 4.208946
C 4.981430 4.949256 4.029116
C 4.987622 5.529513 4.455356
C 5.470657 5.030750 4.505970
C 5.539534 5.498362 3.992979
C 5.247189 5.215316 4.259037
C 5.179102 5.744933 4.745268
C 5.736200 5.266331 4.701303
C 5.669449 5.743062 4.180976
C 0.004653 0.008405 4.954415
C 0.004728 0.467088 5.539226
C 0.507135 0.020557 5.510324
C 0.524033 0.446183 4.997065
C 0.222275 0.266343 5.232643
C 0.238852 0.750504 5.746291
C 0.768362 0.196456 5.670503
C 0.698601 0.769475 5.261045
C 0.984137 0.023101 5.016253
C 1.045858 0.466107 5.486239
C 1.492496 0.007585 5.505708
C 1.518373 0.506226 4.960400
C 1.260409 0.231002 5.188915
C 1.226470 0.703853 5.713574
C 1.813799 0.205570 5.734424
C 1.714200 0.791842 5.257922
C 2.038052 0.034655 4.989409
C 2.032775 0.545098 5.527510
C 2.443847 0.006762 5.515581
C 2.491728 0.518276 5.021174
C 2.284389 0.262004 5.240888
C 2.244956 0.802662 5.717812
C 2.762825 0.285759 5.749260
C 2.738878 0.671129 5.258674
C 3.068998 0.005975 5.001970
C 3.011774 0.492033 5.488257
C 3.478044 0.018913 5.543409
C 3.482201 0.520871 5.073277
C 3.228299 0.289429 5.248603
C 3.236535 0.722095 5.704654
C 3.759586 0.242700 5.725150
C 3.718871 0.755750 5.236859
C 4.028445 0.053296 5.017200
C 3.984857 0.522633 5.517879
C 4.439629 0.043662 5.492656
C 4.551933 0.548269 4.993096
C 4.182858 0.288772 5.279666
C 4.211983 0.744526 5.737640
C 4.733514 0.218985 5.724887
C 4.774558 0.798025 5.255986
C 5.043114 0.023405 4.988960
C 4.966432 0.462416 5.499455
C 5.559365 0.049391 5.471776
C 5.533642 0.503800 4.946649
C 5.260694 0.226257 5.304334
C 5.303512 0.783527 5.710287
C 5.737282 0.178851 5.739979
C 5.725694 0.750464 5.313645
C 0.041841 1.028133 5.022450
C 0.017171 1.538956 5.519420
C 0.535697 0.981135 5.502036
C 0.481316 1.541578 5.005461
C 0.229440 1.227798 5.278206
C 0.257621 1.652763 5.736184
C 0.788082 1.202685 5.740951
C 0.717183 1.787088 5.239822
C 1.032836 0.990140 5.009046
C 1.028971 1.461787 5.526597
C 1.493717 1.037617 5.496104
C 1.521330 1.499302 4.989389
C 1.209962 1.209536 5.274900
C 1.302220 1.742298 5.700972
C 1.713754 1.234152 5.729754
C 1.749475 1.741733 5.193327
C 2.047955 0.961230 5.014089
C 1.955205 1.480481 5.501690
C 2.464223 1.025117 5.507836
C 2.498036 1.502564 4.952441
C 2.263778 1.247971 5.270655
C 2.287600 1.767959 5.743871
C 2.715005 1.173995 5.717185
C 2.718039 1.706115 5.196597
C 2.977604 0.997507 4.971516
C 2.970421 1.477015 5.472890
C 3.556898 0.995442 5.525132
C 3.428927 1.473470 4.961902
C 3.272092 1.279645 5.238807
C 3.305473 1.741643 5.740364
C 3.702118 1.257062 5.688508
C 3.771089 1.773154 5.276135
C 3.963070 0.983926 4.994988
C 3.936576 1.482551 5.461339
C 4.527081 0.988530 5.457425
C 4.528637 1.509104 5.043335
C 4.262439 1.246615 5.280383
C 4.326246 1.720683 5.694586
C 4.671926 1.235356 5.733122
C 4.773548 1.775020 5.296608
C 5.007617 1.004536 5.034856
C 5.023047 1.469582 5.540660
C 5.527249 1.021249 5.555330
C 5.477757 1.512237 4.999945
C 5.246775 1.280700 5.205836
C 5.192370 1.763070 5.726821
C 5.737750 1.314711 5.718129
C 5.730007 1.709515 5.280752
C 0.029890 1.924062 5.010114
C 0.031451 2.512642 5.443677
C 0.501004 1.994944 5.526400
C 0.530392 2.510532 4.980739
C 0.220953 2.225388 5.253941
C 0.241649 2.728449 5.709530
C 0.733019 2.250386 5.681645
C 0.736482 2.754501 5.289089
C 1.038776 1.998683 4.950544
C 0.956722 2.530302 5.522558
C 1.478910 1.959880 5.443044
C 1.520696 2.512819 5.038092
C 1.248683 2.246738 5.227155
C 1.259119 2.672178 5.708260
C 1.775122 2.292771 5.716582
C 1.734578 2.746761 5.311539
C 2.048685 1.950039 5.011512
C 2.026289 2.505443 5.492240
C 2.582153 1.991849 5.474090
C 2.475897 2.509628 4.986987
C 2.268583 2.255543 5.276422
C 2.242767 2.783555 5.749174
C 2.748720 2.210614 5.715536
C 2.722067 2.746194 5.293498
C 2.972332 1.941672 4.990569
C 2.998284 2.461502 5.503041
C 3.538460 1.999763 5.496676
C 3.481873 2.538763 4.991499
C 3.247526 2.227139 5.294965
C 3.232324 2.732239 5.660702
C 3.718864 2.186253 5.748816
C 3.735817 2.764665 5.249411
C 4.006587 1.956311 4.962671
C 4.049759 2.478512 5.515467
C 4.478895 1.978435 5.530397
C 4.524247 2.470256 4.997854
C 4.221740 2.206921 5.257796
C 4.205311 2.774449 5.715121
C 4.755431 2.179886 5.731241
C 4.722443 2.754498 5.306848
C 4.972102 2.003258 4.952495
C 5.007173 2.537944 5.510583
C 5.491668 1.965011 5.460852
C 5.474202 2.539529 5.022768
C 5.202769 2.277071 5.281487
C 5.249096 2.773134 5.731219
C 5.693473 2.217235 5.666806
C 5.718670 2.758911 5.184574
C 0.023687 3.013027 5.051204
C 0.024241 3.507662 5.488384
C 0.485079 3.011176 5.574225
C 0.471285 3.471805 5.055368
C 0.272707 3.222079 5.219937
C 0.213820 3.763364 5.696567
C 0.734668 3.252994 5.698199
C 0.795425 3.713661 5.289772
C 1.008589 2.999902 4.948881
C 1.036612 3.457957 5.482494
C 1.542636 2.995324 5.540316
C 1.495715 3.478774 4.982130
C 1.196723 3.299120 5.218917
C 1.196404 3.745207 5.674393
C 1.781253 3.270264 5.743958
C 1.747043 3.692762 5.257459
C 1.968856 2.947748 4.982123
C 2.047926 3.538925 5.509828
C 2.484668 2.995538 5.539067
C 2.482732 3.478510 4.952243
C 2.216932 3.236505 5.242379
C 2.248952 3.834002 5.725418
C 2.758653 3.258595 5.739134
C 2.720320 3.710629 5.202883
C 3.037163 2.995594 4.987395
C 3.027022 3.481357 5.535947
C 3.490189 2.934537 5.531775
C 3.477985 3.508994 4.978777
C 3.219529 3.264911 5.227470
C 3.256488 3.717534 5.744393
C 3.736634 3.251631 5.737863
C 3.714203 3.744434 5.224095
C 3.962877 3.022303 4.995454
C 3.960345 3.473786 5.505425
C 4.556200 2.988789 5.548714
C 4.476454 3.542605 4.971667
C 4.195358 3.241812 5.261237
C 4.232823 3.706838 5.738617
C 4.680763 3.245175 5.738619
C 4.711451 3.800690 5.213640
C 4.978811 3.010506 4.962246
C 4.964960 3.485586 5.518892
C 5.470665 2.987201 5.513437
C 5.467890 3.453671 4.979528
C 5.221074 3.276318 5.216922
C 5.254107 3.703245 5.749419
C 5.704017 3.196305 5.739917
C 5.748086 3.800887 5.254847
C 0.038060 4.000188 4.962032
C 0.001315 4.472175 5.555546
C 0.485402 4.027690 5.500612
C 0.463930 4.479953 5.041860
C 0.255833 4.242786 5.275978
C 0.245380 4.784445 5.698415
C 0.695766 4.201997 5.747695
C 0.735663 4.782272 5.217113
C 1.054771 3.979894 4.988382
C 0.950610 4.498549 5.525148
C 1.486528 3.959435 5.466690
C 1.457150 4.488434 5.049726
C 1.190666 4.237332 5.290381
C 1.188433 4.751271 5.739264
C 1.780068 4.281564 5.733013
C 1.768962 4.716209 5.282295
C 2.016679 4.000600 5.040749
C 2.015511 4.553993 5.545808
C 2.459277 3.952529 5.488550
C 2.498766 4.493726 5.032605
C 2.288305 4.205614 5.273114
C 2.309271 4.721704 5.749239
C 2.752511 4.257948 5.688130
C 2.712143 4.756236 5.215691
C 3.060853 3.990348 4.967504
C 2.980047 4.503423 5.480132
C 3.489315 4.000881 5.453639
C 3.472037 4.519665 4.991544
C 3.285379 4.291650 5.273059
C 3.228008 4.706097 5.716336
C 3.772232 4.192074 5.725383
C 3.706622 4.817102 5.248115
C 4.003930 3.990358 4.928870
C 3.981440 4.534732 5.523254
C 4.495981 4.029513 5.527981
C 4.484562 4.522018 5.058290
C 4.229282 4.206958 5.216939
C 4.221316 4.762408 5.714945
C 4.698442 4.277890 5.729054
C 4.736859 4.712744 5.239385
C 5.019159 3.973563 5.041949
C 5.016064 4.531525 5.501446
C 5.517514 4.008075 5.505467
C 5.550448 4.504686 5.054614
C 5.214322 4.297556 5.276319
C 5.194550 4.799878 5.744342
C 5.723090 4.232748 5.741843
C 5.719768 4.762612 5.164288
C 0.018132 4.978693 5.027275
C 0.056332 5.495070 5.572335
C 0.498074 4.992891 5.474902
C 0.527914 5.449807 5.006608
C 0.193238 5.225691 5.291195
C 0.314733 5.724681 5.737989
C 0.795523 5.242155 5.723801
C 0.762507 5.740875 5.174856
C 0.974292 4.982766 4.996439
C 1.042408 5.488803 5.545359
C 1.499678 4.951943 5.482890
C 1.535718 5.522112 5.000705
C 1.252464 5.286055 5.306033
C 1.183157 5.740976 5.671094
C 1.796565 5.269740 5.735238
C 1.786829 5.724702 5.178428
C 1.945161 5.004228 5.003599
C 2.046238 5.497164 5.505165
C 2.472726 4.960612 5.525786
C 2.513187 5.494811 4.969492
C 2.242850 5.243801 5.230878
C 2.329579 5.693851 5.700084
C 2.704263 5.283172 5.722314
C 2.797545 5.744609 5.197969
C 2.991104 5.044317 5.022803
C 3.011871 5.548039 5.501972
C 3.470333 4.993725 5.530785
C 3.435914 5.549764 4.982128
C 3.215624 5.228869 5.255815
C 3.270642 5.721746 5.741922
C 3.726701 5.216524 5.746075
C 3.739340 5.674104 5.233541
C 4.027404 4.996006 5.058210
C 4.003698 5.458787 5.469668
C 4.462941 5.028700 5.500423
C 4.493862 5.523531 4.976243
C 4.239121 5.264214 5.242958
C 4.221947 5.676900 5.708708
C 4.727129 5.208013 5.739030
C 4.726651 5.694541 5.243745
C 5.029665 4.995327 5.040323
C 5.039450 5.489717 5.440848
C 5.439682 4.976115 5.522409
C 5.458243 5.452496 4.985670
C 5.310529 5.229384 5.253646
C 5.259705 5.709468 5.718180
C 5.706842 5.313192 5.730711
C 5.700783 5.680429 5.236160
1728
Frame 5/10
C 0.113856 0.047486 0.073237
C 0.069843 0.541858 0.542220
C 0.471590 0.057298 0.589599
C 0.516281 0.575971 0.008527
C 0.167341 0.342235 0.274331
C 0.170562 0.787203 0.739460
C 0.750289 0.227639 0.829404
C 0.695000 0.763282 0.246407
C 0.923749 0.059279 0.075415
C 0.981653 0.435334 0.473223
C 1.507827 0.063528 0.480246
C 1.408962 0.466417 0.025823
C 1.228574 0.232053 0.226911
C 1.211939 0.716370 0.778147
C 1.776390 0.295320 0.769560
C 1.723731 0.750413 0.188408
C 2.028650 0.022431 0.053967
C 2.006237 0.494669 0.572471
C 2.487143 0.020456 0.498387
C 2.452486 0.552526 0.028476
C 2.221067 0.234856 0.282237
C 2.234861 0.690000 0.788620
C 2.772439 0.228298 0.722842
C 2.713513 0.696108 0.217269
C 3.031663 0.027128 0.009601
C 3.013327 0.531593 0.559086
C 3.525547 0.009193 0.439918
C 3.542749 0.482475 0.009607
C 3.270870 0.311864 0.162910
C 3.286470 0.773009 0.737586
C 3.780362 0.244991 0.701185
C 3.727941 0.843362 0.241956
C 4.109856 0.048808 0.009985
C 3.926157 0.518867 0.525443
C 4.531286 0.059856 0.477793
C 4.461654 0.531512 0.054139
C 4.265486 0.293597 0.216779
C 4.244418 0.779421 0.799013
C 4.763148 0.290239 0.750083
C 4.751397 0.700791 0.239876
C 4.907159 0.002959 0.031816
C 5.021124 0.476199 0.469593
C 5.454857 0.036703 0.560052
C 5.497433 0.422864 0.092618
C 5.201573 0.206829 0.299648
C 5.240942 0.711519 0.812709
C 5.705289 0.275877 0.772097
C 5.695303 0.727870 0.231935
C 0.002236 0.926217 0.015905
C 0.061703 1.492962 0.523470
C 0.461143 0.967179 0.416807
C 0.457082 1.481664 0.085345
C 0.226639 1.213779 0.222687
C 0.201689 1.784818 0.668424
C 0.733595 1.191366 0.755948
C 0.766499 1.744584 0.316635
C 1.020142 0.953377 0.005909
C 0.951576 1.478829 0.493781
C 1.567243 1.006844 0.564234
C 1.496125 1.497552 0.024685
C 1.211157 1.214372 0.302631
C 1.186134 1.735348 0.699915
C 1.680526 1.266183 0.744341
C 1.729157 1.766020 0.311343
C 1.949799 1.047623 0.017228
C 1.997927 1.520918 0.480859
C 2.459662 1.011522 0.562017
C 2.514659 1.524072 0.027658
C 2.299059 1.267670 0.231815
C 2.238290 1.702678 0.717087
C 2.752132 1.314386 0.786288
C 2.707309 1.818220 0.223907
C 3.020307 1.009461 0.061730
C 3.028004 1.533656 0.509535
C 3.492170 1.027371 0.476559
C 3.575910 1.409699 0.001868
C 3.275980 1.238484 0.170944
C 3.216876 1.799114 0.813329
C 3.741174 1.286422 0.697939
C 3.809091 1.705766 0.215921
C 3.997165 1.075535 0.032562
C 4.031358 1.495208 0.517940
C 4.519789 0.944978 0.551915
C 4.522183 1.492457 0.070585
C 4.325117 1.198276 0.254633
C 4.286240 1.694211 0.691864
C 4.750808 1.266928 0.720651
C 4.759015 1.745979 0.208462
C 4.952311 1.001844 0.009491
C 5.026799 1.436251 0.448998
C 5.482602 1.025374 0.518671
C 5.431442 1.488649 0.020180
C 5.265869 1.181612 0.216812
C 5.223704 1.744261 0.716804
C 5.735262 1.298205 0.766478
C 5.709251 1.767222 0.221885
C 0.068987 1.956439 0.061139
C 0.000582 2.558452 0.493247
C 0.470596 1.921378 0.506152
C 0.563280 2.538963 0.048369
C 0.222375 2.254025 0.247264
C 0.286278 2.676620 0.739296
C 0.697440 2.253662 0.728843
C 0.675463 2.808477 0.273973
C 1.058606 2.081031 0.018796
C 1.034283 2.533430 0.487175
C 1.479361 1.993221 0.499727
C 1.572133 2.574577 0.013798
C 1.221597 2.215381 0.284985
C 1.192869 2.711715 0.738462
C 1.712669 2.285274 0.756304
C 1.837178 2.767590 0.255320
C 2.026204 2.036105 0.033955
C 2.014590 2.510006 0.481912
C 2.575154 1.999373 0.554531
C 2.528232 2.446812 0.076879
C 2.272427 2.218468 0.290590
C 2.251026 2.803285 0.741550
C 2.687685 2.292346 0.763356
C 2.771402 2.766414 0.220988
C 3.057400 2.003821 0.051463
C 2.937517 2.472296 0.573392
C 3.532958 1.971212 0.560401
C 3.469572 2.559065 0.078567
C 3.302383 2.265555 0.270526
C 3.298063 2.766822 0.761543
C 3.705695 2.287655 0.801448
C 3.787757 2.725899 0.251572
C 4.066791 2.015147 0.024514
C 4.042018 2.523136 0.455107
C 4.452772 1.942613 0.515263
C 4.497249 2.619234 0.055021
C 4.293017 2.232278 0.206411
C 4.204108 2.717724 0.728388
C 4.770850 2.250499 0.783870
C 4.761760 2.669000 0.261458
C 4.955641 1.982895 0.001838
C 4.999585 2.515075 0.519891
C 5.472658 1.924223 0.536358
C 5.472205 2.513494 0.067351
C 5.199275 2.269738 0.257842
C 5.249557 2.698065 0.711565
C 5.739899 2.289884 0.651876
C 5.687116 2.724809 0.311861
C 0.068713 3.029861 0.047459
C 0.009787 3.614581 0.495468
C 0.551785 2.984367 0.524363
C 0.524980 3.495533 0.002790
C 0.226458 3.242080 0.320003
C 0.219058 3.769952 0.769530
C 0.813250 3.276710 0.735054
C 0.781364 3.810914 0.276560
C 0.935423 2.923233 0.028859
C 1.040840 3.484927 0.558797
C 1.519607 3.033413 0.403974
C 1.507288 3.562594 0.005064
C 1.175699 3.243794 0.224090
C 1.263142 3.733086 0.738608
C 1.791170 3.247327 0.670862
C 1.759848 3.762105 0.226443
C 1.951185 2.948805 0.004684
C 1.965222 3.513788 0.444716
C 2.569587 3.025463 0.517764
C 2.500455 3.552436 0.037231
C 2.213082 3.264406 0.302694
C 2.333024 3.781024 0.803605
C 2.756247 3.207718 0.764879
C 2.656051 3.692902 0.299744
C 3.017521 3.056458 0.021460
C 2.983443 3.421548 0.495885
C 3.497560 3.007402 0.481996
C 3.506380 3.436928 0.025313
C 3.205400 3.285273 0.257115
C 3.269547 3.808658 0.729709
C 3.817981 3.221961 0.762070
C 3.770519 3.760530 0.228531
C 4.000128 3.014606 0.010822
C 3.937424 3.505682 0.522604
C 4.519132 2.955477 0.550320
C 4.441775 3.507499 0.059898
C 4.250635 3.265563 0.173316
C 4.203742 3.733017 0.767389
C 4.736264 3.284161 0.769177
C 4.796752 3.723318 0.189302
C 4.997372 3.043270 0.027668
C 4.990001 3.453444 0.449562
C 5.525913 3.031029 0.463302
C 5.491994 3.435512 0.037087
C 5.203992 3.287388 0.214545
C 5.267447 3.765659 0.749322
C 5.748849 3.229844 0.717076
C 5.696038 3.695945 0.304119
C 0.027273 3.932979 0.062142
C 0.060429 4.510124 0.421086
C 0.513880 3.920727 0.423905
C 0.460878 4.482451 0.007654
C 0.249373 4.239427 0.194483
C 0.301167 4.713139 0.813160
C 0.689828 4.192502 0.744737
C 0.714807 4.696380 0.304001
C 1.032867 3.961523 0.089188
C 1.057203 4.466238 0.463172
C 1.491453 3.967381 0.561436
C 1.389437 4.492086 0.061550
C 1.307450 4.256138 0.274434
C 1.259954 4.738077 0.826706
C 1.741150 4.268917 0.819652
C 1.787904 4.739732 0.186817
C 2.067389 3.921006 0.044635
C 2.013987 4.500614 0.424668
C 2.449455 3.994030 0.449490
C 2.471508 4.465086 0.052617
C 2.190885 4.241647 0.217227
C 2.202391 4.830447 0.697596
C 2.719627 4.231021 0.735166
C 2.836820 4.705582 0.281840
C 3.026541 3.965125 0.070897
C 2.985665 4.493390 0.554472
C 3.541540 3.951334 0.474153
C 3.469955 4.608520 0.032076
C 3.257916 4.242373 0.195812
C 3.148571 4.761088 0.820038
C 3.802932 4.196327 0.698213
C 3.759379 4.800578 0.225176
C 3.904393 4.049630 0.008152
C 3.965301 4.465349 0.519008
C 4.492900 4.038251 0.449044
C 4.422633 4.441397 0.001792
C 4.262987 4.193900 0.221962
C 4.254874 4.854452 0.754726
C 4.773457 4.325773 0.751388
C 4.677540 4.726870 0.298571
C 5.025143 4.009093 0.029235
C 4.967196 4.518692 0.422711
C 5.556634 3.981744 0.484828
C 5.419868 4.501561 0.054317
C 5.208198 4.276826 0.252084
C 5.243035 4.733125 0.815256
C 5.710927 4.202733 0.751006
C 5.694338 4.788939 0.258271
C 0.034991 4.920333 0.081004
C 0.063527 5.554316 0.431499
C 0.519331 5.073486 0.488154
C 0.415978 5.487249 0.056282
C 0.192754 5.209435 0.329439
C 0.224662 5.747077 0.703161
C 0.803790 5.296922 0.724460
C 0.742271 5.680602 0.174676
C 0.943783 4.960296 0.043726
C 0.978575 5.573779 0.457570
C 1.510471 5.028122 0.547815
C 1.560127 5.516748 0.010542
C 1.208450 5.242269 0.247778
C 1.199409 5.741693 0.685578
C 1.725432 5.259512 0.795120
C 1.723192 5.699474 0.311495
C 1.956610 5.012731 0.095505
C 1.945844 5.449505 0.520200
C 2.446848 4.971554 0.511856
C 2.510576 5.462492 0.031058
C 2.204635 5.194642 0.211827
C 2.313149 5.694245 0.814151
C 2.774285 5.307219 0.773996
C 2.833903 5.741773 0.265645
C 2.956356 4.946342 0.063383
C 2.996919 5.457662 0.526253
C 3.491625 4.998810 0.551612
C 3.465271 5.468385 0.024092
C 3.269363 5.206572 0.189544
C 3.342692 5.725634 0.672803
C 3.829416 5.226968 0.758329
C 3.827475 5.700204 0.229948
C 4.030036 4.937999 0.020917
C 4.006220 5.445678 0.414332
C 4.451676 4.947729 0.513292
C 4.504823 5.438342 0.027712
C 4.317922 5.251217 0.307422
C 4.133484 5.748707 0.820479
C 4.764463 5.176115 0.765511
C 4.785916 5.683326 0.289011
C 4.943698 5.007642 0.020194
C 4.988553 5.449420 0.470501
C 5.436075 4.994445 0.490240
C 5.455515 5.424385 0.013109
C 5.282197 5.251617 0.320712
C 5.211855 5.672558 0.705528
C 5.739483 5.160887 0.771148
C 5.711016 5.699683 0.177601
C 0.010710 0.034531 0.876657
C 0.031930 0.414296 1.537599
C 0.415868 0.008559 1.519261
C 0.479097 0.441904 1.029465
C 0.291350 0.278973 1.276401
C 0.244576 0.672528 1.700389
C 0.703898 0.279398 1.766405
C 0.822212 0.783159 1.224883
C 1.045159 0.030150 0.976134
C 1.058865 0.425160 1.527577
C 1.591312 0.009752 1.521161
C 1.426498 0.463286 0.995326
C 1.258115 0.217968 1.240984
C 1.287101 0.773328 1.768716
C 1.791645 0.318899 1.785237
C 1.754219 0.708246 1.194745
C 1.932576 0.024763 0.978599
C 2.085647 0.493194 1.461248
C 2.564438 0.002776 1.480994
C 2.436704 0.464576 0.987381
C 2.201625 0.277738 1.233874
C 2.322999 0.729515 1.718912
C 2.743109 0.292537 1.760391
C 2.704736 0.767572 1.187838
C 3.023249 0.050923 0.916660
C 2.990391 0.473439 1.547289
C 3.534206 0.016108 1.527711
C 3.590529 0.483104 1.033436
C 3.189215 0.221063 1.286193
C 3.277023 0.785290 1.709587
C 3.768938 0.325755 1.720320
C 3.816115 0.786886 1.253998
C 4.041725 0.103810 1.000270
C 3.990116 0.433099 1.486719
C 4.480996 0.087949 1.508429
C 4.448656 0.513449 0.988476
C 4.259763 0.217665 1.266887
C 4.300629 0.804298 1.692002
C 4.683723 0.230758 1.747329
C 4.771605 0.678438 1.293255
C 5.000727 0.072901 1.000630
C 5.058929 0.438986 1.492480
C 5.509173 0.016294 1.516133
C 5.444207 0.476056 0.911997
C 5.335278 0.277103 1.207519
C 5.211680 0.712564 1.702642
C 5.727964 0.286934 1.787686
C 5.712489 0.797878 1.306658
C 0.018985 1.039197 1.046196
C 0.002944 1.506270 1.451099
C 0.548816 0.999694 1.438748
C 0.472874 1.552751 0.955990
C 0.293221 1.206029 1.319094
C 0.210891 1.777986 1.775206
C 0.665021 1.295686 1.794761
C 0.818707 1.701733 1.248702
C 0.989665 1.048917 1.035172
C 1.065642 1.487140 1.538334
C 1.541347 0.986460 1.446035
C 1.496946 1.528775 1.064577
C 1.280762 1.211847 1.311786
C 1.243957 1.744485 1.754687
C 1.748016 1.293930 1.769652
C 1.786606 1.832507 1.291340
C 1.976241 0.932292 1.020245
C 2.044112 1.546504 1.467196
C 2.536992 0.981997 1.437223
C 2.440076 1.475820 0.960746
C 2.219608 1.244069 1.237475
C 2.297863 1.660989 1.769399
C 2.789515 1.197678 1.701709
C 2.735298 1.776963 1.304591
C 2.946611 1.040669 1.028906
C 2.965435 1.467487 1.541877
C 3.567365 0.970867 1.542691
C 3.562170 1.510071 0.938070
C 3.256788 1.231682 1.242676
C 3.254365 1.794535 1.763360
C 3.743944 1.300356 1.765356
C 3.751193 1.784410 1.290444
C 4.031450 1.043925 0.999485
C 4.020237 1.529717 1.470358
C 4.502412 1.035333 1.490203
C 4.446532 1.495316 0.973247
C 4.271423 1.203047 1.206636
C 4.192649 1.743973 1.763427
C 4.704200 1.232620 1.791701
C 4.748786 1.711407 1.222760
C 4.953234 0.970994 1.041890
C 4.940326 1.516101 1.489775
C 5.440332 0.988058 1.508303
C 5.439749 1.452449 0.993945
C 5.340462 1.223319 1.291840
C 5.271116 1.820351 1.707700
C 5.696423 1.203916 1.700599
C 5.742886 1.676563 1.209510
C 0.017629 1.981614 0.974598
C 0.001511 2.538679 1.478317
C 0.438836 1.981690 1.458640
C 0.458008 2.502680 1.038922
C 0.234054 2.175751 1.214235
C 0.203443 2.800788 1.780013
C 0.815523 2.226139 1.732781
C 0.782209 2.761504 1.191814
C 0.997464 1.951329 1.033662
C 0.952052 2.429669 1.481404
C 1.540484 1.941117 1.527884
C 1.533275 2.554952 0.983934
C 1.241018 2.255145 1.198722
C 1.145488 2.755803 1.762597
C 1.724832 2.176322 1.761015
C 1.807015 2.714773 1.239918
C 1.931699 2.066849 1.000421
C 2.012501 2.502099 1.515694
C 2.506411 1.974657 1.537035
C 2.550109 2.533920 0.996585
C 2.234811 2.280323 1.235427
C 2.255240 2.691874 1.727461
C 2.757607 2.294425 1.698796
C 2.764111 2.793272 1.272060
C 3.000436 2.084245 0.988016
C 2.997696 2.423405 1.445056
C 3.485912 1.952160 1.551205
C 3.407209 2.480765 0.973918
C 3.219733 2.204555 1.252677
C 3.280693 2.766466 1.728951
C 3.711870 2.315564 1.690106
C 3.700888 2.745228 1.167351
C 4.018515 1.943121 0.963473
C 3.999864 2.509927 1.467135
C 4.508854 2.039940 1.464801
C 4.457556 2.449292 1.033183
C 4.183904 2.242493 1.251921
C 4.231481 2.770950 1.797387
C 4.774320 2.290497 1.699905
C 4.808707 2.814268 1.224749
C 4.953875 1.990304 0.964759
C 5.060947 2.492161 1.569104
C 5.474942 2.022731 1.489856
C 5.527976 2.482020 1.043698
C 5.205759 2.200314 1.229611
C 5.181547 2.727080 1.772269
C 5.667551 2.189128 1.767359
C 5.721269 2.728956 1.188040
C 0.058487 2.949766 0.935635
C 0.057782 3.465907 1.441451
C 0.499200 2.911294 1.459404
C 0.489547 3.516723 0.972907
C 0.302753 3.309394 1.237235
C 0.266840 3.702309 1.737419
C 0.802614 3.281229 1.758610
C 0.799195 3.800491 1.253134
C 1.059735 2.967648 0.986249
C 1.009576 3.410601 1.523927
C 1.528691 3.078181 1.435708
C 1.478885 3.544778 0.960184
C 1.242913 3.278218 1.309486
C 1.213726 3.716732 1.799367
C 1.712912 3.256271 1.715105
C 1.768272 3.827611 1.243560
C 1.990610 2.995163 1.088180
C 2.019737 3.539331 1.473487
C 2.506524 2.995177 1.531782
C 2.512216 3.441903 1.064712
C 2.267958 3.170955 1.279730
C 2.297233 3.734524 1.677453
C 2.752363 3.163424 1.750413
C 2.778375 3.754715 1.158951
C 2.965922 2.998236 1.051940
C 3.065011 3.409991 1.506924
C 3.564921 3.045404 1.448784
C 3.515980 3.484033 1.012558
C 3.218626 3.216570 1.208196
C 3.272283 3.743670 1.735079
C 3.799291 3.293534 1.745500
C 3.764763 3.700145 1.283918
C 4.011744 2.981716 1.059106
C 3.993383 3.555076 1.503442
C 4.552591 3.033378 1.517907
C 4.515708 3.586899 0.980342
C 4.267018 3.178396 1.273187
C 4.280032 3.701699 1.706759
C 4.691035 3.245654 1.753363
C 4.812100 3.711347 1.307203
C 5.003073 3.096935 0.990826
C 4.950618 3.455511 1.464530
C 5.506659 2.929304 1.559619
C 5.473840 3.468799 1.048077
C 5.226940 3.214312 1.213023
C 5.351068 3.701944 1.743244
C 5.696638 3.295820 1.804373
C 5.701593 3.657125 1.279678
C 0.009807 4.022188 0.899584
C 0.023403 4.557977 1.458502
C 0.510280 4.008019 1.528469
C 0.457141 4.440634 1.038363
C 0.195633 4.328531 1.254262
C 0.282233 4.739490 1.747520
C 0.714774 4.201872 1.745174
C 0.695802 4.701735 1.236227
C 0.988949 3.978086 1.001509
C 0.960177 4.492982 1.517843
C 1.422651 3.997737 1.448564
C 1.485657 4.462661 0.909164
C 1.224752 4.276032 1.300777
C 1.246517 4.769130 1.828285
C 1.804318 4.246514 1.721067
C 1.777075 4.730615 1.227327
C 2.034829 4.056170 1.031755
C 2.078640 4.495997 1.488597
C 2.575576 3.951543 1.467563
C 2.469682 4.546424 0.990364
C 2.297895 4.285289 1.256930
C 2.265039 4.721893 1.694377
C 2.775802 4.276875 1.764495
C 2.770244 4.731530 1.168322
C 3.046702 4.050441 0.989194
C 3.029509 4.473547 1.485837
C 3.440584 3.998282 1.517943
C 3.444958 4.555247 0.985787
C 3.258802 4.170464 1.245392
C 3.253591 4.715036 1.668941
C 3.702292 4.239128 1.755080
C 3.748888 4.778836 1.276352
C 4.008840 3.984276 0.966456
C 3.949776 4.507929 1.529355
C 4.425000 3.981467 1.455421
C 4.526683 4.527254 0.943887
C 4.293526 4.299739 1.193514
C 4.310495 4.744777 1.743384
C 4.804065 4.245148 1.702758
C 4.730614 4.675816 1.273447
C 4.906787 3.980528 1.040648
C 5.060444 4.486445 1.523435
C 5.504951 4.033415 1.424300
C 5.475097 4.525768 0.903201
C 5.210083 4.298157 1.230182
C 5.267064 4.744730 1.704167
C 5.669536 4.271392 1.680777
C 5.719635 4.689397 1.206208
C 0.009828 5.060898 1.081462
C 0.087372 5.534901 1.445907
C 0.447929 5.006501 1.564056
C 0.468369 5.504624 0.942498
C 0.245323 5.250049 1.266749
C 0.303069 5.725185 1.751031
C 0.714816 5.261726 1.671923
C 0.687591 5.677533 1.226056
C 1.027811 4.976887 1.058068
C 0.961728 5.505256 1.481871
C 1.443639 5.022944 1.504793
C 1.453111 5.474743 0.929815
C 1.186767 5.330527 1.246581
C 1.279564 5.736393 1.790702
C 1.787785 5.234368 1.707661
C 1.730113 5.749702 1.239986
C 2.003833 4.984470 0.935145
C 1.973649 5.571647 1.485030
C 2.458123 4.963112 1.489231
C 2.540245 5.471133 1.022302
C 2.259485 5.229108 1.289771
C 2.326406 5.716829 1.719228
C 2.805479 5.224502 1.740649
C 2.787676 5.726968 1.295242
C 3.027762 5.050251 1.037806
C 3.077717 5.451303 1.561660
C 3.530582 5.006504 1.418855
C 3.500550 5.548522 0.967522
C 3.197215 5.246844 1.298919
C 3.220161 5.733723 1.714521
C 3.724121 5.181699 1.778349
C 3.814152 5.690055 1.194229
C 4.064870 5.036519 1.024500
C 3.948371 5.488872 1.566984
C 4.465963 4.979595 1.494061
C 4.481257 5.531673 0.981484
C 4.285192 5.227926 1.230754
C 4.198055 5.702686 1.699810
C 4.753408 5.251552 1.701261
C 4.792842 5.698528 1.225047
C 5.006853 5.025407 1.039621
C 5.029966 5.471455 1.503864
C 5.563755 4.961175 1.549596
C 5.422458 5.504470 1.007291
C 5.302220 5.245829 1.280923
C 5.253542 5.697504 1.699199
C 5.671643 5.308893 1.751819
C 5.719022 5.678478 1.270173
C 0.022689 0.021207 1.945010
C 0.010709 0.613479 2.565029
C 0.565383 0.017129 2.495690
C 0.432326 0.427294 1.954968
C 0.181748 0.286598 2.293094
C 0.249617 0.658488 2.698458
C 0.739547 0.307631 2.729585
C 0.729301 0.689088 2.208049
C 0.991569 0.003684 2.050488
C 0.934282 0.527258 2.496400
C 1.591556 0.027667 2.544177
C 1.542320 0.486551 2.019606
C 1.245394 0.233293 2.162882
C 1.294228 0.807250 2.719851
C 1.718505 0.266595 2.740553
C 1.791005 0.759374 2.203762
C 1.996088 0.089829 1.973840
C 1.968578 0.541303 2.441143
C 2.446814 0.062439 2.485102
C 2.416326 0.464358 2.022472
C 2.325102 0.211723 2.230571
C 2.239502 0.783264 2.731535
C 2.700850 0.251357 2.752589
C 2.731393 0.726995 2.242721
C 3.018603 0.033768 1.993138
C 3.047843 0.518597 2.496935
C 3.459253 0.027581 2.437637
C 3.506933 0.435013 2.006527
C 3.279245 0.287271 2.246088
C 3.232655 0.699602 2.772036
C 3.767678 0.257273 2.694911
C 3.741020 0.755061 2.271689
C 3.970472 0.070318 2.004152
C 4.011183 0.499983 2.549334
C 4.506291 0.039139 2.578312
C 4.524460 0.495770 1.943590
C 4.264075 0.302013 2.189800
C 4.208590 0.714773 2.761331
C 4.783124 0.256862 2.668932
C 4.800903 0.815282 2.223944
C 5.077037 0.035291 2.075979
C 5.015406 0.479553 2.580128
C 5.471724 0.054429 2.473340
C 5.463200 0.411693 2.014305
C 5.286241 0.296849 2.280390
C 5.259560 0.718195 2.797874
C 5.738405 0.312655 2.722983
C 5.708321 0.766561 2.183522
C 0.009624 0.944128 1.935105
C 0.034776 1.593450 2.496993
C 0.456701 1.009656 2.494307
C 0.490085 1.498535 2.072940
C 0.210209 1.265436 2.328255
C 0.247322 1.742173 2.810842
C 0.781792 1.227477 2.778763
C 0.739547 1.766200 2.332904
C 0.960598 1.030084 2.057319
C 0.993442 1.562859 2.496637
C 1.570068 1.048415 2.548893
C 1.463528 1.492834 2.047013
C 1.279311 1.173183 2.234018
C 1.187743 1.760017 2.741864
C 1.713816 1.288407 2.759001
C 1.757902 1.827912 2.234658
C 1.979020 1.060062 1.953543
C 1.956910 1.530503 2.461776
C 2.548672 0.975610 2.446927
C 2.524879 1.432926 2.042685
C 2.286777 1.282300 2.309046
C 2.242614 1.849759 2.755867
C 2.812018 1.256025 2.690448
C 2.767931 1.769486 2.178440
C 2.979074 0.958045 2.048759
C 3.070932 1.464017 2.468212
C 3.467214 0.948855 2.469884
C 3.545169 1.444692 2.005646
C 3.276460 1.212743 2.267079
C 3.199106 1.671042 2.715969
C 3.782556 1.252935 2.821100
C 3.771163 1.695093 2.255095
C 3.957836 0.950827 1.969460
C 4.010481 1.535061 2.468529
C 4.535409 1.053886 2.550645
C 4.513063 1.426063 2.051105
C 4.271031 1.221185 2.325461
C 4.254228 1.783677 2.779847
C 4.804855 1.246918 2.686392
C 4.717682 1.827526 2.281260
C 4.969338 0.949153 1.958757
C 5.083921 1.523837 2.441439
C 5.480241 0.922840 2.517502
C 5.482951 1.478986 1.992081
C 5.302669 1.310547 2.242677
C 5.287817 1.683735 2.828631
C 5.736355 1.284176 2.794594
C 5.667786 1.697495 2.264509
C 0.003001 1.914260 2.039078
C 0.024312 2.575055 2.437495
C 0.433668 2.023601 2.537919
C 0.431669 2.479236 1.959500
C 0.227099 2.283259 2.225004
C 0.280662 2.807658 2.791006
C 0.708041 2.179689 2.715740
C 0.792826 2.766499 2.169532
C 0.944564 2.012230 1.963964
C 0.922785 2.452896 2.539243
C 1.429289 1.989334 2.551450
C 1.457535 2.532035 2.019163
C 1.281160 2.243937 2.193652
C 1.266444 2.725672 2.782784
C 1.706144 2.205900 2.759692
C 1.707561 2.780144 2.264819
C 2.024227 2.089765 2.048338
C 2.019356 2.533888 2.479914
C 2.474705 1.940147 2.545069
C 2.536913 2.525364 1.983690
C 2.301510 2.291260 2.289182
C 2.259345 2.716325 2.701114
C 2.739830 2.256141 2.734988
C 2.833538 2.763773 2.239252
C 3.001750 2.015445 2.078489
C 2.953509 2.508858 2.558218
C 3.533733 1.977823 2.495373
C 3.503462 2.517582 2.056179
C 3.217620 2.206984 2.338607
C 3.207796 2.715853 2.703456
C 3.691419 2.298002 2.718959
C 3.801267 2.689147 2.182960
C 4.093530 2.026657 1.975742
C 3.968002 2.481679 2.416751
C 4.471428 1.944157 2.548805
C 4.537914 2.451957 1.931022
C 4.315222 2.263446 2.174725
C 4.308387 2.774095 2.798307
C 4.763006 2.228420 2.757962
C 4.749200 2.787602 2.267399
C 5.072224 1.981535 2.003870
C 4.956759 2.470530 2.491013
C 5.452550 1.976914 2.568153
C 5.538503 2.474422 2.007293
C 5.269565 2.263870 2.272603
C 5.216817 2.817267 2.735657
C 5.708125 2.323978 2.776825
C 5.702129 2.734975 2.216250
C 0.084964 2.978943 2.069292
C 0.014841 3.488165 2.477841
C 0.486410 2.983222 2.528241
C 0.537927 3.484552 1.980431
C 0.184041 3.237063 2.289499
C 0.181428 3.736216 2.729505
C 0.713333 3.192455 2.696202
C 0.706825 3.724718 2.280681
C 0.906263 3.028360 2.021963
C 0.985565 3.530673 2.491525
C 1.407562 2.990002 2.575937
C 1.526523 3.551782 2.011564
C 1.212822 3.238031 2.340741
C 1.209194 3.647043 2.752545
C 1.742240 3.250994 2.787352
C 1.812659 3.753337 2.296861
C 2.013187 2.921091 2.003856
C 2.071242 3.520984 2.451576
C 2.504233 3.033105 2.435507
C 2.600480 3.457098 1.981186
C 2.221417 3.196574 2.219520
C 2.223597 3.760655 2.822135
C 2.704308 3.293096 2.737519
C 2.728670 3.818189 2.207458
C 2.950525 3.070701 2.025214
C 2.996293 3.580437 2.512937
C 3.507555 3.079994 2.488226
C 3.478385 3.477029 1.968171
C 3.274718 3.176254 2.245261
C 3.344976 3.727091 2.754666
C 3.798444 3.297148 2.714892
C 3.802738 3.710961 2.299970
C 3.993647 3.056289 2.010429
C 4.056549 3.520302 2.470468
C 4.453076 2.980724 2.498918
C 4.514827 3.408478 2.009612
C 4.238787 3.254245 2.264456
C 4.308376 3.821820 2.735021
C 4.729135 3.294113 2.712401
C 4.779630 3.761281 2.200875
C 5.019077 2.944221 2.004712
C 4.954532 3.551651 2.483507
C 5.564019 2.932364 2.467096
C 5.459616 3.572119 2.035276
C 5.272168 3.229251 2.280915
C 5.205717 3.765658 2.713318
C 5.741623 3.189754 2.658744
C 5.700961 3.750173 2.235926
C 0.090479 4.018554 1.959404
C 0.054354 4.492233 2.531557
C 0.526777 4.001396 2.429244
C 0.416142 4.470511 2.025102
C 0.324857 4.249214 2.243854
C 0.223597 4.731231 2.752100
C 0.786169 4.241700 2.704690
C 0.734164 4.804114 2.261048
C 1.015482 3.930528 2.009990
C 0.930466 4.539998 2.510721
C 1.456056 3.960392 2.471457
C 1.475080 4.527477 1.958435
C 1.308784 4.253321 2.250365
C 1.199342 4.723282 2.718689
C 1.669467 4.238314 2.750770
C 1.808262 4.778204 2.270142
C 2.016999 3.993992 1.979449
C 1.942254 4.532037 2.516705
C 2.532609 4.009574 2.519122
C 2.498147 4.535975 2.096182
C 2.242593 4.307904 2.293721
C 2.226885 4.729251 2.711883
C 2.672864 4.255971 2.775652
C 2.773537 4.814188 2.251807
C 2.953148 3.994334 1.985049
C 2.980516 4.466944 2.540244
C 3.504448 4.074244 2.544899
C 3.415824 4.458973 2.051135
C 3.302067 4.227545 2.257035
C 3.293372 4.683865 2.759580
C 3.747044 4.318064 2.693768
C 3.744170 4.694076 2.202914
C 3.957715 3.944791 1.988474
C 3.963341 4.583449 2.500179
C 4.467874 4.077051 2.535139
C 4.515978 4.431502 1.955323
C 4.265832 4.309657 2.267280
C 4.243525 4.760354 2.799291
C 4.736883 4.231317 2.714486
C 4.776498 4.749463 2.216935
C 4.964649 4.023480 2.058078
C 4.974902 4.457653 2.465532
C 5.485139 4.051222 2.456891
C 5.569297 4.518681 1.998113
C 5.190998 4.210730 2.257323
C 5.249755 4.725706 2.814231
C 5.734929 4.292217 2.785850
C 5.674007 4.729844 2.221741
C 0.024719 5.057730 1.951035
C 0.012506 5.434857 2.448331
C 0.506588 4.978174 2.548118
C 0.447164 5.443522 2.000371
C 0.193871 5.275654 2.194123
C 0.259917 5.718542 2.721403
C 0.784115 5.286212 2.775690
C 0.777149 5.697040 2.197278
C 1.063782 5.032171 2.013527
C 1.051313 5.514774 2.471183
C 1.475376 5.039173 2.559343
C 1.423183 5.472023 2.039704
C 1.260962 5.282088 2.324515
C 1.197100 5.741336 2.767999
C 1.792940 5.169838 2.766491
C 1.813831 5.712368 2.242399
C 1.928489 5.033289 1.959237
C 2.021683 5.588063 2.474562
C 2.542778 4.923017 2.539895
C 2.532239 5.450438 1.986938
C 2.277168 5.243863 2.183652
C 2.325812 5.743894 2.725403
C 2.748363 5.197264 2.686854
C 2.697678 5.734464 2.277498
C 3.018574 5.000364 1.979542
C 2.967446 5.423163 2.521688
C 3.434884 5.070042 2.502861
C 3.501588 5.559200 2.011957
C 3.246918 5.235155 2.233678
C 3.181011 5.748018 2.700626
C 3.702532 5.256710 2.753370
C 3.829957 5.743869 2.201295
C 3.958648 4.939080 2.028724
C 3.998759 5.530946 2.476739
C 4.537042 4.938813 2.538494
C 4.494868 5.531849 1.941156
C 4.191486 5.284270 2.206710
C 4.298215 5.721949 2.805991
C 4.718809 5.337185 2.754722
C 4.680654 5.731166 2.300323
C 4.949876 5.002136 1.992193
C 5.063078 5.496497 2.520097
C 5.534693 4.992056 2.445332
C 5.412750 5.480523 1.962491
C 5.232481 5.246794 2.212400
C 5.294614 5.732037 2.658241
C 5.728449 5.298182 2.676655
C 5.695240 5.687975 2.188877
C 0.033478 0.068374 3.034322
C 0.044379 0.522549 3.416111
C 0.447392 0.021575 3.429114
C 0.534228 0.449351 2.984559
C 0.277787 0.254835 3.131549
C 0.188722 0.743099 3.706205
C 0.757860 0.200159 3.794174
C 0.736543 0.695980 3.291232
C 0.947626 0.005575 3.004357
C 0.984029 0.516896 3.548863
C 1.537045 0.009224 3.555925
C 1.493149 0.460098 2.937979
C 1.221470 0.247528 3.294969
C 1.219950 0.774568 3.699583
C 1.774950 0.230368 3.804085
C 1.808825 0.742160 3.224889
C 1.947910 0.003863 3.022809
C 1.931467 0.506303 3.555727
C 2.473801 0.050313 3.533560
C 2.498960 0.517419 3.044483
C 2.219298 0.219315 3.183922
C 2.179841 0.719875 3.707275
C 2.744313 0.326413 3.716194
C 2.770696 0.704494 3.278921
C 2.964566 0.032932 2.961663
C 3.044313 0.513851 3.417591
C 3.459740 0.016721 3.400552
C 3.491409 0.588884 3.006056
C 3.226640 0.220678 3.308226
C 3.238705 0.804327 3.775032
C 3.750016 0.159153 3.724327
C 3.730651 0.785256 3.200890
C 4.009721 0.074377 3.009222
C 4.025304 0.437290 3.549734
C 4.520210 0.004220 3.587618
C 4.445782 0.504126 3.003903
C 4.330597 0.184979 3.231481
C 4.303493 0.739666 3.777167
C 4.833167 0.236716 3.723377
C 4.762199 0.723361 3.339478
C 4.922590 0.019947 3.016102
C 5.038977 0.542042 3.454034
C 5.529924 0.086158 3.509518
C 5.507061 0.438265 2.992825
C 5.187824 0.223718 3.213498
C 5.217983 0.775065 3.752325
C 5.722619 0.300630 3.809628
C 5.712688 0.793604 3.265030
C 0.045048 0.960901 2.971899
C 0.072786 1.454854 3.494145
C 0.448414 1.022743 3.446126
C 0.493009 1.511296 3.028453
C 0.289379 1.209601 3.190079
C 0.243211 1.763512 3.827504
C 0.747082 1.272114 3.679110
C 0.715195 1.773630 3.229050
C 1.050323 1.035341 3.032791
C 0.975723 1.544497 3.527521
C 1.569057 1.028748 3.525395
C 1.570041 1.531055 3.044698
C 1.265060 1.337807 3.230132
C 1.296601 1.740211 3.798740
C 1.668368 1.226515 3.786428
C 1.703506 1.795493 3.345625
C 2.049132 0.994576 3.056750
C 1.940859 1.524213 3.481502
C 2.558160 0.961543 3.498252
C 2.477875 1.565593 2.943834
C 2.307430 1.232055 3.194407
C 2.320887 1.805178 3.722314
C 2.779769 1.300523 3.709049
C 2.817200 1.711171 3.251383
C 2.954977 1.018087 3.007854
C 3.080170 1.507267 3.453563
C 3.465996 1.085752 3.503129
C 3.534404 1.462263 2.998927
C 3.258182 1.316985 3.206050
C 3.263533 1.760645 3.798433
C 3.782751 1.288875 3.738218
C 3.791673 1.785315 3.208861
C 4.073096 1.024291 2.972404
C 3.952184 1.576711 3.501707
C 4.481059 1.003155 3.418448
C 4.510888 1.465211 3.059377
C 4.249948 1.237456 3.243344
C 4.210199 1.827188 3.719468
C 4.820829 1.281447 3.707714
C 4.803676 1.735065 3.206883
C 5.052485 0.970665 2.968979
C 5.032371 1.590823 3.484471
C 5.553113 1.044890 3.451738
C 5.552569 1.560731 2.951362
C 5.225511 1.277864 3.259617
C 5.199179 1.752685 3.799351
C 5.723201 1.282256 3.691148
C 5.747445 1.769552 3.319846
C 0.011749 2.087200 3.046854
C 0.016085 2.410561 3.486409
C 0.473828 2.048963 3.510865
C 0.476808 2.462444 3.052336
C 0.278724 2.160718 3.245810
C 0.228047 2.820688 3.744833
C 0.725222 2.237919 3.725747
C 0.798848 2.717846 3.247775
C 1.066387 2.011188 2.930102
C 1.019819 2.456465 3.566506
C 1.497966 2.052011 3.480525
C 1.447158 2.455277 3.025705
C 1.235824 2.211444 3.202523
C 1.217715 2.780098 3.750367
C 1.736859 2.231249 3.694871
C 1.771164 2.806312 3.278633
C 1.932469 2.078144 2.997873
C 2.039912 2.483621 3.473882
C 2.510461 2.040539 3.485757
C 2.439888 2.521171 2.944117
C 2.280570 2.187715 3.273527
C 2.193338 2.823842 3.753850
C 2.791308 2.246887 3.841483
C 2.752283 2.814044 3.220804
C 3.010094 1.974451 3.103664
C 2.994720 2.488640 3.475798
C 3.410900 1.963376 3.469426
C 3.572136 2.549395 2.973553
C 3.193218 2.255934 3.221614
C 3.244914 2.701831 3.766227
C 3.811912 2.240567 3.729378
C 3.720687 2.647988 3.296646
C 4.001617 1.985279 2.932047
C 3.952639 2.489616 3.509676
C 4.555593 1.963468 3.504989
C 4.526996 2.434404 2.962145
C 4.176754 2.211150 3.247403
C 4.184845 2.793347 3.800185
C 4.764616 2.245023 3.724565
C 4.779919 2.710982 3.275393
C 5.017149 1.949770 2.966780
C 4.978207 2.575300 3.573198
C 5.508603 1.983661 3.478046
C 5.442369 2.480132 3.042416
C 5.345431 2.224523 3.229572
C 5.274425 2.811706 3.811582
C 5.726881 2.280648 3.749768
C 5.654500 2.717224 3.235197
C 0.016863 2.932086 2.982684
C 0.008489 3.566298 3.533083
C 0.548742 2.965132 3.510159
C 0.447582 3.471392 2.982470
C 0.268575 3.279064 3.266318
C 0.241944 3.766495 3.819853
C 0.694080 3.232179 3.703549
C 0.729882 3.799023 3.276505
C 1.016189 2.994357 3.089974
C 0.970585 3.577140 3.447948
C 1.569383 3.013627 3.501517
C 1.527916 3.422611 3.026751
C 1.206283 3.255411 3.268700
C 1.227867 3.814938 3.718149
C 1.732617 3.283396 3.816141
C 1.797635 3.796564 3.303513
C 1.967760 3.062489 2.998224
C 2.013230 3.465758 3.488256
C 2.430474 2.944335 3.549042
C 2.445237 3.510876 2.930801
C 2.329120 3.236900 3.258818
C 2.210300 3.735858 3.699105
C 2.802064 3.190958 3.790720
C 2.807699 3.738691 3.257659
C 3.044768 2.967564 3.023091
C 2.982421 3.466150 3.532748
C 3.507751 2.961375 3.572186
C 3.486599 3.427704 3.036638
C 3.238070 3.231491 3.179817
C 3.187507 3.759601 3.740311
C 3.658753 3.265264 3.707527
C 3.724134 3.716286 3.278679
C 4.033732 3.001957 2.973852
C 3.953307 3.535641 3.533241
C 4.569533 3.042592 3.539729
C 4.462099 3.490162 2.948796
C 4.273189 3.185642 3.200984
C 4.344995 3.764641 3.726429
C 4.772778 3.210564 3.801900
C 4.742407 3.711660 3.235476
C 5.020160 3.029972 2.975366
C 5.062466 3.496674 3.501027
C 5.568354 2.974693 3.457100
C 5.483571 3.516401 3.050267
C 5.161031 3.207660 3.269818
C 5.298955 3.759772 3.798438
C 5.680871 3.238671 3.831466
C 5.677333 3.722316 3.287823
C 0.062394 4.003014 2.947064
C 0.027509 4.480361 3.515533
C 0.547824 4.025218 3.478393
C 0.519310 4.552665 3.025068
C 0.212711 4.239151 3.313261
C 0.299484 4.818127 3.803951
C 0.736144 4.265551 3.706804
C 0.776673 4.728394 3.172544
C 1.003820 3.925023 2.987882
C 0.972328 4.502890 3.503543
C 1.482755 4.049452 3.516173
C 1.521040 4.426643 3.012902
C 1.300779 4.282975 3.268364
C 1.236452 4.823966 3.741821
C 1.682603 4.249968 3.742351
C 1.673272 4.737266 3.213908
C 2.029114 4.011794 3.032635
C 2.009834 4.461199 3.439137
C 2.449882 3.945934 3.430973
C 2.500253 4.427416 3.045551
C 2.245064 4.237793 3.334601
C 2.280330 4.714510 3.790093
C 2.711482 4.172777 3.718959
C 2.772735 4.754188 3.320707
C 2.989488 4.008806 2.989205
C 2.983099 4.500701 3.465765
C 3.425314 4.000716 3.554705
C 3.515334 4.442986 2.964794
C 3.215238 4.163083 3.278580
C 3.232030 4.711594 3.742975
C 3.787868 4.274472 3.757451
C 3.697382 4.769514 3.334229
C 4.058741 4.008809 3.055950
C 3.957218 4.534106 3.530531
C 4.527190 3.941704 3.475981
C 4.524485 4.561493 2.938915
C 4.258677 4.273881 3.323190
C 4.202583 4.724633 3.710050
C 4.782793 4.185763 3.785557
C 4.711997 4.794718 3.229333
C 5.066638 4.016576 2.956799
C 4.974042 4.550697 3.431461
C 5.559440 4.001124 3.436935
C 5.468227 4.531144 3.040723
C 5.207992 4.284034 3.196089
C 5.215808 4.705022 3.763498
C 5.732994 4.266350 3.788884
C 5.740173 4.725284 3.217113
C 0.003236 5.055985 2.942537
C 0.067142 5.548521 3.457040
C 0.433457 5.035675 3.575563
C 0.497631 5.534952 3.037628
C 0.288001 5.290053 3.229279
C 0.285461 5.663439 3.701780
C 0.770095 5.180114 3.736186
C 0.777287 5.647093 3.265064
C 0.979393 5.059045 3.023957
C 0.961698 5.445190 3.552856
C 1.469410 5.018532 3.454885
C 1.466005 5.544479 2.951942
C 1.226233 5.253212 3.172447
C 1.240936 5.701592 3.792353
C 1.792728 5.254850 3.772873
C 1.757739 5.736674 3.186724
C 2.035267 5.089585 2.968842
C 2.023289 5.575636 3.518977
C 2.593612 5.002767 3.488445
C 2.455742 5.484254 2.915880
C 2.288726 5.304057 3.258393
C 2.235249 5.712502 3.803559
C 2.734216 5.306991 3.784553
C 2.735901 5.705515 3.194576
C 3.075466 4.965056 3.017001
C 3.050629 5.472659 3.439807
C 3.519868 5.093240 3.530829
C 3.462975 5.598132 2.995776
C 3.250360 5.307423 3.182281
C 3.231238 5.712532 3.673449
C 3.756336 5.229672 3.804649
C 3.785188 5.742615 3.321048
C 3.989318 4.976257 3.001772
C 3.971751 5.456106 3.477342
C 4.508361 5.015860 3.438161
C 4.414102 5.467456 2.969963
C 4.164249 5.279653 3.239974
C 4.232383 5.688430 3.772759
C 4.731746 5.302261 3.740277
C 4.778328 5.688645 3.291234
C 4.974176 5.012652 2.951981
C 4.962518 5.461959 3.506816
C 5.509103 4.995019 3.520706
C 5.441144 5.508450 3.001427
C 5.217654 5.298576 3.210939
C 5.275158 5.749543 3.738017
C 5.728815 5.226969 3.734315
C 5.704564 5.719450 3.158235
C 0.054059 0.113018 3.934147
C 0.015784 0.563491 4.405315
C 0.441985 0.073189 4.436048
C 0.558829 0.530710 3.969562
C 0.265814 0.255869 4.181153
C 0.245333 0.685688 4.694688
C 0.783724 0.195852 4.783070
C 0.718725 0.809589 4.225725
C 1.026483 0.052284 3.923930
C 0.994072 0.555894 4.543524
C 1.510796 0.083053 4.581833
C 1.586455 0.490672 3.937482
C 1.217621 0.208402 4.220202
C 1.268222 0.744188 4.789420
C 1.800136 0.270843 4.681824
C 1.793360 0.750459 4.219157
C 2.039613 0.060904 3.926724
C 2.038875 0.499410 4.538931
C 2.459213 0.055189 4.468746
C 2.514892 0.442568 3.946885
C 2.251321 0.241000 4.180103
C 2.236031 0.778241 4.710891
C 2.776991 0.349035 4.743175
C 2.743165 0.710081 4.332570
C 2.983015 0.048829 3.926935
C 2.941254 0.468632 4.475798
C 3.544012 0.041634 4.506289
C 3.460535 0.490842 3.948961
C 3.264949 0.255527 4.330344
C 3.253389 0.747194 4.689831
C 3.776152 0.220275 4.778539
C 3.781209 0.810415 4.203931
C 3.983697 0.079339 4.015039
C 3.946602 0.482396 4.540649
C 4.440890 0.061298 4.487414
C 4.532525 0.561721 4.042957
C 4.284236 0.279103 4.235616
C 4.255448 0.770146 4.828988
C 4.824145 0.248478 4.761948
C 4.744630 0.730588 4.303111
C 4.967883 0.030464 4.097926
C 4.921634 0.484746 4.485369
C 5.572156 0.049587 4.541444
C 5.462508 0.470073 3.988360
C 5.184277 0.249310 4.198551
C 5.303929 0.713961 4.701819
C 5.737996 0.160120 4.792692
C 5.674184 0.794227 4.274950
C 0.029287 1.012681 4.033787
C 0.049650 1.595550 4.448306
C 0.518020 1.011014 4.488386
C 0.547384 1.507357 3.967943
C 0.292997 1.247278 4.182066
C 0.247113 1.757152 4.709698
C 0.751778 1.207723 4.738919
C 0.786952 1.831482 4.198382
C 0.989978 1.037541 3.980943
C 1.057614 1.471476 4.522635
C 1.516145 1.008851 4.463105
C 1.462822 1.538954 4.070604
C 1.202352 1.196141 4.209812
C 1.267079 1.723696 4.810491
C 1.777020 1.260061 4.681852
C 1.743902 1.813667 4.290071
C 2.024706 0.994198 4.097841
C 2.036934 1.575758 4.532913
C 2.463155 0.974030 4.490714
C 2.447825 1.535884 3.974037
C 2.255728 1.199807 4.269315
C 2.278276 1.739135 4.738047
C 2.795334 1.333563 4.712890
C 2.696488 1.726519 4.199799
C 2.957131 1.065711 4.018919
C 3.060645 1.417219 4.509897
C 3.531570 0.967153 4.502380
C 3.511903 1.560557 4.064963
C 3.287027 1.202595 4.308797
C 3.204977 1.731270 4.772892
C 3.831367 1.268673 4.768384
C 3.729345 1.677316 4.291133
C 4.014048 1.074138 4.002724
C 4.055412 1.470058 4.525044
C 4.541043 0.938312 4.511379
C 4.545884 1.464700 3.950638
C 4.249550 1.273405 4.230940
C 4.269617 1.682229 4.775361
C 4.720879 1.290196 4.655733
C 4.739940 1.698909 4.282245
C 5.064587 1.018733 4.029410
C 5.035409 1.472597 4.497408
C 5.568743 1.062778 4.471379
C 5.462607 1.576034 4.025498
C 5.246067 1.215523 4.340023
C 5.281640 1.796254 4.774443
C 5.681990 1.222363 4.766565
C 5.692869 1.779381 4.265151
C 0.009515 2.039531 3.999882
C 0.052354 2.498343 4.449807
C 0.540773 2.016487 4.472029
C 0.485744 2.477674 3.941402
C 0.247251 2.194014 4.222160
C 0.271048 2.693566 4.710441
C 0.742888 2.252038 4.831366
C 0.842813 2.767792 4.227093
C 1.044169 1.977663 4.088674
C 1.021616 2.543739 4.515393
C 1.485425 2.009635 4.490874
C 1.576754 2.418378 4.041454
C 1.251331 2.336252 4.209781
C 1.307303 2.712878 4.714987
C 1.788148 2.210909 4.816676
C 1.755545 2.693125 4.291824
C 2.014503 2.015823 3.993732
C 2.018086 2.540785 4.520272
C 2.466183 1.931761 4.499548
C 2.467977 2.524167 4.032662
C 2.283667 2.276756 4.252303
C 2.275291 2.753263 4.710191
C 2.753317 2.239128 4.808622
C 2.787323 2.738452 4.185505
C 2.946485 1.996007 4.041316
C 3.009964 2.545802 4.473505
C 3.562001 1.993337 4.460154
C 3.488246 2.516650 3.953720
C 3.173384 2.239595 4.262127
C 3.256832 2.755593 4.749466
C 3.741654 2.329043 4.782599
C 3.816665 2.760984 4.260081
C 3.905599 1.999908 3.987622
C 3.997622 2.569201 4.509023
C 4.484299 1.948789 4.532561
C 4.475806 2.485274 4.001848
C 4.340571 2.286382 4.258178
C 4.230755 2.757535 4.746573
C 4.767350 2.291534 4.796610
C 4.696345 2.701361 4.191965
C 4.998258 2.041115 3.959281
C 5.022338 2.428785 4.511603
C 5.502081 2.066094 4.541853
C 5.526274 2.437346 4.006841
C 5.220796 2.256954 4.270397
C 5.299164 2.806295 4.759051
C 5.688070 2.295886 4.754323
C 5.688631 2.699620 4.272115
C 0.092316 2.936896 4.034338
C 0.026976 3.493501 4.415143
C 0.449391 3.048077 4.437811
C 0.477307 3.545367 4.048026
C 0.209807 3.201667 4.186042
C 0.272283 3.706534 4.780665
C 0.758004 3.258577 4.800539
C 0.704952 3.802106 4.224100
C 1.077723 3.047093 3.971476
C 0.981034 3.543818 4.436831
C 1.453927 2.995929 4.465304
C 1.436976 3.523469 3.988333
C 1.172560 3.213190 4.283488
C 1.222257 3.717291 4.782214
C 1.702577 3.237978 4.800143
C 1.818858 3.788346 4.247188
C 2.072134 3.013057 4.008609
C 1.998553 3.528937 4.440516
C 2.447984 3.016608 4.527691
C 2.488428 3.465185 3.943618
C 2.297710 3.291450 4.255095
C 2.234809 3.705958 4.798312
C 2.760696 3.301446 4.808590
C 2.698420 3.810311 4.245071
C 3.064192 2.934256 3.968416
C 3.010595 3.514386 4.512795
C 3.585292 2.976922 4.496418
C 3.474819 3.512544 3.915597
C 3.191432 3.220204 4.259483
C 3.249880 3.768531 4.687425
C 3.712208 3.198137 4.764894
C 3.659700 3.772493 4.244868
C 4.020140 3.036084 4.036647
C 4.081397 3.519094 4.515162
C 4.566330 3.018210 4.466921
C 4.495228 3.491732 3.937802
C 4.260974 3.184877 4.256177
C 4.298110 3.770594 4.703648
C 4.794307 3.312338 4.723090
C 4.767587 3.724966 4.222028
C 5.018387 2.914494 4.044992
C 5.043226 3.460165 4.550013
C 5.501804 2.966640 4.455631
C 5.477182 3.482342 3.959190
C 5.193160 3.178534 4.216974
C 5.228542 3.772442 4.809008
C 5.704432 3.262450 4.740938
C 5.744496 3.698658 4.344008
C 0.065820 4.092459 3.957592
C 0.041790 4.536064 4.581018
C 0.474594 4.037426 4.428254
C 0.512512 4.569452 3.993093
C 0.243131 4.228388 4.239833
C 0.264103 4.788864 4.703647
C 0.729920 4.219884 4.811275
C 0.718154 4.809659 4.207981
C 0.963236 4.023253 3.983075
C 0.989519 4.458975 4.450507
C 1.409136 3.970507 4.495242
C 1.456605 4.467063 4.053859
C 1.262876 4.203963 4.283864
C 1.240217 4.823333 4.744654
C 1.736378 4.212121 4.700743
C 1.735970 4.824080 4.261003
C 2.043349 4.077694 4.043760
C 2.046561 4.559939 4.500557
C 2.476626 4.068820 4.450191
C 2.430173 4.456649 4.011208
C 2.248062 4.290137 4.261131
C 2.243650 4.686671 4.772427
C 2.687776 4.300676 4.794169
C 2.805285 4.714412 4.256778
C 3.043749 3.999876 4.024003
C 3.003540 4.491646 4.462343
C 3.473622 3.998181 4.572657
C 3.480274 4.477002 3.956804
C 3.271428 4.362172 4.225481
C 3.282425 4.830302 4.802123
C 3.730910 4.219536 4.747600
C 3.689253 4.798700 4.293216
C 4.004219 4.024568 3.940100
C 4.053178 4.546475 4.518000
C 4.455264 4.083780 4.505792
C 4.451571 4.550822 3.990639
C 4.223483 4.261282 4.282692
C 4.303537 4.715257 4.732496
C 4.797452 4.198275 4.790077
C 4.699728 4.761644 4.268926
C 5.075843 3.987935 3.948965
C 4.946183 4.444775 4.483054
C 5.414969 4.016313 4.481430
C 5.464553 4.508572 4.022657
C 5.254964 4.252572 4.237859
C 5.252852 4.715031 4.809266
C 5.729249 4.212299 4.843450
C 5.673489 4.822119 4.234856
C 0.063867 5.018029 4.033230
C 0.036628 5.539269 4.481179
C 0.522862 4.974683 4.559034
C 0.525376 5.557585 3.968913
C 0.274891 5.191925 4.271952
C 0.188491 5.649671 4.750253
C 0.711247 5.182626 4.809209
C 0.815051 5.734586 4.230958
C 0.993131 4.980726 3.962784
C 1.003131 5.570395 4.485752
C 1.437962 5.031854 4.496200
C 1.547270 5.467567 4.026699
C 1.221591 5.292672 4.234141
C 1.183802 5.708967 4.795544
C 1.716864 5.244622 4.822425
C 1.762411 5.746540 4.267269
C 1.960986 5.021904 3.977960
C 2.036418 5.485519 4.489132
C 2.523334 4.903748 4.499001
C 2.517310 5.520947 4.036958
C 2.259734 5.226149 4.209685
C 2.211711 5.742681 4.691757
C 2.804272 5.226409 4.745011
C 2.688667 5.741015 4.253632
C 2.936573 4.962809 4.031990
C 3.007834 5.510211 4.471474
C 3.453455 5.003831 4.486332
C 3.546396 5.506442 3.930532
C 3.281639 5.229038 4.166554
C 3.190157 5.747925 4.710295
C 3.835814 5.233509 4.748593
C 3.740764 5.704086 4.331456
C 4.000820 4.994268 4.073877
C 3.999631 5.488049 4.518592
C 4.518223 5.013768 4.551540
C 4.461250 5.480876 3.999646
C 4.183905 5.243508 4.199948
C 4.211691 5.736927 4.698085
C 4.762800 5.218736 4.781614
C 4.663420 5.744975 4.195261
C 4.975240 4.932342 4.038821
C 4.983496 5.539350 4.440475
C 5.460876 5.041000 4.507960
C 5.552712 5.497816 3.990638
C 5.246252 5.203754 4.262050
C 5.155469 5.743244 4.743691
C 5.731601 5.271774 4.685070
C 5.642599 5.740750 4.157968
C 0.006204 0.011206 4.939220
C 0.006304 0.456117 5.552301
C 0.509514 0.027410 5.513766
C 0.532044 0.428244 4.996087
C 0.213033 0.271791 5.226857
C 0.235136 0.750672 5.745054
C 0.774482 0.178609 5.644004
C 0.681468 0.775966 5.264727
C 0.978850 0.030801 5.021671
C 1.061144 0.454809 5.481652
C 1.489995 0.010113 5.507610
C 1.524497 0.508301 4.947200
C 1.263878 0.224669 5.168554
C 1.218626 0.688471 5.701433
C 1.835066 0.190760 5.729232
C 1.702267 0.805789 5.260563
C 2.050736 0.046207 4.985879
C 2.043700 0.560131 5.536681
C 2.425130 0.009016 5.520774
C 2.488970 0.524368 5.028231
C 2.295852 0.266006 5.237851
C 2.243275 0.820215 5.707083
C 2.767100 0.297678 5.749014
C 2.735170 0.644839 5.261566
C 3.091997 0.007967 5.002626
C 3.015698 0.489377 5.484343
C 3.470725 0.025217 5.557879
C 3.476268 0.527828 5.097703
C 3.221065 0.302572 5.248138
C 3.232047 0.712793 5.689538
C 3.762782 0.240267 5.716867
C 3.708495 0.757667 5.232479
C 4.037926 0.071062 5.022933
C 3.979809 0.530177 5.523838
C 4.419506 0.058215 5.490208
C 4.569243 0.564359 4.990795
C 4.160477 0.301696 5.289554
C 4.199311 0.742701 5.733520
C 4.728018 0.208647 5.716517
C 4.782744 0.814034 5.257981
C 5.057486 0.031206 4.985280
C 4.955243 0.449888 5.499273
C 5.579153 0.065855 5.462367
C 5.544855 0.505066 4.928865
C 5.264259 0.218343 5.322445
C 5.321349 0.794703 5.697050
C 5.733042 0.155134 5.736639
C 5.717592 0.750619 5.334861
C 0.055787 1.037511 5.029934
C 0.022895 1.551941 5.525893
C 0.547596 0.974846 5.502714
C 0.475088 1.555437 5.007282
C 0.222587 1.220397 5.287608
C 0.260161 1.620351 5.731578
C 0.800775 1.186913 5.737935
C 0.706244 1.799450 5.236429
C 1.043781 0.986853 5.012062
C 1.038628 1.449050 5.535463
C 1.491622 1.050156 5.494805
C 1.528440 1.499070 4.985853
C 1.196616 1.196047 5.283201
C 1.319627 1.739731 5.684629
C 1.701672 1.228869 5.723005
C 1.749300 1.738977 5.174436
C 2.063940 0.948307 5.018785
C 1.940273 1.473975 5.502253
C 2.452297 1.033489 5.510448
C 2.497381 1.503418 4.936588
C 2.268371 1.247295 5.277540
C 2.300133 1.773945 5.741828
C 2.703340 1.148660 5.706247
C 2.707385 1.691486 5.178796
C 2.970138 0.996676 4.962021
C 2.960562 1.469353 5.463854
C 3.575864 0.993922 5.533510
C 3.405237 1.464627 4.949202
C 3.279456 1.289526 5.235076
C 3.323964 1.738858 5.737152
C 3.686158 1.259416 5.668010
C 3.778119 1.780872 5.284846
C 3.950760 0.978567 4.993317
C 3.915435 1.476735 5.448452
C 4.536108 0.984706 5.443234
C 4.538183 1.512139 5.057780
C 4.266586 1.245487 5.290510
C 4.351661 1.710910 5.676114
C 4.645902 1.230475 5.727496
C 4.781397 1.783360 5.312143
C 5.010156 1.006049 5.046474
C 5.030729 1.459442 5.554213
C 5.536332 1.028333 5.573773
C 5.470343 1.516315 4.999927
C 5.245701 1.290933 5.191114
C 5.173160 1.767426 5.719094
C 5.733667 1.336282 5.707506
C 5.723342 1.696020 5.291002
C 0.039854 1.898749 5.013486
C 0.041934 2.516856 5.424903
C 0.501338 1.993259 5.535200
C 0.540522 2.514043 4.974319
C 0.211271 2.217184 5.255255
C 0.238865 2.721265 5.696041
C 0.727358 2.250515 5.658860
C 0.731976 2.756001 5.302119
C 1.051701 1.998244 4.934058
C 0.942296 2.540403 5.530077
C 1.471880 1.946507 5.424059
C 1.527595 2.517091 5.050790
C 1.248244 2.245651 5.219540
C 1.262158 2.646237 5.694347
C 1.783496 2.307027 5.705443
C 1.729438 2.745681 5.332052
C 2.064914 1.933386 5.015349
C 2.035051 2.507258 5.489653
C 2.609537 1.989133 5.465454
C 2.467862 2.512837 4.982650
C 2.274777 2.257391 5.285229
C 2.240356 2.794741 5.748898
C 2.748293 2.197485 5.704048
C 2.712756 2.744926 5.307997
C 2.963110 1.922230 4.987426
C 2.997712 2.448669 5.504055
C 3.551280 1.999684 5.495568
C 3.475831 2.551684 4.988666
C 3.246701 2.219518 5.309953
C 3.226432 2.726318 5.630936
C 3.708485 2.165004 5.748422
C 3.731090 2.769554 5.249215
C 4.008783 1.941748 4.950228
C 4.066346 2.471350 5.520623
C 4.471860 1.971246 5.540529
C 4.532330 2.460341 4.997138
C 4.212320 2.192561 5.260395
C 4.190414 2.782599 5.703495
C 4.757241 2.156515 5.724987
C 4.713257 2.755998 5.325797
C 4.962803 2.004344 4.936660
C 5.009564 2.550592 5.514110
C 5.488891 1.953348 5.447803
C 5.465603 2.552706 5.030357
C 5.187025 2.286095 5.291982
C 5.248794 2.780846 5.724959
C 5.674631 2.206313 5.639075
C 5.708227 2.761881 5.162765
C 0.031583 3.017370 5.068272
C 0.032322 3.510216 5.484512
C 0.480106 3.014901 5.598966
C 0.461713 3.462406 5.073825
C 0.280276 3.212772 5.209916
C 0.201760 3.767819 5.678756
C 0.729557 3.253992 5.680932
C 0.810567 3.701548 5.303030
C 1.011451 2.999870 4.931841
C 1.048817 3.443942 5.476658
C 1.556848 2.993765 5.553755
C 1.494286 3.471699 4.976173
C 1.178964 3.315493 5.208557
C 1.178539 3.743609 5.649191
C 1.791671 3.277018 5.741944
C 1.746058 3.673683 5.259946
C 1.958475 2.930330 4.976164
C 2.063901 3.551900 5.513104
C 2.479557 2.994050 5.552089
C 2.476976 3.471347 4.936324
C 2.205909 3.232007 5.239839
C 2.248603 3.862003 5.717224
C 2.761537 3.261460 5.735512
C 2.710427 3.697505 5.187178
C 3.049551 2.994125 4.983194
C 3.036030 3.475143 5.547929
C 3.486919 2.912715 5.542366
C 3.470646 3.511992 4.971703
C 3.209372 3.269881 5.219960
C 3.258650 3.706712 5.742524
C 3.732179 3.252175 5.733817
C 3.702271 3.742578 5.215461
C 3.950503 3.029738 4.993939
C 3.947126 3.465047 5.507233
C 4.574934 2.985052 5.564952
C 4.468605 3.556807 4.962223
C 4.177144 3.239083 5.264982
C 4.227098 3.692450 5.734823
C 4.657684 3.243567 5.734825
C 4.698601 3.817587 5.201520
C 4.971748 3.014008 4.949662
C 4.953280 3.480781 5.525190
C 5.460887 2.982935 5.517916
C 5.457187 3.438228 4.972704
C 5.211433 3.285090 5.205896
C 5.255476 3.687659 5.749226
C 5.688689 3.178407 5.736557
C 5.747447 3.817850 5.256463
C 0.050747 4.000250 4.949376
C 0.001753 4.462900 5.574061
C 0.480536 4.036920 5.500816
C 0.451906 4.473270 5.055814
C 0.257777 4.240381 5.284637
C 0.243840 4.795927 5.681220
C 0.677688 4.185996 5.746927
C 0.730884 4.793029 5.206151
C 1.073028 3.973192 4.984510
C 0.934147 4.498065 5.533531
C 1.482038 3.945914 5.455587
C 1.442867 4.484579 5.066302
C 1.170888 4.233109 5.303842
C 1.167911 4.751695 5.735686
C 1.790090 4.292085 5.727350
C 1.775283 4.704945 5.293060
C 2.022239 4.000800 5.054332
C 2.020681 4.571990 5.561078
C 2.445702 3.936705 5.484734
C 2.498354 4.491635 5.043473
C 2.301073 4.190819 5.280818
C 2.329028 4.712272 5.748986
C 2.753348 4.260597 5.667507
C 2.699524 4.758315 5.204254
C 3.081138 3.987130 4.956673
C 2.973396 4.504564 5.473509
C 3.485753 4.001175 5.438185
C 3.462716 4.526221 4.988726
C 3.297172 4.305533 5.280745
C 3.220678 4.691463 5.705115
C 3.779643 4.172765 5.717177
C 3.692162 4.839469 5.247487
C 4.005240 3.987144 4.905160
C 3.975254 4.546310 5.531006
C 4.494641 4.039350 5.537308
C 4.479416 4.529357 5.077719
C 4.222377 4.192611 5.205918
C 4.211754 4.766545 5.703259
C 4.681257 4.287186 5.722071
C 4.732479 4.700326 5.235847
C 5.025545 3.964751 5.055932
C 5.021419 4.542034 5.501928
C 5.523352 4.010767 5.507290
C 5.567264 4.506247 5.072819
C 5.202429 4.313409 5.285092
C 5.176066 4.816505 5.742456
C 5.714119 4.226997 5.739124
C 5.709691 4.766816 5.135718
C 0.024177 4.971591 5.036366
C 0.075109 5.493427 5.596447
C 0.497432 4.990522 5.466536
C 0.537219 5.433076 5.008811
C 0.174318 5.217589 5.304927
C 0.336311 5.716241 5.733986
C 0.810698 5.239540 5.715068
C 0.766676 5.737834 5.149808
C 0.965723 4.977021 4.995252
C 1.056544 5.485070 5.560479
C 1.499571 4.935924 5.477187
C 1.547624 5.529483 5.000940
C 1.253285 5.298073 5.324711
C 1.160876 5.737968 5.644792
C 1.812087 5.276321 5.730317
C 1.799105 5.716269 5.154571
C 1.926881 5.005638 5.004799
C 2.061650 5.496218 5.506887
C 2.463634 4.947483 5.534382
C 2.517583 5.493082 4.959322
C 2.240466 5.241735 5.224504
C 2.356106 5.675135 5.683445
C 2.689017 5.294230 5.713085
C 2.813393 5.742812 5.180626
C 2.988138 5.059089 5.030404
C 3.015828 5.564052 5.502629
C 3.460444 4.991633 5.541047
C 3.414552 5.566351 4.976171
C 3.204165 5.221826 5.257753
C 3.277522 5.712327 5.739229
C 3.718934 5.205365 5.744767
C 3.735786 5.648806 5.228055
C 4.036539 4.994675 5.077613
C 4.004931 5.445050 5.459558
C 4.450588 5.038267 5.500564
C 4.491816 5.531375 4.968324
C 4.235494 5.268952 5.240611
C 4.212595 5.652533 5.694944
C 4.719505 5.194017 5.735374
C 4.718868 5.676055 5.241660
C 5.039553 4.993769 5.053764
C 5.052600 5.486289 5.421130
C 5.419576 4.968153 5.529879
C 5.444323 5.436661 4.980893
C 5.330705 5.222512 5.254861
C 5.262940 5.695957 5.707574
C 5.692456 5.334256 5.724281
C 5.684377 5.657238 5.231547
1728
Frame 6/10
C 0.142320 0.059357 0.091546
C 0.087304 0.552323 0.552775
C 0.464487 0.071623 0.611998
C 0.520351 0.594964 0.010658
C 0.146676 0.365293 0.280413
C 0.150703 0.796504 0.736825
C 0.750361 0.222048 0.849255
C 0.681250 0.766603 0.245509
C 0.904686 0.074098 0.094269
C 0.977066 0.419168 0.466529
C 1.509783 0.079411 0.475307
C 1.386202 0.458022 0.032278
C 1.223217 0.227566 0.221139
C 1.202424 0.707963 0.785184
C 1.782988 0.306650 0.774450
C 1.717164 0.750516 0.173010
C 2.035813 0.028038 0.067459
C 2.007797 0.493336 0.590589
C 2.483928 0.025569 0.497983
C 2.440608 0.565658 0.035595
C 2.213834 0.231070 0.290297
C 2.231077 0.675000 0.798275
C 2.778048 0.222872 0.716053
C 2.704392 0.682635 0.209087
C 3.039579 0.033910 0.012002
C 3.016659 0.539491 0.573857
C 3.531934 0.011492 0.424898
C 3.553436 0.478094 0.012009
C 3.276087 0.327331 0.141137
C 3.295587 0.778762 0.734483
C 3.787953 0.243739 0.688982
C 3.722426 0.866702 0.239946
C 4.137320 0.061010 0.012481
C 3.907696 0.523583 0.531803
C 4.539108 0.074819 0.472241
C 4.452068 0.539391 0.067674
C 4.269358 0.304496 0.208474
C 4.243022 0.786776 0.811266
C 4.766435 0.300299 0.750104
C 4.751746 0.688488 0.237345
C 4.883949 0.003699 0.039770
C 5.026405 0.470249 0.461991
C 5.443572 0.045879 0.575065
C 5.496791 0.403580 0.115773
C 5.189466 0.196036 0.312060
C 5.238677 0.701899 0.828387
C 5.694111 0.282347 0.777621
C 5.681629 0.722337 0.227419
C 0.002795 0.907771 0.019881
C 0.077129 1.491203 0.529337
C 0.451429 0.958974 0.396009
C 0.446352 1.477080 0.106681
C 0.220799 1.204723 0.215859
C 0.189611 1.793522 0.648030
C 0.729494 1.176708 0.757435
C 0.770624 1.743230 0.333294
C 1.025177 0.941721 0.007386
C 0.939470 1.473537 0.492226
C 1.584053 1.008555 0.580292
C 1.495156 1.496941 0.030857
C 1.201446 1.205465 0.315788
C 1.170168 1.731685 0.687394
C 1.663157 1.270229 0.742926
C 1.723947 1.770024 0.326678
C 1.937248 1.059529 0.021535
C 1.997409 1.526147 0.476074
C 2.449577 1.014403 0.577521
C 2.518324 1.530090 0.034572
C 2.311324 1.272087 0.227269
C 2.235363 1.690847 0.708859
C 2.752665 1.330482 0.795360
C 2.696636 1.835275 0.217383
C 3.025383 1.011826 0.077163
C 3.035005 1.542070 0.511918
C 3.490212 1.034214 0.470698
C 3.594887 1.387124 0.002334
C 3.282475 1.235605 0.151180
C 3.208595 1.811393 0.829162
C 3.738967 1.295528 0.684924
C 3.823864 1.694708 0.207402
C 3.996457 1.094418 0.040703
C 4.039198 1.494010 0.522425
C 4.524736 0.931222 0.564894
C 4.527729 1.490571 0.088231
C 4.343896 1.185345 0.255792
C 4.295300 1.680264 0.677330
C 4.751011 1.271160 0.713314
C 4.761269 1.744974 0.198078
C 4.940389 1.002305 0.011864
C 5.033499 1.420314 0.436248
C 5.478252 1.031718 0.523338
C 5.414303 1.485812 0.025225
C 5.269837 1.164515 0.208515
C 5.217130 1.742826 0.708505
C 5.731577 1.310256 0.770597
C 5.699064 1.771527 0.214856
C 0.086234 1.945549 0.076424
C 0.000727 2.573065 0.491559
C 0.463245 1.901723 0.507690
C 0.579100 2.548704 0.060462
C 0.215469 2.255032 0.246580
C 0.295348 2.658275 0.736620
C 0.684300 2.254577 0.723553
C 0.656828 2.823097 0.279966
C 1.073258 2.101289 0.023495
C 1.042854 2.541787 0.483969
C 1.474201 1.991526 0.499659
C 1.590167 2.593221 0.017248
C 1.214497 2.206726 0.293731
C 1.178586 2.702143 0.735578
C 1.703336 2.294093 0.757880
C 1.858973 2.771987 0.256650
C 2.032754 2.045132 0.042443
C 2.018237 2.512508 0.477391
C 2.593943 1.999217 0.568164
C 2.535290 2.433515 0.096098
C 2.278034 2.210585 0.300738
C 2.251283 2.816606 0.739438
C 2.672106 2.302933 0.766695
C 2.776753 2.770517 0.213735
C 3.071750 2.004776 0.064329
C 2.921897 2.465370 0.591741
C 3.541197 1.964015 0.575502
C 3.461964 2.573831 0.098208
C 3.315479 2.269443 0.275658
C 3.310079 2.771027 0.764428
C 3.694618 2.297069 0.814310
C 3.797197 2.719873 0.251965
C 4.083489 2.018934 0.030642
C 4.052522 2.528919 0.443884
C 4.440965 1.928267 0.519078
C 4.496561 2.649042 0.068776
C 4.303771 2.227848 0.195513
C 4.192635 2.709656 0.722985
C 4.776063 2.250624 0.792338
C 4.764700 2.648750 0.264323
C 4.944552 1.978619 0.002297
C 4.999481 2.518843 0.524863
C 5.465823 1.905278 0.545447
C 5.465256 2.516867 0.084188
C 5.186594 2.274673 0.259803
C 5.249446 2.685082 0.701956
C 5.737373 2.299855 0.627345
C 5.671396 2.718511 0.327326
C 0.085891 3.037326 0.059323
C 0.012234 3.643226 0.494335
C 0.564731 2.980459 0.530454
C 0.531225 3.494416 0.003488
C 0.220573 3.240099 0.337504
C 0.211322 3.774940 0.774413
C 0.829063 3.283388 0.731318
C 0.789205 3.826142 0.283200
C 0.919279 2.904041 0.036073
C 1.051050 3.481158 0.573496
C 1.524509 3.041766 0.379968
C 1.509109 3.578242 0.006330
C 1.157124 3.242243 0.217613
C 1.266427 3.728858 0.735760
C 1.801462 3.246659 0.651078
C 1.762310 3.765131 0.220554
C 1.938981 2.936006 0.005856
C 1.956528 3.517236 0.430895
C 2.586983 3.031829 0.522205
C 2.500568 3.565545 0.046539
C 2.203853 3.268007 0.315867
C 2.353780 3.788780 0.817006
C 2.757809 3.197147 0.768599
C 2.632564 3.678628 0.312180
C 3.021901 3.070572 0.026825
C 2.979304 3.401935 0.494856
C 3.496950 3.009253 0.477495
C 3.507975 3.421159 0.031641
C 3.194251 3.294091 0.258894
C 3.274434 3.823322 0.724636
C 3.834977 3.214951 0.765088
C 3.775649 3.763162 0.223163
C 4.000160 3.018258 0.013527
C 3.921780 3.507102 0.528255
C 4.523915 2.944347 0.562900
C 4.427219 3.509374 0.074873
C 4.250793 3.269453 0.154145
C 4.192177 3.728772 0.771736
C 4.732830 3.292702 0.773971
C 4.808440 3.716647 0.174128
C 4.996716 3.054088 0.034585
C 4.987502 3.441806 0.436953
C 5.532391 3.038787 0.454127
C 5.489993 3.419390 0.046358
C 5.192490 3.296735 0.205681
C 5.271809 3.769573 0.749152
C 5.748561 3.224806 0.708845
C 5.682547 3.682431 0.317648
C 0.034092 3.916224 0.077677
C 0.075537 4.512655 0.401357
C 0.517350 3.900908 0.404882
C 0.451097 4.478063 0.009567
C 0.249216 4.236784 0.180603
C 0.313959 4.703924 0.828950
C 0.674784 4.178127 0.743421
C 0.706008 4.682975 0.317501
C 1.041083 3.951904 0.111485
C 1.071503 4.457798 0.453966
C 1.489316 3.959226 0.576795
C 1.361796 4.490108 0.076938
C 1.321812 4.257673 0.280543
C 1.262443 4.735097 0.845882
C 1.738938 4.273646 0.837064
C 1.797380 4.737165 0.171022
C 2.084236 3.901257 0.055794
C 2.017484 4.500768 0.405835
C 2.436819 3.992537 0.436862
C 2.464385 4.456358 0.065772
C 2.176106 4.239559 0.209034
C 2.190489 4.850559 0.684495
C 2.712034 4.226276 0.731457
C 2.858525 4.694478 0.289800
C 3.033176 3.956407 0.088621
C 2.982082 4.491737 0.568090
C 3.551925 3.939167 0.467691
C 3.462444 4.635650 0.040095
C 3.259895 4.240466 0.182265
C 3.123214 4.763860 0.837548
C 3.816165 4.182908 0.685267
C 3.761724 4.813223 0.218971
C 3.880492 4.062038 0.010190
C 3.956626 4.456686 0.523760
C 4.491125 4.047813 0.436305
C 4.403291 4.426746 0.002240
C 4.266233 4.179875 0.214952
C 4.256093 4.880565 0.755908
C 4.779322 4.344716 0.751735
C 4.659426 4.721087 0.310713
C 5.031428 4.011366 0.036544
C 4.958995 4.523365 0.403389
C 5.570792 3.977181 0.481035
C 5.399835 4.501951 0.067897
C 5.197748 4.283533 0.252604
C 5.241294 4.728906 0.831570
C 5.701159 4.190916 0.751258
C 5.680422 4.798674 0.260339
C 0.043739 4.900416 0.101255
C 0.079409 5.567895 0.414373
C 0.524164 5.091858 0.485192
C 0.394972 5.484061 0.070353
C 0.178442 5.199294 0.349299
C 0.218327 5.746347 0.691451
C 0.817237 5.308653 0.718076
C 0.740338 5.663253 0.155845
C 0.929728 4.950370 0.054658
C 0.973219 5.592223 0.446963
C 1.513088 5.035153 0.559769
C 1.575159 5.520935 0.013177
C 1.198063 5.240336 0.247223
C 1.186762 5.739616 0.669473
C 1.719290 5.261891 0.806400
C 1.716491 5.686843 0.326869
C 1.945762 5.015914 0.119381
C 1.932305 5.436881 0.525250
C 2.433560 4.964443 0.514820
C 2.513220 5.453116 0.038822
C 2.193293 5.180802 0.202283
C 2.328937 5.680306 0.830188
C 2.780356 5.321524 0.779995
C 2.854878 5.739717 0.269557
C 2.945445 4.932927 0.079229
C 2.996148 5.447077 0.532816
C 3.489531 4.998512 0.564515
C 3.456589 5.460481 0.030114
C 3.274204 5.195715 0.174429
C 3.365866 5.719543 0.653504
C 3.849271 5.221210 0.760411
C 3.846844 5.687755 0.224935
C 4.037546 4.922498 0.026146
C 4.007776 5.432097 0.392915
C 4.439595 4.934662 0.516615
C 4.506028 5.422928 0.034640
C 4.334903 5.251521 0.321778
C 4.104355 5.748384 0.838098
C 4.768079 5.157644 0.769389
C 4.794895 5.666658 0.298764
C 4.929623 5.009552 0.025243
C 4.985691 5.436775 0.463126
C 5.420093 4.993056 0.487800
C 5.444394 5.405482 0.016387
C 5.290246 5.252022 0.338390
C 5.202318 5.653197 0.694410
C 5.736854 5.138609 0.776434
C 5.701269 5.687104 0.159501
C 0.013388 0.043164 0.845822
C 0.039913 0.392870 1.546999
C 0.394835 0.010699 1.524076
C 0.473872 0.427380 1.036831
C 0.301687 0.286216 1.283001
C 0.243220 0.653160 1.687986
C 0.692373 0.286748 1.770506
C 0.840264 0.791448 1.218604
C 1.056449 0.037688 0.970167
C 1.073581 0.406450 1.534472
C 1.614140 0.012189 1.526451
C 1.408123 0.454108 0.994158
C 1.260144 0.209960 1.238730
C 1.296376 0.779160 1.773395
C 1.802056 0.336124 1.794046
C 1.755273 0.697807 1.180932
C 1.915720 0.030954 0.973248
C 2.107059 0.491492 1.451560
C 2.580548 0.003471 1.476243
C 2.420880 0.455720 0.984227
C 2.189532 0.284673 1.229842
C 2.341248 0.724394 1.711140
C 2.741386 0.303171 1.762989
C 2.693419 0.771965 1.172297
C 3.029062 0.063654 0.895825
C 2.987989 0.466798 1.559112
C 3.542758 0.020134 1.534638
C 3.613161 0.478880 1.041795
C 3.174018 0.213829 1.295242
C 3.283779 0.794113 1.699484
C 3.773673 0.344693 1.712901
C 3.832644 0.796108 1.254998
C 4.052156 0.129763 1.000337
C 3.987645 0.416374 1.483399
C 4.476245 0.109936 1.510536
C 4.435820 0.516812 0.985595
C 4.262204 0.209582 1.271109
C 4.313286 0.817872 1.677502
C 4.667154 0.225947 1.746662
C 4.777007 0.660548 1.304069
C 5.000909 0.091126 1.000788
C 5.073661 0.423733 1.490600
C 5.511466 0.020367 1.520166
C 5.430259 0.470070 0.889996
C 5.356597 0.283878 1.196899
C 5.202100 0.703205 1.690803
C 5.722455 0.296167 1.797107
C 5.703112 0.809848 1.320823
C 0.023731 1.048996 1.057745
C 0.003680 1.507838 1.438874
C 0.561019 0.999618 1.423434
C 0.466093 1.565939 0.944988
C 0.304026 1.195036 1.336368
C 0.201114 1.784983 1.781508
C 0.643777 1.307107 1.805951
C 0.835884 1.689666 1.248378
C 0.987081 1.061147 1.043965
C 1.082052 1.483924 1.547917
C 1.551683 0.983075 1.432544
C 1.496182 1.535969 1.080721
C 1.288453 1.202309 1.327233
C 1.242447 1.743106 1.755859
C 1.747520 1.304913 1.774565
C 1.795757 1.853134 1.301675
C 1.970301 0.915365 1.025306
C 2.055140 1.558130 1.458995
C 2.546240 0.977497 1.421529
C 2.425095 1.469775 0.950933
C 2.212010 1.242586 1.234344
C 2.309829 1.638736 1.774249
C 2.799394 1.184598 1.689636
C 2.731622 1.783703 1.318239
C 2.933263 1.050836 1.036132
C 2.956794 1.459359 1.552346
C 3.584207 0.963584 1.553363
C 3.577713 1.512588 0.922588
C 3.258485 1.227103 1.240845
C 3.255456 1.805669 1.766700
C 3.742430 1.312945 1.769194
C 3.751491 1.793012 1.300555
C 4.039313 1.054906 0.999356
C 4.025296 1.537147 1.462948
C 4.503016 1.044166 1.487754
C 4.433165 1.494145 0.966558
C 4.276779 1.191308 1.195795
C 4.178312 1.742466 1.766783
C 4.692750 1.228275 1.802127
C 4.748482 1.701759 1.215950
C 4.941543 0.963743 1.052362
C 4.925408 1.520126 1.487219
C 5.425416 0.985072 1.510378
C 5.424686 1.440562 0.992431
C 5.363078 1.216649 1.302300
C 5.276395 1.837939 1.697126
C 5.683029 1.192395 1.688249
C 5.741107 1.658204 1.199387
C 0.022036 1.977018 0.968248
C 0.001889 2.548348 1.472896
C 0.423545 1.977112 1.448300
C 0.447510 2.503350 1.048652
C 0.230067 2.157189 1.205294
C 0.191804 2.813484 1.787516
C 0.831904 2.220173 1.728477
C 0.790262 2.764380 1.177267
C 0.996830 1.939162 1.042077
C 0.940066 2.412086 1.476755
C 1.550606 1.926397 1.534855
C 1.541594 2.568690 0.979917
C 1.238773 2.256432 1.185902
C 1.119360 2.757254 1.765746
C 1.718540 2.157903 1.763768
C 1.821269 2.705966 1.237398
C 1.914624 2.083561 1.000526
C 2.015626 2.502623 1.519617
C 2.508014 1.968321 1.546294
C 2.562637 2.542400 0.995732
C 2.231014 2.287904 1.231783
C 2.256550 2.677342 1.721827
C 2.759509 2.305531 1.685996
C 2.767639 2.804090 1.277575
C 3.000545 2.105306 0.985019
C 2.997120 2.404256 1.431320
C 3.482390 1.940200 1.564006
C 3.384011 2.475956 0.967398
C 3.212166 2.193194 1.253346
C 3.288366 2.770583 1.723689
C 3.702338 2.331955 1.675133
C 3.688610 2.744035 1.146688
C 4.023143 1.928901 0.954341
C 3.999829 2.512408 1.458919
C 4.511068 2.049926 1.456002
C 4.446945 2.436615 1.041479
C 4.167379 2.240616 1.252401
C 4.226852 2.776188 1.809234
C 4.780400 2.300621 1.687381
C 4.823383 2.830335 1.218436
C 4.942343 1.987880 0.955948
C 5.076184 2.490202 1.586380
C 5.468678 2.028414 1.487320
C 5.534970 2.477525 1.054623
C 5.194699 2.187893 1.224514
C 5.164434 2.721350 1.777836
C 5.646939 2.173910 1.771698
C 5.714087 2.723695 1.172550
C 0.073109 2.937208 0.919544
C 0.072227 3.457384 1.426814
C 0.499000 2.889118 1.449255
C 0.486934 3.520904 0.966134
C 0.315941 3.324243 1.234043
C 0.271050 3.690386 1.734274
C 0.815767 3.289037 1.760762
C 0.811493 3.813113 1.253918
C 1.074669 2.959560 0.982811
C 1.011970 3.388251 1.529909
C 1.535863 3.097727 1.419635
C 1.473607 3.555973 0.950230
C 1.241141 3.285273 1.324358
C 1.204657 3.708416 1.811709
C 1.703640 3.257839 1.706381
C 1.772840 3.847013 1.241950
C 1.988263 2.993953 1.110225
C 2.024671 3.549164 1.466859
C 2.508155 2.993971 1.539728
C 2.515270 3.427379 1.080890
C 2.272448 3.151194 1.287162
C 2.309041 3.730655 1.659317
C 2.752953 3.141780 1.750516
C 2.785468 3.755894 1.136189
C 2.957403 2.997795 1.064925
C 3.081264 3.387488 1.508655
C 3.581151 3.056755 1.435980
C 3.519975 3.480041 1.015698
C 3.210783 3.208213 1.197745
C 3.277853 3.742088 1.731349
C 3.811614 3.304418 1.744376
C 3.768454 3.687682 1.292397
C 4.014680 2.977145 1.073883
C 3.991728 3.568844 1.504302
C 4.565739 3.041722 1.522384
C 4.519635 3.608623 0.975427
C 4.271273 3.160494 1.278983
C 4.287540 3.689623 1.695948
C 4.676294 3.244567 1.754203
C 4.827626 3.701684 1.321504
C 5.003841 3.121169 0.988533
C 4.938272 3.444389 1.455663
C 5.508324 2.911630 1.574524
C 5.467300 3.460999 1.060097
C 5.221175 3.205390 1.203779
C 5.376335 3.689930 1.741555
C 5.683297 3.307275 1.817966
C 5.689491 3.633906 1.287097
C 0.012259 4.027734 0.874480
C 0.029254 4.572472 1.448127
C 0.512850 4.010023 1.535586
C 0.446426 4.425793 1.047954
C 0.182041 4.348163 1.255328
C 0.290292 4.736863 1.746900
C 0.705968 4.189840 1.743968
C 0.682252 4.689669 1.232784
C 0.986187 3.972608 1.001886
C 0.950222 4.491228 1.522303
C 1.403314 3.997172 1.435705
C 1.482071 4.453327 0.886455
C 1.218440 4.282539 1.313471
C 1.245646 4.773913 1.847856
C 1.817897 4.245643 1.713834
C 1.783843 4.725768 1.221659
C 2.043537 4.070212 1.039694
C 2.098299 4.494996 1.485746
C 2.594470 3.939429 1.459454
C 2.462102 4.558030 0.987955
C 2.309868 4.294111 1.258663
C 2.268799 4.714866 1.680471
C 2.782253 4.283594 1.768119
C 2.775305 4.726912 1.147903
C 3.058378 4.063051 0.986493
C 3.036887 4.466934 1.482296
C 3.425729 3.997852 1.522429
C 3.431197 4.569059 0.982234
C 3.261002 4.150580 1.244239
C 3.254489 4.706295 1.648677
C 3.690365 4.236410 1.756350
C 3.748610 4.786044 1.282940
C 4.011050 3.980345 0.958069
C 3.937220 4.509911 1.536694
C 4.406250 3.976834 1.444276
C 4.533353 4.534068 0.929859
C 4.304407 4.312173 1.179393
C 4.325618 4.743471 1.741730
C 4.817581 4.243935 1.690947
C 4.725768 4.657270 1.279308
C 4.883484 3.975659 1.050810
C 5.075555 4.483056 1.529293
C 5.506189 4.041768 1.405375
C 5.468871 4.532210 0.879001
C 5.200104 4.310196 1.225227
C 5.271330 4.743412 1.692709
C 5.649421 4.276740 1.663471
C 5.712044 4.674246 1.195260
C 0.012285 5.076122 1.101828
C 0.109215 5.543626 1.432383
C 0.434911 5.008127 1.580070
C 0.460461 5.505780 0.928122
C 0.244154 5.250061 1.270937
C 0.316336 5.718982 1.751289
C 0.706020 5.264657 1.652404
C 0.671989 5.659416 1.220070
C 1.034764 4.971109 1.072585
C 0.952160 5.506570 1.477339
C 1.429549 5.028680 1.505991
C 1.441389 5.468428 0.912269
C 1.170959 5.350659 1.245726
C 1.286955 5.732991 1.800878
C 1.797231 5.230460 1.697077
C 1.725141 5.749627 1.237482
C 2.004791 4.980588 0.918931
C 1.967061 5.589559 1.481288
C 2.447653 4.953890 1.486539
C 2.550306 5.463916 1.027878
C 2.261856 5.223885 1.299713
C 2.345507 5.708536 1.711535
C 2.819349 5.218128 1.738311
C 2.797095 5.721210 1.306553
C 3.034703 5.062814 1.047258
C 3.097147 5.439129 1.577075
C 3.538228 5.008130 1.398569
C 3.500688 5.560653 0.959402
C 3.184019 5.246055 1.311149
C 3.212702 5.729654 1.705652
C 3.717651 5.164624 1.785436
C 3.830190 5.675068 1.180286
C 4.081088 5.045648 1.030625
C 3.935464 5.486090 1.583730
C 4.457454 4.974493 1.492577
C 4.476571 5.539592 0.976856
C 4.293990 5.222407 1.225943
C 4.185069 5.690858 1.687262
C 4.754259 5.251940 1.689077
C 4.803553 5.685660 1.218809
C 5.008567 5.031759 1.049526
C 5.037457 5.464318 1.504830
C 5.579694 4.951469 1.561995
C 5.403073 5.505587 1.009114
C 5.315275 5.244786 1.288653
C 5.254428 5.684380 1.686499
C 5.652054 5.323616 1.752274
C 5.711277 5.660598 1.275216
C 0.028361 0.026509 1.931262
C 0.013387 0.641849 2.581286
C 0.581729 0.021411 2.494613
C 0.415408 0.409117 1.943710
C 0.164685 0.295747 2.303867
C 0.249521 0.635610 2.685572
C 0.736934 0.322039 2.724482
C 0.724126 0.673860 2.197561
C 0.989462 0.004605 2.063110
C 0.917852 0.534073 2.495500
C 1.614445 0.034583 2.555221
C 1.552900 0.483189 2.024507
C 1.244242 0.229117 2.141103
C 1.305285 0.821562 2.712314
C 1.710632 0.270743 2.738192
C 1.801256 0.761718 2.192202
C 1.995110 0.112286 1.967301
C 1.960722 0.551628 2.426429
C 2.433517 0.078049 2.481378
C 2.395408 0.455448 2.028090
C 2.343877 0.202154 2.225713
C 2.236878 0.791580 2.726919
C 2.688562 0.251696 2.753237
C 2.726742 0.721244 2.240901
C 3.023254 0.042209 1.991423
C 3.059803 0.523246 2.496169
C 3.449066 0.034476 2.422047
C 3.508667 0.418767 2.008158
C 3.286557 0.296589 2.245110
C 3.228318 0.687003 2.777545
C 3.772097 0.259091 2.681139
C 3.738775 0.756327 2.277111
C 3.963090 0.087897 2.005190
C 4.013979 0.499978 2.561668
C 4.507864 0.048924 2.597890
C 4.530575 0.494713 1.929488
C 4.267594 0.315016 2.174750
C 4.198237 0.705966 2.764163
C 4.791405 0.258577 2.648665
C 4.813629 0.831603 2.217430
C 5.096296 0.044113 2.094974
C 5.019258 0.474441 2.600160
C 5.464655 0.068036 2.466675
C 5.454000 0.389616 2.017881
C 5.295302 0.308561 2.287987
C 5.261951 0.710243 2.809843
C 5.735506 0.328318 2.716229
C 5.697901 0.770702 2.166903
C 0.012029 0.930160 1.918881
C 0.043470 1.616812 2.496242
C 0.445876 1.012070 2.492884
C 0.487606 1.498169 2.091175
C 0.200261 1.269296 2.347819
C 0.246652 1.740216 2.826053
C 0.789740 1.221847 2.785953
C 0.736933 1.770250 2.353630
C 0.950748 1.037605 2.071649
C 0.991803 1.578574 2.495797
C 1.587585 1.060519 2.561117
C 1.454410 1.491042 2.058766
C 1.286638 1.153979 2.230022
C 1.172179 1.762521 2.739830
C 1.704770 1.298009 2.761252
C 1.759877 1.847390 2.230823
C 1.973775 1.075077 1.941929
C 1.946137 1.538128 2.452221
C 2.560840 0.969513 2.433659
C 2.531099 1.416157 2.053356
C 2.295971 1.290375 2.323807
C 2.240768 1.874698 2.757333
C 2.827522 1.257531 2.675560
C 2.772413 1.774358 2.160550
C 2.973843 0.947556 2.060949
C 3.088666 1.455022 2.460265
C 3.459018 0.936069 2.462355
C 3.556461 1.430865 2.007058
C 3.283075 1.203429 2.271349
C 3.186383 1.651303 2.707461
C 3.790695 1.253669 2.838874
C 3.776453 1.681367 2.256369
C 3.947295 0.938533 1.961825
C 4.013102 1.543826 2.460661
C 4.544261 1.067357 2.563306
C 4.516328 1.407579 2.063881
C 4.276289 1.213982 2.344327
C 4.255285 1.792096 2.787308
C 4.818568 1.246147 2.670490
C 4.709602 1.846907 2.289075
C 4.961672 0.936441 1.948446
C 5.104901 1.529797 2.426799
C 5.475301 0.903551 2.521877
C 5.478689 1.473732 1.990101
C 5.315837 1.325683 2.240847
C 5.297271 1.667169 2.848288
C 5.732944 1.292719 2.805743
C 5.647233 1.684369 2.268137
C 0.003752 1.892825 2.048848
C 0.030391 2.593819 2.421869
C 0.417085 2.029501 2.547398
C 0.414586 2.474045 1.949374
C 0.221373 2.291574 2.218755
C 0.288328 2.822073 2.801257
C 0.697551 2.162111 2.707174
C 0.803532 2.770624 2.149415
C 0.930705 2.015287 1.954955
C 0.903482 2.441120 2.549054
C 1.411611 1.986668 2.564313
C 1.446918 2.540044 2.023954
C 1.288950 2.242422 2.179565
C 1.270555 2.719589 2.790980
C 1.695180 2.194875 2.762115
C 1.696951 2.787680 2.268524
C 2.030284 2.112206 2.060422
C 2.024195 2.542360 2.474892
C 2.468382 1.925184 2.556336
C 2.546141 2.531705 1.979612
C 2.314388 2.301575 2.298977
C 2.261681 2.707907 2.688893
C 2.737288 2.257676 2.731235
C 2.854422 2.767216 2.236565
C 3.002187 2.019306 2.098112
C 2.941886 2.511073 2.572772
C 3.542167 1.972279 2.494216
C 3.504328 2.521978 2.070224
C 3.209525 2.196230 2.360758
C 3.197244 2.707316 2.691820
C 3.676774 2.310003 2.711199
C 3.814084 2.673933 2.166200
C 4.116913 2.033321 1.969677
C 3.960002 2.477099 2.395939
C 4.464285 1.930196 2.561007
C 4.547392 2.439946 1.913777
C 4.331528 2.266807 2.155907
C 4.322984 2.780119 2.810384
C 4.766258 2.223025 2.759953
C 4.749000 2.797003 2.271748
C 5.090280 1.976919 2.004838
C 4.945949 2.463162 2.488766
C 5.440688 1.971143 2.585191
C 5.548128 2.468027 2.009116
C 5.274457 2.267338 2.278254
C 5.208521 2.834083 2.732071
C 5.697656 2.342473 2.783531
C 5.690161 2.731218 2.207813
C 0.106205 2.973678 2.086615
C 0.018551 3.485207 2.472301
C 0.483013 2.979027 2.535301
C 0.547409 3.480690 1.975539
C 0.167551 3.233828 2.299374
C 0.164284 3.732770 2.724382
C 0.704166 3.178069 2.682752
C 0.696031 3.718398 2.288352
C 0.882829 3.035450 2.027454
C 0.981957 3.538341 2.489406
C 1.384452 2.987503 2.594921
C 1.533154 3.564727 2.014455
C 1.203528 3.235038 2.363426
C 1.198993 3.621304 2.753181
C 1.740300 3.251242 2.796690
C 1.828324 3.754171 2.308576
C 2.016483 2.901364 2.004820
C 2.089053 3.526230 2.439470
C 2.505291 3.041381 2.419383
C 2.625600 3.446373 1.976483
C 2.214271 3.183218 2.211900
C 2.216996 3.763318 2.840168
C 2.692885 3.303870 2.734399
C 2.723337 3.835236 2.196823
C 2.938157 3.088376 2.031518
C 2.995367 3.600546 2.516172
C 3.509444 3.099992 2.485282
C 3.472982 3.471286 1.960213
C 3.280897 3.157818 2.244076
C 3.368720 3.721364 2.755832
C 3.810555 3.308935 2.706115
C 3.815923 3.701202 2.312463
C 3.992059 3.070361 2.013036
C 4.070686 3.525378 2.463085
C 4.441345 2.975905 2.498648
C 4.518533 3.385598 2.012015
C 4.235983 3.255307 2.268070
C 4.322970 3.839775 2.731276
C 4.723919 3.305141 2.703002
C 4.787038 3.764101 2.188593
C 5.023846 2.930276 2.005889
C 4.943165 3.564563 2.479383
C 5.580024 2.915456 2.458869
C 5.449520 3.590148 2.044095
C 5.277710 3.224064 2.288644
C 5.194647 3.769572 2.704147
C 5.739528 3.174693 2.635929
C 5.688701 3.750217 2.232407
C 0.113098 4.023192 1.949255
C 0.067942 4.490292 2.539446
C 0.533471 4.001745 2.411555
C 0.395178 4.463138 2.031377
C 0.343571 4.249017 2.242318
C 0.216996 4.726538 2.752625
C 0.795211 4.239625 2.693362
C 0.730204 4.817642 2.263810
C 1.019352 3.913161 2.012487
C 0.913083 4.549998 2.513401
C 1.445070 3.950490 2.464321
C 1.468849 4.534346 1.948044
C 1.323481 4.254152 2.250456
C 1.186678 4.716602 2.710862
C 1.649334 4.235392 2.750962
C 1.822828 4.785256 2.275177
C 2.021249 3.992489 1.974311
C 1.927817 4.540046 2.520881
C 2.540762 4.011967 2.523902
C 2.497683 4.544968 2.120227
C 2.240742 4.322380 2.304651
C 2.221107 4.724064 2.702354
C 2.653581 4.257464 2.782065
C 2.779421 4.830235 2.252259
C 2.941435 3.992918 1.981312
C 2.975645 4.458680 2.550305
C 3.505560 4.092805 2.556123
C 3.394780 4.448716 2.063919
C 3.315083 4.221931 2.258794
C 3.304215 4.667331 2.761976
C 3.746304 4.335080 2.679710
C 3.742712 4.680095 2.191143
C 3.947144 3.930989 1.985593
C 3.954177 4.604312 2.500224
C 4.459842 4.096313 2.543924
C 4.519973 4.414378 1.944153
C 4.269790 4.324571 2.271600
C 4.241906 4.762942 2.811614
C 4.733604 4.226646 2.705607
C 4.783123 4.749329 2.208669
C 4.955812 4.029350 2.072598
C 4.968627 4.447066 2.456915
C 5.481423 4.064028 2.446114
C 5.586621 4.523351 1.997641
C 5.176248 4.200913 2.259153
C 5.249694 4.719633 2.830289
C 5.731161 4.302771 2.794812
C 5.655009 4.724805 2.214676
C 0.030899 5.072162 1.938794
C 0.015632 5.418572 2.435414
C 0.508235 4.972718 2.560147
C 0.433954 5.429403 2.000464
C 0.179839 5.282067 2.180153
C 0.262397 5.710677 2.714254
C 0.792644 5.295265 2.782112
C 0.783936 5.683800 2.184098
C 1.079728 5.040213 2.016909
C 1.064141 5.518467 2.463979
C 1.469219 5.048966 2.574178
C 1.403979 5.465029 2.049630
C 1.263703 5.290110 2.343144
C 1.183875 5.739170 2.772498
C 1.803675 5.149797 2.770613
C 1.829789 5.702959 2.240499
C 1.910611 5.041611 1.949047
C 2.027104 5.610078 2.468202
C 2.553472 4.903771 2.549869
C 2.540298 5.438048 1.983672
C 2.283960 5.242329 2.167065
C 2.344765 5.742368 2.719253
C 2.747954 5.184080 2.671067
C 2.684598 5.730580 2.284372
C 3.023217 5.000454 1.974428
C 2.959307 5.403954 2.527110
C 3.418605 5.087553 2.503577
C 3.501985 5.574001 2.014946
C 3.246147 5.231444 2.229597
C 3.163763 5.747522 2.688283
C 3.690665 5.258387 2.754212
C 3.849946 5.742336 2.189119
C 3.948310 4.923850 2.035905
C 3.998449 5.538682 2.470923
C 4.546303 4.923517 2.548118
C 4.493585 5.539811 1.926445
C 4.176857 5.292838 2.195887
C 4.310268 5.714936 2.819988
C 4.711011 5.358982 2.755903
C 4.663317 5.726458 2.312903
C 4.937345 5.002671 1.990242
C 5.078848 5.495621 2.525122
C 5.543366 4.990071 2.431665
C 5.390938 5.475653 1.953113
C 5.228101 5.245993 2.203000
C 5.305768 5.727547 2.635301
C 5.723061 5.310227 2.658319
C 5.681550 5.672468 2.173597
C 0.041847 0.085467 3.042903
C 0.055474 0.528186 3.395139
C 0.434240 0.026969 3.411392
C 0.542784 0.436689 2.980698
C 0.284734 0.256044 3.101937
C 0.173403 0.741374 3.695256
C 0.759825 0.187699 3.805217
C 0.733178 0.682475 3.301540
C 0.934532 0.006969 3.005447
C 0.980036 0.521120 3.561079
C 1.546306 0.011531 3.569907
C 1.491436 0.450122 2.922473
C 1.214337 0.246911 3.306212
C 1.212437 0.780710 3.686979
C 1.781188 0.225460 3.817607
C 1.823532 0.740200 3.218612
C 1.934888 0.004829 3.028511
C 1.914334 0.507879 3.569659
C 2.467252 0.062891 3.541950
C 2.498700 0.521774 3.055604
C 2.211623 0.211644 3.167402
C 2.162302 0.712344 3.696593
C 2.742891 0.345517 3.707743
C 2.775870 0.693117 3.286151
C 2.955707 0.041165 2.952079
C 3.055391 0.517314 3.396989
C 3.449675 0.020901 3.375690
C 3.489261 0.611105 3.007570
C 3.220800 0.213348 3.322782
C 3.235881 0.817909 3.781290
C 3.750019 0.136442 3.717908
C 3.725814 0.794069 3.188613
C 4.012151 0.092972 3.011528
C 4.031630 0.421613 3.562168
C 4.525262 0.005275 3.609523
C 4.432227 0.505157 3.004879
C 4.350746 0.168724 3.226852
C 4.316867 0.737082 3.783959
C 4.853959 0.233395 3.716722
C 4.765248 0.716701 3.361847
C 4.903237 0.024933 3.020128
C 5.048722 0.552552 3.442543
C 5.537405 0.107697 3.511898
C 5.508826 0.422831 2.991032
C 5.172280 0.217148 3.204373
C 5.209979 0.781331 3.752907
C 5.715773 0.313288 3.824535
C 5.703360 0.804504 3.268787
C 0.056310 0.951126 2.964873
C 0.090983 1.443568 3.492681
C 0.435518 1.028429 3.432658
C 0.491262 1.514120 3.035566
C 0.299223 1.199501 3.175099
C 0.241514 1.766890 3.846879
C 0.746353 1.277642 3.661387
C 0.706493 1.779537 3.223812
C 1.062903 1.044176 3.040989
C 0.969653 1.555622 3.534401
C 1.586322 1.035935 3.531744
C 1.587552 1.538819 3.055872
C 1.268825 1.359759 3.225166
C 1.308251 1.737764 3.810925
C 1.647960 1.220643 3.795535
C 1.691883 1.806866 3.369531
C 2.061415 0.993220 3.070937
C 1.926074 1.530266 3.476878
C 2.572700 0.951929 3.497815
C 2.472344 1.581991 2.929792
C 2.321788 1.227569 3.180508
C 2.338609 1.818973 3.715392
C 2.787212 1.313154 3.698811
C 2.834000 1.701464 3.251729
C 2.943721 1.022609 3.009818
C 3.100212 1.509084 3.441953
C 3.457495 1.107190 3.503912
C 3.543006 1.452829 2.998659
C 3.260227 1.333732 3.195063
C 3.266917 1.763307 3.810542
C 3.790938 1.298594 3.735272
C 3.802091 1.794143 3.198577
C 4.091370 1.030363 2.965505
C 3.940230 1.595889 3.502134
C 4.476324 1.003944 3.398060
C 4.513610 1.456513 3.074222
C 4.249935 1.234320 3.241680
C 4.200249 1.846485 3.711834
C 4.838536 1.289309 3.697142
C 4.817095 1.731331 3.196104
C 5.065606 0.963332 2.961224
C 5.040463 1.613529 3.480589
C 5.566391 1.056112 3.439673
C 5.565712 1.575914 2.939202
C 5.219389 1.284831 3.262021
C 5.186474 1.753357 3.811689
C 5.716501 1.290320 3.676435
C 5.746806 1.774440 3.337307
C 0.014687 2.109000 3.058568
C 0.020106 2.388201 3.483011
C 0.467284 2.061204 3.513582
C 0.471010 2.453055 3.065421
C 0.285905 2.138398 3.244763
C 0.222558 2.838360 3.743541
C 0.719028 2.234899 3.719683
C 0.811060 2.709808 3.247218
C 1.082983 2.013985 2.912628
C 1.024774 2.445582 3.583133
C 1.497457 2.065013 3.475657
C 1.433947 2.444097 3.032131
C 1.232280 2.201805 3.190653
C 1.209643 2.787622 3.750458
C 1.733574 2.226561 3.681089
C 1.776455 2.820390 3.285792
C 1.915586 2.097681 2.997341
C 2.049890 2.479526 3.467353
C 2.513076 2.050674 3.482196
C 2.424860 2.526463 2.930146
C 2.288212 2.172143 3.279409
C 2.179172 2.842303 3.754813
C 2.801635 2.246109 3.864354
C 2.752853 2.830055 3.213505
C 3.012618 1.968064 3.129580
C 2.993400 2.485800 3.469747
C 3.388625 1.954220 3.461782
C 3.590170 2.561744 2.966942
C 3.179023 2.257417 3.214517
C 3.243643 2.689788 3.770284
C 3.827389 2.238209 3.724222
C 3.713359 2.622485 3.308308
C 4.002022 1.981599 2.915058
C 3.940799 2.487020 3.512095
C 4.569492 1.954335 3.506237
C 4.533745 2.418005 2.952682
C 4.158442 2.201438 3.246753
C 4.168557 2.804183 3.812731
C 4.768270 2.243779 3.718206
C 4.787399 2.701227 3.281741
C 5.021437 1.937212 2.958475
C 4.972759 2.594125 3.591497
C 5.510754 1.979576 3.472558
C 5.427961 2.475165 3.053020
C 5.369289 2.218154 3.224465
C 5.280531 2.827133 3.826977
C 5.721101 2.288310 3.749710
C 5.630625 2.709030 3.231496
C 0.021079 2.915108 2.978355
C 0.010612 3.582873 3.541353
C 0.560927 2.956415 3.512698
C 0.434477 3.464241 2.978087
C 0.273219 3.286330 3.270398
C 0.239929 3.770618 3.837316
C 0.680101 3.227724 3.691936
C 0.724852 3.811279 3.283132
C 1.020236 2.992947 3.112468
C 0.963232 3.596425 3.434936
C 1.586729 3.017034 3.501897
C 1.534895 3.403264 3.033439
C 1.195353 3.256763 3.273375
C 1.222334 3.831172 3.710186
C 1.728271 3.291745 3.832676
C 1.809544 3.808205 3.316891
C 1.959700 3.078111 2.997781
C 2.016537 3.457198 3.485320
C 2.413093 2.930419 3.561303
C 2.431546 3.513595 2.913501
C 2.348900 3.233625 3.261023
C 2.200375 3.732322 3.686381
C 2.815079 3.176197 3.800900
C 2.822123 3.735864 3.259574
C 3.055960 2.959456 3.028863
C 2.978026 3.457688 3.540935
C 3.509689 2.951719 3.590233
C 3.483248 3.409630 3.045797
C 3.235087 3.226864 3.162271
C 3.171884 3.762001 3.737889
C 3.635941 3.269081 3.696908
C 3.717667 3.707858 3.285849
C 4.042165 3.002446 2.967315
C 3.941633 3.544551 3.541551
C 4.586917 3.053240 3.549661
C 4.452624 3.487703 2.935995
C 4.278986 3.169552 3.188730
C 4.368744 3.768301 3.720536
C 4.778473 3.200705 3.814875
C 4.740509 3.702075 3.231845
C 5.025199 3.037465 2.969207
C 5.078082 3.495843 3.501283
C 5.585442 2.968366 3.446374
C 5.479464 3.520501 3.062834
C 5.138789 3.197076 3.274772
C 5.311194 3.762216 3.810548
C 5.663589 3.235838 3.851833
C 5.659167 3.715396 3.297279
C 0.077993 4.003768 2.933830
C 0.034386 4.475451 3.519416
C 0.559780 4.031523 3.472991
C 0.524137 4.565831 3.031335
C 0.203389 4.236439 3.329076
C 0.311855 4.835158 3.817438
C 0.732680 4.269438 3.696005
C 0.783341 4.722992 3.153180
C 1.004774 3.906278 2.984853
C 0.965410 4.503613 3.504429
C 1.478444 4.061815 3.520216
C 1.526300 4.408304 3.016128
C 1.313474 4.291218 3.272955
C 1.233065 4.842458 3.739776
C 1.665753 4.249960 3.740439
C 1.654090 4.734083 3.204885
C 2.036392 4.014742 3.040794
C 2.012292 4.451499 3.423921
C 2.437352 3.932418 3.413716
C 2.500317 4.409270 3.056938
C 2.243830 4.234741 3.355751
C 2.287912 4.705637 3.800116
C 2.701852 4.153471 3.711198
C 2.778419 4.755235 3.338384
C 2.986860 4.011008 2.986506
C 2.978874 4.500876 3.457206
C 3.406643 4.000895 3.568381
C 3.519168 4.428733 2.955992
C 3.206548 4.141354 3.285725
C 3.227537 4.701993 3.741219
C 3.797335 4.280591 3.759314
C 3.684227 4.774392 3.355286
C 4.073426 4.011011 3.069937
C 3.946523 4.542632 3.538163
C 4.533987 3.927131 3.469976
C 4.530606 4.576867 2.923644
C 4.260846 4.279852 3.341488
C 4.190729 4.718291 3.700063
C 4.790991 4.169704 3.794446
C 4.702496 4.805897 3.224166
C 5.083298 4.020720 2.945999
C 4.967553 4.563371 3.414326
C 5.574300 4.001405 3.421169
C 5.460283 4.538930 3.050904
C 5.197490 4.292543 3.182611
C 5.207260 4.693777 3.766873
C 5.728743 4.270437 3.798605
C 5.737716 4.719105 3.208891
C 0.004046 5.069981 2.928171
C 0.083928 5.560651 3.446299
C 0.416822 5.044594 3.594453
C 0.497038 5.543691 3.047035
C 0.297501 5.300066 3.224099
C 0.294327 5.641798 3.689725
C 0.775119 5.162642 3.732732
C 0.784109 5.621366 3.268831
C 0.974241 5.073806 3.029947
C 0.952123 5.431487 3.566070
C 1.461763 5.023165 3.443607
C 1.457506 5.555598 2.939927
C 1.220291 5.254015 3.153059
C 1.238670 5.689490 3.802941
C 1.803410 5.256062 3.778592
C 1.759674 5.733342 3.170906
C 2.044083 5.111981 2.961053
C 2.029111 5.594545 3.523722
C 2.617015 5.003458 3.485557
C 2.444677 5.480318 2.894850
C 2.298408 5.317571 3.260492
C 2.231561 5.703127 3.816949
C 2.730270 5.321239 3.793191
C 2.732376 5.694394 3.180721
C 3.094333 4.956320 3.021252
C 3.063287 5.465824 3.424759
C 3.524835 5.116550 3.538537
C 3.453719 5.622665 2.994720
C 3.250450 5.321779 3.165352
C 3.226547 5.703165 3.654311
C 3.757920 5.224591 3.818311
C 3.793985 5.740769 3.338810
C 3.986648 4.970321 3.002215
C 3.964689 5.445132 3.471678
C 4.510451 5.019825 3.422702
C 4.392628 5.459320 2.962454
C 4.142811 5.287067 3.237468
C 4.227979 5.673037 3.778449
C 4.727182 5.315327 3.737847
C 4.785410 5.673306 3.301542
C 4.967720 5.015815 2.939976
C 4.953148 5.452448 3.508520
C 5.511379 4.993774 3.525883
C 5.426430 5.510562 3.001784
C 5.209567 5.310720 3.201173
C 5.281448 5.749429 3.735022
C 5.723518 5.221211 3.730393
C 5.693205 5.711812 3.135294
C 0.067573 0.141273 3.917684
C 0.019729 0.579364 4.381644
C 0.427481 0.091487 4.420060
C 0.573536 0.538387 3.961953
C 0.269767 0.257337 4.163941
C 0.244166 0.669610 4.680860
C 0.792156 0.182315 4.791338
C 0.710906 0.824486 4.219656
C 1.033103 0.065355 3.904913
C 0.992591 0.569868 4.554405
C 1.513495 0.103816 4.602291
C 1.608069 0.488341 3.921852
C 1.209526 0.198002 4.212752
C 1.272777 0.742735 4.799275
C 1.812670 0.276054 4.664780
C 1.804200 0.750574 4.211446
C 2.049516 0.076130 3.908405
C 2.048594 0.499263 4.548663
C 2.449016 0.068986 4.460932
C 2.518616 0.428210 3.933607
C 2.251651 0.238750 4.162628
C 2.232538 0.785301 4.701114
C 2.783738 0.373793 4.741469
C 2.741456 0.700101 4.353213
C 2.978769 0.061037 3.908669
C 2.926568 0.460790 4.469747
C 3.555015 0.052043 4.507861
C 3.450669 0.488553 3.936202
C 3.268687 0.256909 4.350431
C 3.254236 0.746492 4.674788
C 3.782689 0.212844 4.785674
C 3.789012 0.825519 4.192414
C 3.979621 0.099173 4.018799
C 3.933252 0.477995 4.550811
C 4.426112 0.076623 4.484268
C 4.540656 0.577151 4.053696
C 4.292795 0.286379 4.232020
C 4.256810 0.775183 4.848735
C 4.842681 0.248097 4.764935
C 4.743287 0.725735 4.316388
C 4.959853 0.038079 4.122407
C 4.902042 0.480932 4.481711
C 5.590195 0.061984 4.551806
C 5.453135 0.462592 3.985450
C 5.167846 0.249137 4.185688
C 5.317411 0.704951 4.689774
C 5.734995 0.137650 4.803365
C 5.655230 0.805283 4.281187
C 0.036608 1.015851 4.042233
C 0.062062 1.619437 4.435382
C 0.522524 1.013768 4.485482
C 0.559231 1.509196 3.959929
C 0.303746 1.246598 4.165082
C 0.246391 1.758940 4.699622
C 0.752223 1.197153 4.736148
C 0.796190 1.851853 4.185477
C 0.987472 1.046926 3.976179
C 1.072017 1.464344 4.528294
C 1.520181 1.011063 4.453882
C 1.453528 1.548693 4.088255
C 1.190441 1.182676 4.199765
C 1.271349 1.717120 4.825614
C 1.783775 1.262576 4.664815
C 1.742377 1.829584 4.300088
C 2.030883 0.992748 4.122301
C 2.046167 1.594697 4.541141
C 2.453943 0.967538 4.488393
C 2.434781 1.544855 3.967547
C 2.257160 1.187258 4.274144
C 2.285344 1.736419 4.735059
C 2.806667 1.354453 4.703613
C 2.683110 1.720649 4.187248
C 2.946414 1.082138 4.023648
C 3.075807 1.396523 4.512371
C 3.539463 0.958941 4.502975
C 3.514879 1.575696 4.081204
C 3.296283 1.190743 4.323497
C 3.193721 1.726588 4.778615
C 3.851709 1.273341 4.772979
C 3.724181 1.659145 4.301417
C 4.017560 1.092672 4.003405
C 4.069265 1.462572 4.531304
C 4.551303 0.922891 4.514223
C 4.557355 1.455875 3.938298
C 4.249437 1.279256 4.226176
C 4.274521 1.665286 4.781701
C 4.713599 1.300245 4.632167
C 4.737425 1.686137 4.290306
C 5.080734 1.023416 4.036763
C 5.044261 1.465746 4.496760
C 5.585929 1.078473 4.464224
C 5.453259 1.595043 4.031872
C 5.245083 1.206904 4.362529
C 5.289550 1.807817 4.780554
C 5.664988 1.215454 4.770706
C 5.678586 1.786727 4.268939
C 0.011894 2.049414 3.999853
C 0.065442 2.497928 4.437258
C 0.550966 2.020608 4.465036
C 0.482180 2.472092 3.926752
C 0.246564 2.180017 4.215200
C 0.276310 2.679457 4.700551
C 0.741110 2.252548 4.851708
C 0.866017 2.772241 4.221366
C 1.055211 1.972078 4.110843
C 1.027020 2.554674 4.519241
C 1.481781 2.012044 4.488593
C 1.595942 2.397972 4.051817
C 1.251664 2.357814 4.199726
C 1.321628 2.703598 4.706233
C 1.797685 2.201137 4.833345
C 1.756931 2.678906 4.302280
C 2.018129 2.019779 3.992165
C 2.022608 2.550981 4.525340
C 2.457728 1.914702 4.499436
C 2.459972 2.530209 4.040828
C 2.292083 2.283445 4.252879
C 2.281614 2.754079 4.700238
C 2.754146 2.236410 4.823278
C 2.796654 2.735564 4.169382
C 2.933106 1.995009 4.051645
C 3.012456 2.557253 4.466881
C 3.577501 1.991671 4.450193
C 3.485308 2.520812 3.942150
C 3.154230 2.236994 4.265159
C 3.258540 2.756991 4.749333
C 3.739568 2.348804 4.790749
C 3.833331 2.763730 4.262601
C 3.881999 1.999885 3.984527
C 3.997027 2.586502 4.511279
C 4.480374 1.935986 4.540701
C 4.469758 2.481593 4.002310
C 4.363214 2.295478 4.260222
C 4.225944 2.759419 4.745716
C 4.771687 2.301918 4.808262
C 4.682931 2.689201 4.177456
C 4.997823 2.051394 3.949101
C 5.027923 2.410982 4.514504
C 5.502601 2.082617 4.552317
C 5.532842 2.421683 4.008551
C 5.213494 2.258693 4.275496
C 5.311454 2.820369 4.761314
C 5.672588 2.307358 4.755404
C 5.673289 2.687025 4.277644
C 0.115395 2.921120 4.042923
C 0.033720 3.491876 4.393929
C 0.436739 3.060096 4.422264
C 0.471633 3.556709 4.060032
C 0.199758 3.189584 4.170053
C 0.277854 3.695668 4.788331
C 0.760005 3.260721 4.813174
C 0.693690 3.815133 4.217625
C 1.097153 3.058866 3.964345
C 0.976292 3.554772 4.421039
C 1.442409 2.994911 4.456630
C 1.421220 3.529336 3.985416
C 1.153201 3.203988 4.291860
C 1.215321 3.709114 4.790267
C 1.690721 3.234973 4.812678
C 1.836072 3.797933 4.246485
C 2.090167 3.016322 4.010762
C 1.998191 3.536172 4.425645
C 2.434980 3.020760 4.534614
C 2.485535 3.456481 3.929522
C 2.309637 3.301813 4.256368
C 2.231012 3.694947 4.810390
C 2.763370 3.314307 4.823238
C 2.685526 3.825388 4.243839
C 3.080240 2.917820 3.960519
C 3.013244 3.517983 4.515994
C 3.606614 2.971153 4.495522
C 3.468523 3.515681 3.894497
C 3.176790 3.212755 4.261854
C 3.249850 3.773164 4.671781
C 3.702760 3.185171 4.768618
C 3.637125 3.778116 4.243585
C 4.025175 3.045105 4.045808
C 4.101746 3.523868 4.518952
C 4.582912 3.022762 4.458652
C 4.494035 3.489665 3.922253
C 4.263718 3.168596 4.257721
C 4.310137 3.775742 4.692060
C 4.805384 3.327922 4.716362
C 4.771984 3.718707 4.215035
C 5.022983 2.893118 4.056239
C 5.054033 3.450207 4.562516
C 5.502255 2.958299 4.444538
C 5.471477 3.477927 3.948987
C 5.178950 3.160668 4.208718
C 5.223177 3.778053 4.823760
C 5.693040 3.265562 4.738673
C 5.743120 3.685822 4.367509
C 0.082275 4.115574 3.946990
C 0.052237 4.545080 4.601273
C 0.468242 4.046782 4.410317
C 0.515640 4.586815 3.991367
C 0.241414 4.222985 4.237291
C 0.267628 4.798580 4.692059
C 0.724900 4.212354 4.826594
C 0.710193 4.824574 4.197476
C 0.954045 4.029066 3.978843
C 0.986899 4.448718 4.438134
C 1.386419 3.963133 4.494053
C 1.445756 4.458828 4.067323
C 1.266095 4.192454 4.292330
C 1.237771 4.841667 4.743317
C 1.732972 4.202652 4.688429
C 1.732463 4.842600 4.263754
C 2.054186 4.097117 4.054700
C 2.058202 4.574923 4.500696
C 2.470782 4.086025 4.437739
C 2.412716 4.445811 4.014011
C 2.247577 4.300172 4.263914
C 2.242062 4.670839 4.778034
C 2.672220 4.313345 4.805211
C 2.819106 4.705514 4.258473
C 3.054687 3.999845 4.030004
C 3.004425 4.489558 4.452929
C 3.467027 3.997727 4.590821
C 3.475343 4.471252 3.946005
C 3.276786 4.390215 4.219351
C 3.290532 4.850377 4.815154
C 3.726137 4.211920 4.747000
C 3.674066 4.810874 4.304019
C 4.005274 4.030710 3.925125
C 4.066472 4.558094 4.522500
C 4.444080 4.104725 4.507240
C 4.439464 4.563528 3.988298
C 4.216854 4.264102 4.290865
C 4.316921 4.706572 4.728120
C 4.809316 4.185344 4.800096
C 4.687160 4.764555 4.273658
C 5.094804 3.984919 3.936206
C 4.932729 4.430969 4.478817
C 5.393712 4.020391 4.476788
C 5.455691 4.510716 4.028322
C 5.256205 4.253215 4.234824
C 5.253565 4.706289 4.824083
C 5.724061 4.202874 4.866813
C 5.654361 4.840149 4.231070
C 0.079834 5.022537 4.041537
C 0.045786 5.549087 4.476474
C 0.528577 4.968353 4.573792
C 0.531720 5.571982 3.961142
C 0.281113 5.177406 4.277440
C 0.173113 5.624589 4.750316
C 0.701559 5.165782 4.824011
C 0.831314 5.730732 4.226197
C 0.991414 4.975908 3.953480
C 1.003913 5.587993 4.482190
C 1.422452 5.039817 4.495250
C 1.559087 5.459459 4.033374
C 1.214489 5.303340 4.230177
C 1.167252 5.698709 4.806930
C 1.708580 5.243278 4.840532
C 1.765513 5.745676 4.271587
C 1.951232 5.027380 3.972450
C 2.045522 5.481899 4.486415
C 2.529168 4.879685 4.498752
C 2.521637 5.526184 4.046198
C 2.262168 5.220187 4.199607
C 2.202139 5.740851 4.677196
C 2.817840 5.220511 4.743764
C 2.673334 5.738769 4.254539
C 2.920717 4.953511 4.039987
C 3.009792 5.512764 4.464342
C 3.441818 5.004788 4.482915
C 3.557995 5.508052 3.913165
C 3.289549 5.223798 4.145693
C 3.175196 5.747407 4.700369
C 3.857268 5.229386 4.748241
C 3.738455 5.692608 4.351819
C 4.001026 4.992835 4.092346
C 3.999538 5.485062 4.523240
C 4.522779 5.017211 4.564425
C 4.451562 5.476095 3.999557
C 4.167381 5.241885 4.187435
C 4.202114 5.733659 4.685107
C 4.766000 5.210920 4.789517
C 4.641775 5.743719 4.181577
C 4.969050 4.915427 4.048527
C 4.979370 5.549188 4.425594
C 5.451095 5.051251 4.509951
C 5.565889 5.497271 3.988298
C 5.245315 5.192193 4.265062
C 5.131836 5.741555 4.742113
C 5.727001 5.277218 4.668838
C 5.615749 5.738437 4.134960
C 0.007755 0.014008 4.924025
C 0.007880 0.445147 5.565377
C 0.511892 0.034262 5.517207
C 0.540056 0.410305 4.995109
C 0.203792 0.277238 5.221071
C 0.231420 0.750839 5.743818
C 0.780603 0.160761 5.617505
C 0.664335 0.782458 5.268408
C 0.973562 0.038501 5.027089
C 1.076430 0.443511 5.477064
C 1.487493 0.012641 5.509513
C 1.530622 0.510376 4.934000
C 1.267348 0.218336 5.148192
C 1.210783 0.673088 5.689291
C 1.856332 0.175950 5.724040
C 1.690334 0.819737 5.263204
C 2.063420 0.057759 4.982348
C 2.054625 0.575164 5.545851
C 2.406412 0.011270 5.525968
C 2.486213 0.530460 5.035289
C 2.307315 0.270007 5.234813
C 2.241594 0.837769 5.696353
C 2.771375 0.309598 5.748767
C 2.731463 0.618548 5.264457
C 3.114996 0.009959 5.003283
C 3.019623 0.486721 5.480429
C 3.463407 0.031521 5.572349
C 3.470335 0.534785 5.122128
C 3.213832 0.315714 5.247672
C 3.227558 0.703492 5.674423
C 3.765977 0.237834 5.708584
C 3.698118 0.759584 5.228098
C 4.047408 0.088827 5.028667
C 3.974761 0.537722 5.529798
C 4.399382 0.072769 5.487760
C 4.586554 0.580449 4.988493
C 4.138097 0.314620 5.299443
C 4.186639 0.740876 5.729400
C 4.722523 0.198309 5.708146
C 4.790930 0.830042 5.259976
C 5.071857 0.039008 4.981600
C 4.944054 0.437360 5.499091
C 5.598941 0.082319 5.452959
C 5.556069 0.506333 4.911082
C 5.267824 0.210429 5.340556
C 5.339186 0.805879 5.683812
C 5.728803 0.131418 5.733298
C 5.709490 0.750774 5.356076
C 0.069734 1.046889 5.037417
C 0.028619 1.564926 5.532367
C 0.559495 0.968558 5.503393
C 0.468860 1.569296 5.009102
C 0.215734 1.212996 5.297010
C 0.262701 1.587938 5.726973
C 0.813469 1.171141 5.734918
C 0.695305 1.811813 5.233037
C 1.054726 0.983567 5.015077
C 1.048285 1.436312 5.544329
C 1.489528 1.062695 5.493506
C 1.535550 1.498837 4.982316
C 1.183270 1.182559 5.291501
C 1.337034 1.737164 5.668286
C 1.689590 1.223586 5.716256
C 1.749125 1.736221 5.155544
C 2.079925 0.935384 5.023481
C 1.925341 1.467468 5.502817
C 2.440371 1.041861 5.513060
C 2.496726 1.504273 4.920736
C 2.272964 1.246619 5.284425
C 2.312666 1.779931 5.739785
C 2.691675 1.123325 5.695309
C 2.696732 1.676858 5.160995
C 2.962673 0.995844 4.952527
C 2.950702 1.461692 5.454817
C 3.594830 0.992403 5.541887
C 3.381546 1.455784 4.936503
C 3.286820 1.299408 5.231346
C 3.342456 1.736072 5.733940
C 3.670197 1.261770 5.647513
C 3.785148 1.788589 5.293558
C 3.938450 0.973209 4.991647
C 3.894294 1.470919 5.435565
C 4.545136 0.980883 5.429042
C 4.547729 1.515174 5.072225
C 4.270732 1.244358 5.300638
C 4.377076 1.701138 5.657643
C 4.619877 1.225593 5.721870
C 4.789247 1.791700 5.327679
C 5.012695 1.007561 5.058093
C 5.038411 1.449303 5.567766
C 5.545415 1.035416 5.592217
C 5.462929 1.520394 4.999909
C 5.244626 1.301167 5.176393
C 5.153951 1.771783 5.711368
C 5.729584 1.357852 5.696882
C 5.716678 1.682525 5.301253
C 0.049817 1.873436 5.016857
C 0.052418 2.521070 5.406129
C 0.501673 1.991574 5.544000
C 0.550653 2.517553 4.967899
C 0.201588 2.208979 5.256568
C 0.236081 2.714082 5.682551
C 0.721698 2.250643 5.636075
C 0.727470 2.757502 5.315148
C 1.064627 1.997805 4.917573
C 0.927870 2.550504 5.537596
C 1.464850 1.933134 5.405074
C 1.534493 2.521364 5.063487
C 1.247806 2.244564 5.211925
C 1.265198 2.620297 5.680434
C 1.791870 2.321284 5.694304
C 1.724297 2.744601 5.352565
C 2.081142 1.916732 5.019186
C 2.043814 2.509072 5.487066
C 2.636922 1.986416 5.456817
C 2.459828 2.516047 4.978312
C 2.280971 2.259238 5.294037
C 2.237945 2.805926 5.748623
C 2.747866 2.184356 5.692560
C 2.703445 2.743657 5.322496
C 2.953887 1.902787 4.984282
C 2.997140 2.435836 5.505069
C 3.564100 1.999605 5.494460
C 3.469788 2.564605 4.985832
C 3.245876 2.211898 5.324941
C 3.220540 2.720398 5.601170
C 3.698106 2.143755 5.748027
C 3.726362 2.774442 5.249019
C 4.010978 1.927184 4.937786
C 4.082932 2.464187 5.525779
C 4.464825 1.964058 5.550661
C 4.540412 2.450426 4.996423
C 4.202900 2.178202 5.262994
C 4.175518 2.790749 5.691868
C 4.759051 2.133144 5.718734
C 4.704071 2.757497 5.344746
C 4.953503 2.005431 4.920825
C 5.011955 2.563240 5.517638
C 5.486113 1.941684 5.434754
C 5.457003 2.565882 5.037947
C 5.171281 2.295119 5.302478
C 5.248493 2.788557 5.718699
C 5.655788 2.195391 5.611343
C 5.697784 2.764851 5.140956
C 0.039478 3.021712 5.085340
C 0.040402 3.512770 5.480640
C 0.475132 3.018626 5.623708
C 0.452142 3.453008 5.092281
C 0.287845 3.203465 5.199896
C 0.189700 3.772273 5.660945
C 0.724447 3.254990 5.663665
C 0.825709 3.689435 5.316287
C 1.014314 2.999837 4.914802
C 1.061021 3.429928 5.470823
C 1.571060 2.992207 5.567193
C 1.492858 3.464623 4.970216
C 1.161206 3.331866 5.198196
C 1.160673 3.742012 5.623988
C 1.802089 3.283773 5.739930
C 1.745072 3.654604 5.262432
C 1.948093 2.912913 4.970205
C 2.079876 3.564875 5.516380
C 2.474446 2.992563 5.565111
C 2.471220 3.464184 4.920405
C 2.194887 3.227509 5.237299
C 2.248254 3.890004 5.709030
C 2.764421 3.264325 5.731891
C 2.700534 3.684382 5.171472
C 3.061939 2.992656 4.978992
C 3.045037 3.468929 5.559911
C 3.483648 2.890894 5.552958
C 3.463308 3.514989 4.964628
C 3.199215 3.274852 5.212450
C 3.260813 3.695890 5.740655
C 3.727723 3.252718 5.729771
C 3.690338 3.740723 5.206826
C 3.938128 3.037172 4.992424
C 3.933908 3.456309 5.509041
C 4.593667 2.981315 5.581190
C 4.460756 3.571008 4.952779
C 4.158930 3.236354 5.268728
C 4.221372 3.678063 5.731029
C 4.634605 3.241959 5.731032
C 4.685751 3.834483 5.189400
C 4.964685 3.017510 4.937077
C 4.941601 3.475977 5.531487
C 5.451109 2.978668 5.522395
C 5.446484 3.422785 4.965880
C 5.201791 3.293863 5.194869
C 5.256845 3.672074 5.749032
C 5.673361 3.160509 5.733196
C 5.746809 3.834812 5.258078
C 0.063434 4.000313 4.936720
C 0.002191 4.453625 5.592576
C 0.475670 4.046150 5.501020
C 0.439883 4.466588 5.069767
C 0.259721 4.237976 5.293296
C 0.242301 4.807408 5.664025
C 0.659609 4.169995 5.746158
C 0.726105 4.803787 5.195189
C 1.091284 3.966491 4.980637
C 0.917684 4.497582 5.541914
C 1.477547 3.932392 5.444483
C 1.428584 4.480723 5.082877
C 1.151110 4.228886 5.317302
C 1.147389 4.752118 5.732107
C 1.800113 4.302606 5.721688
C 1.781603 4.693681 5.303825
C 2.027799 4.000999 5.067915
C 2.025851 4.589988 5.576347
C 2.432128 3.920882 5.480917
C 2.497943 4.489544 5.054342
C 2.313841 4.176023 5.288523
C 2.348785 4.702840 5.748732
C 2.754185 4.263246 5.646884
C 2.686904 4.760394 5.192818
C 3.101422 3.983913 4.945841
C 2.966745 4.505706 5.466886
C 3.482191 4.001468 5.422731
C 3.453395 4.532776 4.985907
C 3.308966 4.319416 5.288431
C 3.213347 4.676829 5.693894
C 3.787054 4.153457 5.708971
C 3.677703 4.861836 5.246858
C 4.006550 3.983931 4.881450
C 3.969067 4.557887 5.538757
C 4.493301 4.049188 5.546635
C 4.474270 4.536696 5.097149
C 4.215471 4.178264 5.194898
C 4.202193 4.770681 5.691574
C 4.664071 4.296483 5.715089
C 4.728099 4.687907 5.232308
C 5.031931 3.955938 5.069915
C 5.026773 4.552542 5.502410
C 5.529190 4.013458 5.509112
C 5.584080 4.507809 5.091024
C 5.190536 4.329261 5.293865
C 5.157583 4.833131 5.740570
C 5.705149 4.221246 5.736405
C 5.699613 4.771020 5.107147
C 0.030221 4.964489 5.045458
C 0.093886 5.491784 5.620558
C 0.496790 4.988152 5.458171
C 0.546524 5.416345 5.011014
C 0.155397 5.209486 5.318659
C 0.357889 5.707801 5.729982
C 0.825872 5.236925 5.706335
C 0.770845 5.734792 5.124759
C 0.957153 4.971276 4.994065
C 1.070680 5.481338 5.575599
C 1.499464 4.919905 5.471484
C 1.559529 5.536854 5.001174
C 1.254106 5.310092 5.343389
C 1.138595 5.734959 5.618489
C 1.827609 5.282901 5.725396
C 1.811381 5.707836 5.130714
C 1.908601 5.007047 5.005998
C 2.077063 5.495273 5.508609
C 2.454543 4.934354 5.542977
C 2.521979 5.491352 4.949153
C 2.238083 5.239669 5.218129
C 2.382632 5.656419 5.666807
C 2.673772 5.305287 5.703856
C 2.829242 5.741015 5.163282
C 2.985173 5.073861 5.038005
C 3.019785 5.580065 5.503287
C 3.450555 4.989542 5.551308
C 3.393190 5.582939 4.970213
C 3.192707 5.214782 5.259692
C 3.284403 5.702909 5.736536
C 3.711168 5.194207 5.743458
C 3.732233 5.623507 5.222569
C 4.045674 4.993344 5.097016
C 4.006163 5.431312 5.449447
C 4.438235 5.047833 5.500705
C 4.489770 5.539218 4.960405
C 4.231868 5.273689 5.238264
C 4.203244 5.628166 5.681180
C 4.711881 5.180021 5.731717
C 4.711085 5.657568 5.239575
C 5.049441 4.992211 5.067205
C 5.065750 5.482862 5.401413
C 5.399470 4.960192 5.537349
C 5.430404 5.420826 4.976116
C 5.350882 5.215640 5.256076
C 5.266175 5.682446 5.696967
C 5.678070 5.355320 5.717851
C 5.667972 5.634048 5.226934
1728
Frame 7/10
C 0.170785 0.071229 0.109856
C 0.104765 0.562787 0.563330
C 0.457385 0.085947 0.634398
C 0.524422 0.613957 0.012790
C 0.126012 0.388352 0.286496
C 0.130844 0.805805 0.734190
C 0.750433 0.216458 0.869106
C 0.667499 0.769924 0.244611
C 0.885623 0.088918 0.113123
C 0.972480 0.403002 0.459835
C 1.511740 0.095293 0.470369
C 1.363443 0.449626 0.038734
C 1.217861 0.223079 0.215367
C 1.192909 0.699556 0.792220
C 1.789585 0.317980 0.779340
C 1.710597 0.750620 0.157612
C 2.042976 0.033646 0.080951
C 2.009356 0.492004 0.608707
C 2.480714 0.030683 0.497580
C 2.428730 0.578790 0.042714
C 2.206600 0.227284 0.298356
C 2.227292 0.660000 0.807930
C 2.783658 0.217447 0.709263
C 2.695270 0.669162 0.200904
C 3.047494 0.040692 0.014402
C 3.019991 0.547389 0.588629
C 3.538321 0.013790 0.409878
C 3.564123 0.473713 0.014411
C 3.281305 0.342797 0.119365
C 3.304705 0.784514 0.731380
C 3.795544 0.242487 0.676778
C 3.716911 0.890042 0.237935
C 4.164784 0.073212 0.014977
C 3.889236 0.528300 0.538164
C 4.546929 0.089783 0.466690
C 4.442481 0.547269 0.081208
C 4.273229 0.315395 0.200169
C 4.241627 0.794132 0.823519
C 4.769723 0.310359 0.750125
C 4.752096 0.676186 0.234814
C 4.860739 0.004439 0.047724
C 5.031686 0.464299 0.454390
C 5.432286 0.055055 0.590078
C 5.496149 0.384295 0.138927
C 5.177359 0.185243 0.324472
C 5.236412 0.692279 0.844064
C 5.682934 0.288816 0.783145
C 5.667955 0.716804 0.222903
C 0.003354 0.889326 0.023858
C 0.092555 1.489443 0.535204
C 0.441714 0.950768 0.375211
C 0.435623 1.472496 0.128017
C 0.214959 1.195668 0.209031
C 0.177533 1.802227 0.627637
C 0.725393 1.162050 0.758921
C 0.774749 1.741876 0.349953
C 1.030212 0.930065 0.008863
C 0.927363 1.468244 0.490671
C 1.600864 1.010266 0.596351
C 1.494187 1.496329 0.037028
C 1.191735 1.196558 0.328946
C 1.154201 1.728022 0.674873
C 1.645789 1.274275 0.741511
C 1.718736 1.774029 0.342014
C 1.924698 1.071434 0.025842
C 1.996891 1.531376 0.471289
C 2.439492 1.017284 0.593026
C 2.521989 1.536108 0.041486
C 2.323589 1.276504 0.222723
C 2.232435 1.679017 0.700631
C 2.753198 1.346578 0.804432
C 2.685963 1.852330 0.210860
C 3.030460 1.014192 0.092595
C 3.042006 1.550484 0.514302
C 3.488255 1.041057 0.464838
C 3.613865 1.364549 0.002801
C 3.288970 1.232726 0.131416
C 3.200314 1.823671 0.844994
C 3.736760 1.304633 0.671909
C 3.838637 1.683649 0.198882
C 3.995748 1.113302 0.048843
C 4.047038 1.492812 0.526910
C 4.529683 0.917467 0.577872
C 4.533275 1.488685 0.105877
C 4.362675 1.172414 0.256950
C 4.304360 1.666317 0.662796
C 4.751213 1.275392 0.705977
C 4.763523 1.743968 0.187693
C 4.928467 1.002767 0.014237
C 5.040199 1.404377 0.423497
C 5.473903 1.038062 0.528006
C 5.397163 1.482974 0.030269
C 5.273804 1.147418 0.200219
C 5.210556 1.741392 0.700206
C 5.727892 1.322307 0.774717
C 5.688877 1.775832 0.207827
C 0.103481 1.934658 0.091709
C 0.000873 2.587678 0.489871
C 0.455894 1.882067 0.509228
C 0.594920 2.558445 0.072554
C 0.208563 2.256038 0.245897
C 0.304418 2.639930 0.733944
C 0.671160 2.255492 0.718264
C 0.638194 2.837716 0.285959
C 1.087909 2.121546 0.028194
C 1.051424 2.550145 0.480762
C 1.469042 1.989831 0.499591
C 1.608200 2.611866 0.020697
C 1.207396 2.198071 0.302477
C 1.164303 2.692572 0.732694
C 1.694004 2.302912 0.759456
C 1.880768 2.776385 0.257979
C 2.039305 2.054158 0.050932
C 2.021885 2.515009 0.472869
C 2.612732 1.999060 0.581796
C 2.542348 2.420218 0.115318
C 2.283640 2.202702 0.310885
C 2.251539 2.829927 0.737325
C 2.656528 2.313519 0.770034
C 2.782103 2.774620 0.206481
C 3.086100 2.005731 0.077195
C 2.906276 2.458443 0.610089
C 3.549437 1.956818 0.590602
C 3.454357 2.588598 0.117850
C 3.328574 2.273332 0.280790
C 3.322095 2.775233 0.767314
C 3.683542 2.306482 0.827172
C 3.806636 2.713848 0.252359
C 4.100187 2.022720 0.036770
C 4.063027 2.534703 0.432661
C 4.429158 1.913920 0.522894
C 4.495873 2.678850 0.082531
C 4.314525 2.223417 0.184616
C 4.181162 2.701587 0.717582
C 4.781275 2.250749 0.800806
C 4.767640 2.628501 0.267187
C 4.933462 1.974343 0.002757
C 4.999377 2.522612 0.529836
C 5.458987 1.886334 0.554537
C 5.458307 2.520241 0.101026
C 5.173913 2.279607 0.261763
C 5.249336 2.672098 0.692347
C 5.734848 2.309826 0.602813
C 5.655675 2.712213 0.342791
C 0.103070 3.044791 0.071188
C 0.014680 3.671871 0.493202
C 0.577677 2.976550 0.536545
C 0.537470 3.493300 0.004185
C 0.214687 3.238119 0.355005
C 0.203587 3.779928 0.779295
C 0.844875 3.290065 0.727581
C 0.797046 3.841371 0.289840
C 0.903135 2.884849 0.043288
C 1.061260 3.477390 0.588195
C 1.529410 3.050120 0.355962
C 1.510931 3.593890 0.007596
C 1.138549 3.240691 0.211136
C 1.269712 3.724629 0.732912
C 1.811755 3.245990 0.631293
C 1.764772 3.768157 0.214664
C 1.926777 2.923207 0.007027
C 1.947833 3.520683 0.417074
C 2.604380 3.038195 0.526646
C 2.500682 3.578653 0.055846
C 2.194623 3.271609 0.329041
C 2.374536 3.796536 0.830408
C 2.759370 3.186576 0.772319
C 2.609076 3.664353 0.324617
C 3.026281 3.084687 0.032190
C 2.975164 3.382322 0.493827
C 3.496340 3.011103 0.472994
C 3.509570 3.405391 0.037969
C 3.183101 3.302910 0.260672
C 3.279321 3.837987 0.719563
C 3.851972 3.207941 0.768105
C 3.780779 3.765794 0.217796
C 4.000192 3.021909 0.016233
C 3.906136 3.508523 0.533906
C 4.528698 2.933216 0.575480
C 4.412663 3.511248 0.089848
C 4.250952 3.273344 0.134974
C 4.180613 3.724526 0.776083
C 4.729395 3.301242 0.778766
C 4.820127 3.709977 0.158953
C 4.996059 3.064906 0.041502
C 4.985002 3.430167 0.424343
C 5.538869 3.046544 0.444953
C 5.487991 3.403269 0.055630
C 5.180987 3.306082 0.196818
C 5.276171 3.773488 0.748983
C 5.748274 3.219767 0.700615
C 5.669057 3.668917 0.331178
C 0.040910 3.899469 0.093212
C 0.090644 4.515187 0.381629
C 0.520819 3.881090 0.385858
C 0.441317 4.473676 0.011481
C 0.249059 4.234141 0.166724
C 0.326751 4.694709 0.844740
C 0.659741 4.163753 0.742105
C 0.697210 4.669570 0.331001
C 1.049300 3.942285 0.133782
C 1.085804 4.449357 0.444759
C 1.487179 3.951071 0.592154
C 1.334155 4.488129 0.092326
C 1.336175 4.259208 0.286652
C 1.264931 4.732116 0.865058
C 1.736725 4.278376 0.854477
C 1.806856 4.734598 0.155226
C 2.101083 3.881508 0.066953
C 2.020980 4.500921 0.387002
C 2.424183 3.991044 0.424235
C 2.457262 4.447630 0.078926
C 2.161327 4.237471 0.200841
C 2.178587 4.870671 0.671394
C 2.704440 4.221531 0.727749
C 2.880230 4.683373 0.297759
C 3.039811 3.947688 0.106345
C 2.978498 4.490084 0.581708
C 3.562310 3.927000 0.461229
C 3.454933 4.662780 0.048114
C 3.261874 4.238559 0.168718
C 3.097857 4.766631 0.855057
C 3.829398 4.169490 0.672320
C 3.764069 4.825867 0.212765
C 3.856590 4.074446 0.012228
C 3.947951 4.448023 0.528512
C 4.489350 4.057376 0.423566
C 4.383950 4.412096 0.002688
C 4.269480 4.165850 0.207943
C 4.257311 4.906678 0.757090
C 4.785186 4.363659 0.752081
C 4.641311 4.715305 0.322856
C 5.037714 4.013639 0.043852
C 4.950794 4.528038 0.384067
C 5.584950 3.972617 0.477243
C 5.379801 4.502342 0.081476
C 5.187297 4.290239 0.253125
C 5.239552 4.724688 0.847884
C 5.691391 4.179099 0.751509
C 5.666507 4.808408 0.262407
C 0.052487 4.880499 0.121506
C 0.095291 5.581474 0.397248
C 0.528997 5.110230 0.482231
C 0.373966 5.480873 0.084423
C 0.164131 5.189153 0.369158
C 0.211993 5.745616 0.679741
C 0.830684 5.320383 0.711691
C 0.738406 5.645904 0.137014
C 0.915674 4.940444 0.065589
C 0.967863 5.610668 0.436356
C 1.515706 5.042184 0.571723
C 1.590191 5.525122 0.015813
C 1.187675 5.238404 0.246667
C 1.174114 5.737539 0.653367
C 1.713149 5.264269 0.817680
C 1.709789 5.674212 0.342243
C 1.934914 5.019097 0.143257
C 1.918765 5.424258 0.530300
C 2.420272 4.957331 0.517784
C 2.515864 5.443739 0.046586
C 2.181952 5.166962 0.192740
C 2.344724 5.666367 0.846226
C 2.786427 5.335828 0.785994
C 2.875854 5.737660 0.273468
C 2.934534 4.919513 0.095074
C 2.995378 5.436493 0.539379
C 3.487438 4.998215 0.577419
C 3.447907 5.452577 0.036137
C 3.279045 5.184858 0.159315
C 3.389039 5.713451 0.634205
C 3.869125 5.215452 0.762493
C 3.866213 5.675306 0.219921
C 4.045055 4.906998 0.031375
C 4.009331 5.418516 0.371498
C 4.427514 4.921594 0.519938
C 4.507234 5.407514 0.041568
C 4.351883 5.251826 0.336133
C 4.075227 5.748060 0.855718
C 4.771695 5.139173 0.773267
C 4.803874 5.649989 0.308517
C 4.915548 5.011462 0.030291
C 4.982829 5.424130 0.455751
C 5.404112 4.991667 0.485360
C 5.433273 5.386578 0.019664
C 5.298295 5.252426 0.356068
C 5.192782 5.633837 0.683292
C 5.734224 5.116330 0.781721
C 5.691523 5.674524 0.141402
C 0.016065 0.051797 0.814986
C 0.047896 0.371444 1.556399
C 0.373801 0.012839 1.528891
C 0.468646 0.412856 1.044197
C 0.312025 0.293459 1.289601
C 0.241865 0.633792 1.675583
C 0.680847 0.294098 1.774607
C 0.858317 0.799738 1.212325
C 1.067739 0.045225 0.964200
C 1.088298 0.387740 1.541366
C 1.636968 0.014627 1.531741
C 1.389747 0.444929 0.992989
C 1.262172 0.201952 1.236476
C 1.305652 0.784991 1.778073
C 1.812467 0.353349 1.802856
C 1.756328 0.687369 1.167118
C 1.898863 0.037145 0.967898
C 2.128471 0.489791 1.441871
C 2.596658 0.004165 1.471491
C 2.405056 0.446864 0.981072
C 2.177438 0.291607 1.225811
C 2.359498 0.719273 1.703368
C 2.739663 0.313805 1.765587
C 2.682103 0.776358 1.156757
C 3.034874 0.076385 0.874990
C 2.985586 0.460158 1.570934
C 3.551309 0.024161 1.541566
C 3.635793 0.474656 1.050154
C 3.158822 0.206595 1.304290
C 3.290535 0.802936 1.689380
C 3.778407 0.363632 1.705481
C 3.849172 0.805329 1.255997
C 4.062587 0.155716 1.000404
C 3.985174 0.399648 1.480078
C 4.471494 0.131923 1.512643
C 4.422984 0.520174 0.982714
C 4.264645 0.201498 1.275330
C 4.325943 0.831447 1.663002
C 4.650584 0.221136 1.745994
C 4.782408 0.642658 1.314883
C 5.001091 0.109352 1.000945
C 5.088393 0.408480 1.488720
C 5.513759 0.024441 1.524199
C 5.416311 0.464084 0.867996
C 5.377916 0.290654 1.186278
C 5.192520 0.693847 1.678963
C 5.716946 0.305401 1.806528
C 5.693734 0.821817 1.334987
C 0.028478 1.058795 1.069294
C 0.004416 1.509405 1.426648
C 0.573223 0.999541 1.408121
C 0.459311 1.579126 0.933986
C 0.314831 1.184043 1.353641
C 0.191337 1.791979 1.787809
C 0.622532 1.318528 1.817141
C 0.853061 1.677600 1.248053
C 0.984498 1.073376 1.052759
C 1.098463 1.480709 1.557501
C 1.562020 0.979690 1.419053
C 1.495419 1.543162 1.096865
C 1.296144 1.192770 1.342679
C 1.240936 1.741728 1.757031
C 1.747025 1.315895 1.779478
C 1.804908 1.873760 1.312011
C 1.964361 0.898438 1.030367
C 2.066168 1.569756 1.450794
C 2.555488 0.972996 1.405834
C 2.410114 1.463729 0.941119
C 2.204412 1.241103 1.231213
C 2.321795 1.616484 1.779098
C 2.809272 1.171517 1.677563
C 2.727947 1.790444 1.331887
C 2.919916 1.061003 1.043359
C 2.948152 1.451230 1.562815
C 3.601048 0.956301 1.564036
C 3.593255 1.515106 0.907105
C 3.260183 1.222524 1.239014
C 3.256547 1.816803 1.770040
C 3.740916 1.325534 1.773033
C 3.751789 1.801615 1.310666
C 4.047175 1.065887 0.999227
C 4.030355 1.544576 1.455538
C 4.503619 1.052999 1.485305
C 4.419799 1.492974 0.959870
C 4.282135 1.179570 1.184954
C 4.163974 1.740960 1.770140
C 4.681300 1.223930 1.812552
C 4.748179 1.692111 1.209140
C 4.929851 0.956491 1.062835
C 4.910489 1.524151 1.484663
C 5.410499 0.982086 1.512454
C 5.409623 1.428674 0.990917
C 5.385694 1.209978 1.312760
C 5.281674 1.855526 1.686551
C 5.669635 1.180874 1.675899
C 5.739329 1.639845 1.189265
C 0.026443 1.972422 0.961897
C 0.002266 2.558018 1.467476
C 0.408254 1.972534 1.437960
C 0.437012 2.504019 1.058383
C 0.226080 2.138627 1.196353
C 0.180165 2.826181 1.795019
C 0.848285 2.214208 1.724172
C 0.798314 2.767256 1.162721
C 0.996196 1.926994 1.050493
C 0.928079 2.394504 1.472106
C 1.560727 1.911676 1.541826
C 1.549913 2.582427 0.975901
C 1.236527 2.257718 1.173083
C 1.093232 2.758704 1.768895
C 1.712248 2.139483 1.766522
C 1.835523 2.697160 1.234877
C 1.897548 2.100274 1.000631
C 2.018751 2.503148 1.523540
C 2.509617 1.961985 1.555553
C 2.575164 2.550880 0.994878
C 2.227217 2.295485 1.228140
C 2.257860 2.662811 1.716192
C 2.761411 2.316637 1.673195
C 2.771167 2.814908 1.283090
C 3.000654 2.126368 0.982023
C 2.996544 2.385107 1.417585
C 3.478868 1.928240 1.576807
C 3.360814 2.471147 0.960878
C 3.204599 2.181833 1.254015
C 3.296039 2.774700 1.718426
C 3.692805 2.348346 1.660159
C 3.676332 2.742842 1.126026
C 4.027772 1.914681 0.945209
C 3.999795 2.514890 1.450703
C 4.513282 2.059911 1.447202
C 4.436334 2.423938 1.049774
C 4.150855 2.238740 1.252882
C 4.222222 2.781426 1.821081
C 4.786480 2.310745 1.674857
C 4.838060 2.846402 1.212123
C 4.930812 1.985456 0.947138
C 5.091420 2.488242 1.603656
C 5.462413 2.034096 1.484785
C 5.541964 2.473030 1.065547
C 5.183639 2.175471 1.219417
C 5.147321 2.715620 1.783403
C 5.626327 2.158692 1.776038
C 5.706904 2.718434 1.157060
C 0.087731 2.924649 0.903453
C 0.086673 3.448861 1.412176
C 0.498800 2.866941 1.439106
C 0.484321 3.525085 0.959361
C 0.329129 3.339091 1.230852
C 0.275260 3.678463 1.731128
C 0.828920 3.296844 1.762915
C 0.823792 3.825736 1.254701
C 1.089602 2.951472 0.979373
C 1.014364 3.365901 1.535890
C 1.543036 3.117272 1.403562
C 1.468328 3.567167 0.940276
C 1.239370 3.292327 1.339229
C 1.195589 3.700099 1.824050
C 1.694368 3.259407 1.697657
C 1.777408 3.866416 1.240340
C 1.985916 2.992744 1.132270
C 2.029605 3.558997 1.460230
C 2.509786 2.992765 1.547673
C 2.518324 3.412855 1.097068
C 2.276937 3.131433 1.294595
C 2.320849 3.726786 1.641180
C 2.753544 3.120136 1.750619
C 2.792562 3.757073 1.113427
C 2.948883 2.997354 1.077909
C 3.097517 3.364986 1.510386
C 3.597381 3.068106 1.423176
C 3.523970 3.476049 1.018838
C 3.202939 3.199855 1.187294
C 3.283424 3.740506 1.727618
C 3.823937 3.315301 1.743251
C 3.772145 3.675218 1.300877
C 4.017616 2.972574 1.088660
C 3.990074 3.582613 1.505162
C 4.578887 3.050067 1.526860
C 4.523562 3.630348 0.970513
C 4.275528 3.142593 1.284780
C 4.295048 3.677548 1.685138
C 4.661552 3.243481 1.755044
C 4.843151 3.692020 1.335805
C 5.004609 3.145403 0.986239
C 4.925926 3.433267 1.446795
C 5.509989 2.893956 1.589429
C 5.460760 3.453198 1.072116
C 5.215409 3.196468 1.194535
C 5.401602 3.677916 1.739866
C 5.669957 3.318730 1.831559
C 5.677389 3.610687 1.294517
C 0.014711 4.033281 0.849376
C 0.035105 4.586966 1.437752
C 0.515420 4.012028 1.542704
C 0.435711 4.410951 1.057544
C 0.168449 4.367796 1.256394
C 0.298350 4.734235 1.746280
C 0.697161 4.177808 1.742761
C 0.668702 4.677602 1.229340
C 0.983424 3.967129 1.002263
C 0.940266 4.489474 1.526764
C 1.383977 3.996606 1.422845
C 1.478485 4.443992 0.863746
C 1.212128 4.289047 1.326165
C 1.244776 4.778695 1.867428
C 1.831477 4.244771 1.706601
C 1.790612 4.720922 1.215990
C 2.052244 4.084255 1.047633
C 2.117959 4.493995 1.482895
C 2.613364 3.927315 1.451345
C 2.454523 4.569636 0.985546
C 2.321842 4.302933 1.260395
C 2.272559 4.707839 1.666566
C 2.788703 4.290313 1.771743
C 2.780366 4.722295 1.127483
C 3.070053 4.075662 0.983791
C 3.044264 4.460320 1.478755
C 3.410875 3.997422 1.526915
C 3.417437 4.582871 0.978681
C 3.263203 4.130696 1.243087
C 3.255387 4.697554 1.628412
C 3.678438 4.233692 1.757620
C 3.748332 4.793253 1.289528
C 4.013260 3.976414 0.949683
C 3.924664 4.511893 1.544032
C 4.387500 3.972201 1.433131
C 4.540024 4.540881 0.915831
C 4.315289 4.324608 1.165272
C 4.340742 4.742166 1.740076
C 4.831097 4.242722 1.679137
C 4.720921 4.638724 1.285170
C 4.860181 3.970791 1.060972
C 5.090666 4.479667 1.535152
C 5.507427 4.050122 1.386450
C 5.462645 4.538652 0.854801
C 5.190125 4.322236 1.220272
C 5.275596 4.742095 1.681251
C 5.629305 4.282088 1.646165
C 5.704453 4.659096 1.184312
C 0.014742 5.091346 1.122193
C 0.131058 5.552352 1.418860
C 0.421893 5.009752 1.596085
C 0.452553 5.506937 0.913746
C 0.242984 5.250073 1.275124
C 0.329603 5.712778 1.751547
C 0.697224 5.267589 1.632885
C 0.656387 5.641299 1.214084
C 1.041717 4.965331 1.087102
C 0.942592 5.507884 1.472807
C 1.415459 5.034416 1.507189
C 1.429666 5.462114 0.894722
C 1.155151 5.370791 1.244871
C 1.294346 5.729589 1.811053
C 1.806677 5.226552 1.686492
C 1.720169 5.749552 1.234978
C 2.005749 4.976705 0.902717
C 1.960474 5.607471 1.477545
C 2.437184 4.944669 1.483847
C 2.560367 5.456699 1.033453
C 2.264228 5.218662 1.309656
C 2.364609 5.700243 1.703842
C 2.833219 5.211753 1.735974
C 2.806515 5.715452 1.317863
C 3.041643 5.075376 1.056710
C 3.116576 5.426954 1.592490
C 3.545873 5.009755 1.378283
C 3.500825 5.572783 0.951283
C 3.170822 5.245266 1.323379
C 3.205242 5.725585 1.696782
C 3.711182 5.147549 1.792523
C 3.846228 5.660082 1.166343
C 4.097306 5.054778 1.036749
C 3.922557 5.483308 1.600476
C 4.448945 4.969392 1.491092
C 4.471885 5.547510 0.972227
C 4.302787 5.216889 1.221131
C 4.172083 5.679030 1.674715
C 4.755111 5.252328 1.676892
C 4.814264 5.672793 1.212571
C 5.010280 5.038111 1.059431
C 5.044948 5.457182 1.505795
C 5.595632 4.941762 1.574394
C 5.383688 5.506705 1.010937
C 5.328330 5.243743 1.296384
C 5.255313 5.671257 1.673799
C 5.632464 5.338339 1.752729
C 5.703532 5.642718 1.280260
C 0.034033 0.031810 1.917515
C 0.016064 0.670218 2.597544
C 0.598075 0.025693 2.493536
C 0.398490 0.390941 1.932451
C 0.147622 0.304896 2.314640
C 0.249425 0.612732 2.672686
C 0.734321 0.336447 2.719378
C 0.718951 0.658632 2.187073
C 0.987354 0.005526 2.075732
C 0.901423 0.540887 2.494599
C 1.637334 0.041500 2.566266
C 1.563480 0.479826 2.029408
C 1.243091 0.224940 2.119323
C 1.316342 0.835875 2.704777
C 1.702758 0.274892 2.735830
C 1.811507 0.764062 2.180643
C 1.994132 0.134743 1.960761
C 1.952866 0.561954 2.411715
C 2.420221 0.093659 2.477653
C 2.374489 0.446537 2.033708
C 2.362653 0.192585 2.220856
C 2.234253 0.799896 2.722303
C 2.676275 0.252035 2.753884
C 2.722090 0.715493 2.239081
C 3.027904 0.050651 1.989707
C 3.071764 0.527895 2.495403
C 3.438879 0.041371 2.406456
C 3.510400 0.402520 2.009790
C 3.293868 0.305906 2.244131
C 3.223982 0.674403 2.783054
C 3.776517 0.260909 2.667366
C 3.736530 0.757592 2.282534
C 3.955709 0.105477 2.006228
C 4.016775 0.499974 2.574001
C 4.509437 0.058709 2.617468
C 4.536690 0.493656 1.915385
C 4.271113 0.328020 2.159700
C 4.187884 0.697159 2.766996
C 4.799686 0.260293 2.628398
C 4.826355 0.847923 2.210916
C 5.115555 0.052936 2.113969
C 5.023109 0.469329 2.620191
C 5.457586 0.081643 2.460010
C 5.444800 0.367540 2.021458
C 5.304362 0.320274 2.295585
C 5.264341 0.702292 2.821811
C 5.732607 0.343982 2.709475
C 5.687482 0.774842 2.150284
C 0.014435 0.916192 1.902658
C 0.052164 1.640174 2.495490
C 0.435051 1.014484 2.491460
C 0.485127 1.497803 2.109410
C 0.190314 1.273155 2.367382
C 0.245983 1.738259 2.841264
C 0.797688 1.216216 2.793144
C 0.734320 1.774300 2.374356
C 0.940897 1.045126 2.085979
C 0.990163 1.594289 2.494956
C 1.605102 1.072623 2.573340
C 1.445292 1.489251 2.070519
C 1.293966 1.134774 2.226026
C 1.156615 1.765025 2.737796
C 1.695724 1.307610 2.763502
C 1.761852 1.866868 2.226988
C 1.968531 1.090093 1.930314
C 1.935365 1.545754 2.442665
C 2.573008 0.963415 2.420391
C 2.537319 1.399389 2.064027
C 2.305166 1.298450 2.338569
C 2.238922 1.899638 2.758800
C 2.843026 1.259037 2.660673
C 2.776896 1.779230 2.142659
C 2.968612 0.937068 2.073139
C 3.106399 1.446026 2.452318
C 3.450821 0.923283 2.454826
C 3.567753 1.417037 2.008470
C 3.289690 1.194114 2.275619
C 3.173659 1.631564 2.698954
C 3.798834 1.254403 2.856649
C 3.781744 1.667640 2.257643
C 3.936754 0.926240 1.954190
C 4.015722 1.552591 2.452793
C 4.553114 1.080828 2.575968
C 4.519594 1.389095 2.076658
C 4.281547 1.206778 2.363192
C 4.256341 1.800515 2.794770
C 4.832282 1.245377 2.654588
C 4.701523 1.866289 2.296890
C 4.954006 0.923729 1.938135
C 5.125882 1.535756 2.412159
C 5.470361 0.884261 2.526253
C 5.474426 1.468479 1.988121
C 5.329004 1.340820 2.239016
C 5.306725 1.650603 2.867946
C 5.729533 1.301263 2.816891
C 5.626679 1.671243 2.271764
C 0.004502 1.871390 2.058618
C 0.036469 2.612583 2.406242
C 0.400502 2.035401 2.556878
C 0.397503 2.468854 1.939249
C 0.215648 2.299888 2.212506
C 0.295993 2.836487 2.811509
C 0.687061 2.144533 2.698609
C 0.814239 2.774748 2.129298
C 0.916846 2.018345 1.945947
C 0.884178 2.429344 2.558864
C 1.393933 1.984002 2.577175
C 1.436302 2.548052 2.028745
C 1.296740 2.240906 2.165478
C 1.274666 2.713507 2.799177
C 1.684217 2.183850 2.764538
C 1.686341 2.795216 2.272228
C 2.036340 2.134648 2.072506
C 2.029034 2.550832 2.469871
C 2.462058 1.910221 2.567603
C 2.555370 2.538046 1.975535
C 2.327265 2.311889 2.308772
C 2.264018 2.699488 2.676671
C 2.734745 2.259211 2.727482
C 2.875306 2.770659 2.233878
C 3.002624 2.023168 2.117734
C 2.930263 2.513287 2.587327
C 3.550600 1.966735 2.493060
C 3.505194 2.526373 2.084269
C 3.201430 2.185476 2.382910
C 3.186693 2.698779 2.680184
C 3.662128 2.322004 2.703439
C 3.826900 2.658720 2.149440
C 4.140296 2.039985 1.963612
C 3.952002 2.472519 2.375127
C 4.457142 1.916235 2.573208
C 4.556871 2.427935 1.896533
C 4.347833 2.270169 2.137088
C 4.337580 2.786142 2.822460
C 4.769509 2.217630 2.761943
C 4.748801 2.806404 2.276098
C 5.108336 1.972302 2.005805
C 4.935139 2.455795 2.486519
C 5.428826 1.965371 2.602229
C 5.557754 2.461632 2.010939
C 5.279348 2.270805 2.283905
C 5.200226 2.850900 2.728486
C 5.687187 2.360968 2.790237
C 5.678194 2.727462 2.199375
C 0.127446 2.968414 2.103939
C 0.022261 3.482248 2.466762
C 0.479616 2.974833 2.542361
C 0.556890 3.476829 1.970646
C 0.151061 3.230594 2.309249
C 0.147141 3.729324 2.719258
C 0.695000 3.163683 2.669303
C 0.685237 3.712077 2.296022
C 0.859395 3.042540 2.032944
C 0.978348 3.546009 2.487287
C 1.361343 2.985003 2.613905
C 1.539785 3.577673 2.017346
C 1.194233 3.232046 2.386112
C 1.188792 3.595565 2.753817
C 1.738360 3.251490 2.806028
C 1.843989 3.755006 2.320291
C 2.019780 2.881636 2.005784
C 2.106863 3.531475 2.427364
C 2.506349 3.049658 2.403260
C 2.650720 3.435647 1.971779
C 2.207125 3.169861 2.204280
C 2.210396 3.765982 2.858202
C 2.681462 3.314644 2.731278
C 2.718004 3.852283 2.186188
C 2.925788 3.106051 2.037822
C 2.994440 3.620655 2.519406
C 3.511333 3.119990 2.482338
C 3.467578 3.465543 1.952256
C 3.287076 3.139381 2.242892
C 3.392464 3.715637 2.756999
C 3.822666 3.320723 2.697338
C 3.829108 3.691442 2.324955
C 3.990471 3.084433 2.015644
C 4.084823 3.530454 2.455702
C 4.429614 2.971086 2.498378
C 4.522240 3.362717 2.014418
C 4.233180 3.256368 2.271683
C 4.337564 3.857730 2.727532
C 4.718703 3.316169 2.693602
C 4.794446 3.766921 2.176312
C 5.028615 2.916331 2.007067
C 4.931798 3.577476 2.475260
C 5.596029 2.898547 2.450643
C 5.439424 3.608178 2.052914
C 5.283252 3.218877 2.296373
C 5.183576 3.773487 2.694977
C 5.737434 3.159632 2.613115
C 5.676441 3.750260 2.228889
C 0.135718 4.027830 1.939106
C 0.081530 4.488350 2.547336
C 0.540165 4.002094 2.393866
C 0.374213 4.455766 2.037653
C 0.362286 4.248820 2.240781
C 0.210396 4.721846 2.753150
C 0.804253 4.237550 2.682035
C 0.726245 4.831171 2.266571
C 1.023223 3.895793 2.014984
C 0.895700 4.559998 2.516081
C 1.434084 3.940588 2.457185
C 1.462619 4.541215 1.937652
C 1.338177 4.254982 2.250547
C 1.174014 4.709923 2.703034
C 1.629201 4.232471 2.751154
C 1.837394 4.792307 2.280213
C 2.025499 3.990987 1.969174
C 1.913381 4.548055 2.525057
C 2.548914 4.014361 2.528683
C 2.497220 4.553962 2.144273
C 2.238890 4.336856 2.315581
C 2.215328 4.718877 2.692825
C 2.634297 4.258957 2.788479
C 2.785306 4.846282 2.252711
C 2.929723 3.991501 1.977574
C 2.970773 4.450416 2.560366
C 3.506672 4.111366 2.567348
C 3.373736 4.438459 2.076703
C 3.328100 4.216318 2.260553
C 3.315058 4.650797 2.764371
C 3.745565 4.352096 2.665652
C 3.741255 4.666114 2.179371
C 3.936573 3.917186 1.982711
C 3.945012 4.625174 2.500268
C 4.451810 4.115576 2.552709
C 4.523967 4.397254 1.932984
C 4.273748 4.339485 2.275920
C 4.240287 4.765531 2.823937
C 4.730325 4.221975 2.696728
C 4.789748 4.749195 2.200403
C 4.946974 4.035221 2.087117
C 4.962353 4.436480 2.448298
C 5.477708 4.076834 2.435336
C 5.603945 4.528022 1.997169
C 5.161497 4.191095 2.260984
C 5.249633 4.713559 2.846347
C 5.727393 4.313325 2.803775
C 5.636011 4.719766 2.207611
C 0.037078 5.086594 1.926553
C 0.018759 5.402286 2.422497
C 0.509882 4.967261 2.572176
C 0.420745 5.415284 2.000557
C 0.165807 5.288481 2.166184
C 0.264876 5.702812 2.707105
C 0.801173 5.304318 2.788535
C 0.790723 5.670560 2.170918
C 1.095673 5.048256 2.020291
C 1.076969 5.522161 2.456775
C 1.463063 5.058759 2.589014
C 1.384775 5.458035 2.059556
C 1.266443 5.298132 2.361773
C 1.170650 5.737003 2.776998
C 1.814410 5.129756 2.774736
C 1.845747 5.693551 2.238599
C 1.892734 5.049933 1.938856
C 2.032525 5.632094 2.461843
C 2.564167 4.884525 2.559843
C 2.548358 5.425658 1.980407
C 2.290752 5.240795 2.150478
C 2.363719 5.740841 2.713104
C 2.747545 5.170896 2.655281
C 2.671517 5.726696 2.291247
C 3.027860 5.000545 1.969313
C 2.951169 5.384745 2.532532
C 3.402326 5.105063 2.504292
C 3.502382 5.588801 2.017936
C 3.245377 5.227733 2.225517
C 3.146516 5.747026 2.675939
C 3.678798 5.260065 2.755055
C 3.869935 5.740803 2.176942
C 3.937972 4.908621 2.043086
C 3.998139 5.546418 2.465108
C 4.555563 4.908220 2.557741
C 4.492301 5.547773 1.911734
C 4.162229 5.301406 2.185065
C 4.322322 5.707923 2.833986
C 4.703213 5.380778 2.757083
C 4.645981 5.721749 2.325484
C 4.924814 5.003205 1.988290
C 5.094618 5.494745 2.530146
C 5.552039 4.988085 2.417998
C 5.369125 5.470784 1.943736
C 5.223721 5.245191 2.193600
C 5.316921 5.723056 2.612362
C 5.717673 5.322272 2.639982
C 5.667860 5.656962 2.158316
C 0.050217 0.102561 3.051483
C 0.066568 0.533823 3.374166
C 0.421088 0.032363 3.393671
C 0.551341 0.424027 2.976838
C 0.291681 0.257253 3.072324
C 0.158083 0.739648 3.684307
C 0.761790 0.175239 3.816261
C 0.729814 0.668970 3.311847
C 0.921439 0.008363 3.006536
C 0.976043 0.525345 3.573295
C 1.555568 0.013837 3.583888
C 1.489723 0.440147 2.906968
C 1.207204 0.246293 3.317454
C 1.204925 0.786852 3.674375
C 1.787425 0.220552 3.831128
C 1.838238 0.738240 3.212334
C 1.921865 0.005795 3.034213
C 1.897200 0.509455 3.583590
C 2.460702 0.075469 3.550340
C 2.498440 0.526129 3.066725
C 2.203947 0.203973 3.150883
C 2.144762 0.704813 3.685912
C 2.741469 0.364620 3.699292
C 2.781044 0.681741 3.293381
C 2.946849 0.049398 2.942495
C 3.066470 0.520777 3.376387
C 3.439610 0.025081 3.350828
C 3.487114 0.633326 3.009084
C 3.214960 0.206018 3.337338
C 3.233057 0.831491 3.787547
C 3.750023 0.113730 3.711490
C 3.720976 0.802883 3.176335
C 4.014581 0.111566 3.013833
C 4.037956 0.405935 3.574601
C 4.530315 0.006330 3.631427
C 4.418672 0.506189 3.005855
C 4.370895 0.152469 3.222222
C 4.330240 0.734499 3.790750
C 4.874751 0.230074 3.710066
C 4.768298 0.710041 3.384217
C 4.883885 0.029920 3.024153
C 5.058466 0.563063 3.431051
C 5.544885 0.129237 3.514277
C 5.510592 0.407397 2.989238
C 5.156736 0.210577 3.195248
C 5.201975 0.787597 3.753488
C 5.708928 0.325945 3.839442
C 5.694032 0.815405 3.272545
C 0.067573 0.941352 2.957848
C 0.109180 1.432281 3.491217
C 0.422621 1.034115 3.419189
C 0.489514 1.516944 3.042679
C 0.309068 1.189401 3.160119
C 0.239817 1.770268 3.866255
C 0.745623 1.283170 3.643665
C 0.697792 1.785445 3.218575
C 1.075484 1.053011 3.049187
C 0.963584 1.566746 3.541281
C 1.603586 1.043122 3.538092
C 1.605062 1.546582 3.067047
C 1.272590 1.381711 3.220199
C 1.319901 1.735317 3.823110
C 1.627552 1.214772 3.804642
C 1.680259 1.818239 3.393437
C 2.073698 0.991864 3.085124
C 1.911289 1.536320 3.472253
C 2.587240 0.942315 3.497378
C 2.466813 1.598390 2.915751
C 2.336145 1.223083 3.166610
C 2.356331 1.832767 3.708471
C 2.794654 1.325785 3.688573
C 2.850800 1.691757 3.252074
C 2.932465 1.027131 3.011782
C 3.120255 1.510901 3.430344
C 3.448994 1.128628 3.504694
C 3.551607 1.443395 2.998390
C 3.262273 1.350478 3.184075
C 3.270300 1.765968 3.822650
C 3.799126 1.308312 3.732327
C 3.812509 1.802972 3.188292
C 4.109644 1.036436 2.958606
C 3.928276 1.615067 3.502561
C 4.471589 1.004733 3.377671
C 4.516332 1.447816 3.089066
C 4.249922 1.231184 3.240016
C 4.190299 1.865782 3.704201
C 4.856243 1.297170 3.686571
C 4.830514 1.727597 3.185325
C 5.078727 0.955998 2.953469
C 5.048556 1.636235 3.476707
C 5.579669 1.067335 3.427607
C 5.578854 1.591097 2.927042
C 5.213267 1.291797 3.264425
C 5.173769 1.754028 3.824027
C 5.709801 1.298385 3.661722
C 5.746167 1.779328 3.354769
C 0.017624 2.130800 3.070281
C 0.024127 2.365842 3.479613
C 0.460741 2.073444 3.516298
C 0.465212 2.443666 3.078505
C 0.293086 2.116077 3.243715
C 0.217070 2.856033 3.742249
C 0.712833 2.231879 3.713620
C 0.823272 2.701769 3.246662
C 1.099580 2.016782 2.895153
C 1.029729 2.434698 3.599760
C 1.496948 2.078016 3.470788
C 1.420737 2.432916 3.038557
C 1.228736 2.192167 3.178784
C 1.201572 2.795147 3.750550
C 1.730289 2.221873 3.667307
C 1.781745 2.834468 3.292950
C 1.898703 2.117217 2.996809
C 2.059868 2.475431 3.460823
C 2.515691 2.060808 3.478635
C 2.409832 2.531756 2.916175
C 2.295855 2.156572 3.285291
C 2.165007 2.860763 3.755775
C 2.811962 2.245331 3.887225
C 2.753424 2.846066 3.206206
C 3.015141 1.961677 3.155496
C 2.992080 2.482960 3.463696
C 3.366350 1.945064 3.454138
C 3.608204 2.574092 2.960330
C 3.164827 2.258900 3.207420
C 3.242371 2.677746 3.774341
C 3.842867 2.235851 3.719066
C 3.706031 2.596982 3.319969
C 4.002426 1.977919 2.898070
C 3.928959 2.484424 3.514514
C 4.583390 1.945202 3.507484
C 4.540494 2.401606 2.943218
C 4.140131 2.191725 3.246104
C 4.152268 2.815020 3.825277
C 4.771924 2.242535 3.711848
C 4.794878 2.691473 3.288089
C 5.025724 1.924655 2.950170
C 4.967311 2.612950 3.609797
C 5.512905 1.975491 3.467070
C 5.413553 2.470198 3.063624
C 5.393147 2.211784 3.219358
C 5.286638 2.842559 3.842372
C 5.715321 2.295972 3.749652
C 5.606751 2.700836 3.227795
C 0.025295 2.898129 2.974026
C 0.012734 3.599447 3.549624
C 0.573112 2.947698 3.515238
C 0.421372 3.457089 2.973705
C 0.277862 3.293596 3.274478
C 0.237915 3.774742 3.854780
C 0.666121 3.223269 3.680323
C 0.719823 3.823535 3.289758
C 1.024284 2.991536 3.134961
C 0.955878 3.615711 3.421923
C 1.604075 3.020441 3.502276
C 1.541874 3.383917 3.040126
C 1.184424 3.258116 3.278050
C 1.216800 3.847407 3.702224
C 1.723926 3.300095 3.849211
C 1.821452 3.819846 3.330269
C 1.951640 3.093734 2.997337
C 2.019845 3.448637 3.482384
C 2.395711 2.916503 3.573563
C 2.417855 3.516314 2.896201
C 2.368680 3.230350 3.263227
C 2.190450 3.728787 3.673657
C 2.828095 3.161437 3.811080
C 2.836548 3.733036 3.261488
C 3.067152 2.951347 3.034636
C 2.973631 3.449225 3.549122
C 3.511627 2.942062 3.608279
C 3.479898 3.391556 3.054957
C 3.232104 3.222236 3.144725
C 3.156261 3.764401 3.735467
C 3.613130 3.272897 3.686290
C 3.711201 3.699429 3.293019
C 4.050598 3.002935 2.960778
C 3.929960 3.553461 3.549861
C 4.604300 3.063888 3.559593
C 4.443149 3.485243 2.923194
C 4.284783 3.153463 3.176476
C 4.392493 3.771961 3.714644
C 4.784167 3.190846 3.827850
C 4.738611 3.692490 3.228214
C 5.030239 3.044958 2.963048
C 5.093699 3.495011 3.501540
C 5.602530 2.962039 3.435649
C 5.475356 3.524601 3.075401
C 5.116547 3.186491 3.279726
C 5.323432 3.764659 3.822657
C 5.646307 3.233006 3.872199
C 5.641000 3.708475 3.306735
C 0.093591 4.004521 2.920596
C 0.041263 4.470541 3.523299
C 0.571736 4.037827 3.467589
C 0.528965 4.578997 3.037602
C 0.194066 4.233727 3.344892
C 0.324226 4.852190 3.830926
C 0.729216 4.273326 3.685206
C 0.790010 4.717591 3.133816
C 1.005729 3.887534 2.981824
C 0.958492 4.504335 3.505314
C 1.474133 4.074178 3.524259
C 1.531560 4.389965 3.019354
C 1.326169 4.299462 3.277546
C 1.229677 4.860950 3.737731
C 1.648904 4.249952 3.738526
C 1.634908 4.730899 3.195862
C 2.043671 4.017691 3.048953
C 2.014751 4.441799 3.408706
C 2.424822 3.918901 3.396459
C 2.500380 4.391124 3.068326
C 2.242596 4.231689 3.376901
C 2.295494 4.696765 3.810139
C 2.692222 4.134165 3.703438
C 2.784103 4.756282 3.356061
C 2.984232 4.013210 2.983807
C 2.974649 4.501052 3.448648
C 3.387972 4.001074 3.582057
C 3.523002 4.414479 2.947191
C 3.197857 4.119625 3.292869
C 3.223044 4.692391 3.739463
C 3.806802 4.286709 3.761177
C 3.671072 4.779270 3.376344
C 4.088112 4.013213 3.083925
C 3.935827 4.551159 3.545796
C 4.540785 3.912557 3.463971
C 4.536728 4.592240 2.908373
C 4.263015 4.285822 3.359785
C 4.178874 4.711949 3.690075
C 4.799189 4.153645 3.803336
C 4.692995 4.817077 3.219000
C 5.099957 4.024864 2.935199
C 4.961063 4.576046 3.397191
C 5.589160 4.001686 3.405402
C 5.452340 4.546716 3.061085
C 5.186988 4.301051 3.169133
C 5.198711 4.682533 3.770248
C 5.724491 4.274525 3.808326
C 5.735259 4.712926 3.200669
C 0.004855 5.083977 2.913806
C 0.100714 5.572781 3.435559
C 0.400186 5.053513 3.613344
C 0.496446 5.552429 3.056442
C 0.307002 5.310079 3.218919
C 0.303192 5.620158 3.677670
C 0.780143 5.145171 3.729279
C 0.790931 5.595639 3.272597
C 0.969089 5.088567 3.035936
C 0.942547 5.417785 3.579284
C 1.454116 5.027798 3.432328
C 1.449007 5.566718 2.927913
C 1.214349 5.254818 3.133671
C 1.236405 5.677388 3.813529
C 1.814092 5.257275 3.784310
C 1.761609 5.730011 3.155087
C 2.052900 5.134377 2.953263
C 2.034933 5.613454 3.528466
C 2.640418 5.004150 3.482668
C 2.433613 5.476381 2.873820
C 2.308090 5.331086 3.262590
C 2.227874 5.693752 3.830339
C 2.726323 5.335486 3.801830
C 2.728851 5.683273 3.166865
C 3.113199 4.947584 3.025502
C 3.075944 5.458989 3.409711
C 3.529802 5.139860 3.546244
C 3.444463 5.647198 2.993664
C 3.250540 5.336135 3.148422
C 3.221856 5.693799 3.635174
C 3.759504 5.219509 3.831974
C 3.802782 5.738923 3.356573
C 3.983978 4.964385 3.002658
C 3.957626 5.434159 3.466014
C 4.512541 5.023790 3.407242
C 4.371153 5.451184 2.954944
C 4.121373 5.294480 3.234961
C 4.223575 5.657645 3.784139
C 4.722619 5.328392 3.735416
C 4.792493 5.657967 3.311851
C 4.961264 5.018978 2.927971
C 4.943778 5.442938 3.510224
C 5.513654 4.992529 3.531059
C 5.411716 5.512674 3.002141
C 5.201481 5.322864 3.191408
C 5.287737 5.749315 3.732026
C 5.718222 5.215453 3.726472
C 5.681846 5.704175 3.112352
C 0.081088 0.169527 3.901221
C 0.023675 0.595236 4.357973
C 0.412977 0.109784 4.404072
C 0.588244 0.546064 3.954343
C 0.273721 0.258804 4.146729
C 0.242999 0.653532 4.667032
C 0.800587 0.168778 4.799605
C 0.703087 0.839383 4.213588
C 1.039724 0.078426 3.885896
C 0.991109 0.583841 4.565286
C 1.516193 0.124579 4.622749
C 1.629682 0.486009 3.906223
C 1.201432 0.187602 4.205303
C 1.277333 0.741281 4.809130
C 1.825204 0.281265 4.647736
C 1.815040 0.750689 4.203736
C 2.059419 0.091356 3.890085
C 2.058312 0.499116 4.558396
C 2.438819 0.082784 4.453118
C 2.522339 0.413852 3.920328
C 2.251981 0.236499 4.145154
C 2.229046 0.792361 4.691336
C 2.790486 0.398552 4.739762
C 2.739747 0.690121 4.373855
C 2.974523 0.073244 3.890403
C 2.911881 0.452948 4.463696
C 3.566019 0.062451 4.509433
C 3.440803 0.486263 3.923442
C 3.272424 0.258291 4.370517
C 3.255084 0.745791 4.659746
C 3.789227 0.205413 4.792808
C 3.796814 0.840623 4.180897
C 3.975545 0.119008 4.022558
C 3.919902 0.473594 4.560974
C 4.411335 0.091947 4.481121
C 4.548787 0.592581 4.064436
C 4.301354 0.293655 4.228424
C 4.258172 0.780220 4.868481
C 4.861217 0.247716 4.767922
C 4.741945 0.720881 4.329666
C 4.951824 0.045695 4.146889
C 4.882451 0.477119 4.478053
C 5.608234 0.074380 4.562167
C 5.443762 0.455110 3.982540
C 5.151416 0.248965 4.172826
C 5.330894 0.695942 4.677729
C 5.731995 0.115180 4.814038
C 5.636276 0.816340 4.287425
C 0.043930 1.019021 4.050680
C 0.074474 1.643324 4.422459
C 0.527029 1.016521 4.482578
C 0.571077 1.511035 3.951915
C 0.314495 1.245917 4.148099
C 0.245670 1.760728 4.689546
C 0.752667 1.186584 4.733378
C 0.805427 1.872224 4.172573
C 0.984966 1.056311 3.971415
C 1.086421 1.457213 4.533952
C 1.524218 1.013276 4.444658
C 1.444234 1.558432 4.105906
C 1.178529 1.169212 4.189718
C 1.275619 1.710544 4.840737
C 1.790530 1.265091 4.647778
C 1.740853 1.845500 4.310106
C 2.037060 0.991297 4.146761
C 2.055401 1.613636 4.549370
C 2.444732 0.961046 4.486071
C 2.421737 1.553826 3.961056
C 2.258592 1.174710 4.278973
C 2.292413 1.733703 4.732071
C 2.818001 1.375344 4.694335
C 2.669732 1.714778 4.174698
C 2.935697 1.098566 4.028378
C 3.090968 1.375828 4.514845
C 3.547355 0.950729 4.503570
C 3.517854 1.590835 4.097445
C 3.305540 1.178892 4.338196
C 3.182466 1.721905 4.784338
C 3.872051 1.278009 4.777575
C 3.719017 1.640974 4.311700
C 4.021073 1.111207 4.004086
C 4.083118 1.455087 4.537565
C 4.561564 0.907469 4.517068
C 4.568826 1.447050 3.925958
C 4.249325 1.285107 4.221411
C 4.279426 1.648344 4.788041
C 4.706318 1.310294 4.608600
C 4.734910 1.673364 4.298368
C 5.096881 1.028100 4.044115
C 5.053114 1.458895 4.496112
C 5.603114 1.094167 4.457069
C 5.443910 1.614052 4.038247
C 5.244100 1.198285 4.385035
C 5.297460 1.819380 4.786664
C 5.647986 1.208545 4.774847
C 5.664303 1.794072 4.272727
C 0.014272 2.059297 3.999824
C 0.078531 2.497514 4.424710
C 0.561159 2.024730 4.458043
C 0.478616 2.466511 3.912102
C 0.245877 2.166020 4.208240
C 0.281572 2.665349 4.690661
C 0.739332 2.253057 4.872049
C 0.889220 2.776689 4.215639
C 1.066254 1.966494 4.133011
C 1.032424 2.565609 4.523089
C 1.478137 2.014453 4.486312
C 1.615130 2.377567 4.062181
C 1.251997 2.379377 4.189671
C 1.335954 2.694317 4.697480
C 1.807222 2.191364 4.850014
C 1.758318 2.664688 4.312736
C 2.021754 2.023735 3.990598
C 2.027130 2.561177 4.530408
C 2.449274 1.897642 4.499323
C 2.451966 2.536251 4.048993
C 2.300500 2.290134 4.253455
C 2.287937 2.754894 4.690286
C 2.754975 2.233692 4.837934
C 2.805984 2.732677 4.153258
C 2.919727 1.994011 4.061974
C 3.014947 2.568704 4.460257
C 3.593002 1.990006 4.440231
C 3.482369 2.524974 3.930580
C 3.135076 2.234393 4.268190
C 3.260248 2.758389 4.749199
C 3.737482 2.368564 4.798899
C 3.849998 2.766476 4.265122
C 3.858399 1.999862 3.981433
C 3.996433 2.603802 4.513535
C 4.476449 1.923183 4.548841
C 4.463709 2.477911 4.002772
C 4.385857 2.304573 4.262267
C 4.221132 2.761303 4.744859
C 4.776025 2.312301 4.819914
C 4.669518 2.677041 4.162947
C 4.997387 2.061672 3.938921
C 5.033507 2.393178 4.517404
C 5.503121 2.099140 4.562780
C 5.539411 2.406019 4.010262
C 5.206193 2.260431 4.280595
C 5.323745 2.834443 4.763576
C 5.657105 2.318830 4.756485
C 5.657946 2.674430 4.283173
C 0.138474 2.905344 4.051507
C 0.040465 3.490252 4.372715
C 0.424086 3.072115 4.406717
C 0.465960 3.568051 4.072039
C 0.189710 3.177500 4.154064
C 0.283424 3.684801 4.795997
C 0.762006 3.262865 4.825809
C 0.682428 3.828159 4.211150
C 1.116584 3.070639 3.957214
C 0.971551 3.565727 4.405246
C 1.430890 2.993893 4.447956
C 1.405464 3.535203 3.982499
C 1.133841 3.194785 4.300232
C 1.208385 3.700937 4.798321
C 1.678866 3.231967 4.825214
C 1.853286 3.807520 4.245782
C 2.108201 3.019586 4.012914
C 1.997829 3.543406 4.410774
C 2.421976 3.024912 4.541536
C 2.482642 3.447777 3.915427
C 2.321565 3.312175 4.257642
C 2.227214 3.683937 4.822468
C 2.766045 3.327169 4.837886
C 2.672631 3.840466 4.242607
C 3.096288 2.901384 3.952623
C 3.015892 3.521580 4.519192
C 3.627937 2.965383 4.494627
C 3.462228 3.518817 3.873396
C 3.162148 3.205306 4.264224
C 3.249820 3.777797 4.656137
C 3.693312 3.172205 4.772342
C 3.614550 3.783739 4.242302
C 4.030211 3.054126 4.054970
C 4.122095 3.528641 4.522743
C 4.599495 3.027314 4.450382
C 4.492842 3.487597 3.906703
C 4.266462 3.152315 4.259265
C 4.322165 3.780891 4.680472
C 4.816460 3.343506 4.709634
C 4.776381 3.712449 4.208042
C 5.027580 2.871742 4.067487
C 5.064839 3.440248 4.575020
C 5.502706 2.949959 4.433446
C 5.465773 3.473513 3.938785
C 5.164740 3.142802 4.200462
C 5.217813 3.783663 4.838511
C 5.681648 3.268674 4.736407
C 5.741744 3.672986 4.391011
C 0.098731 4.138688 3.936388
C 0.062684 4.554096 4.621527
C 0.461890 4.056139 4.392380
C 0.518768 4.604178 3.989640
C 0.239697 4.217582 4.234749
C 0.271154 4.808297 4.680471
C 0.719881 4.204825 4.841913
C 0.702232 4.839489 4.186972
C 0.944855 4.034879 3.974612
C 0.984279 4.438462 4.425761
C 1.363703 3.955760 4.492863
C 1.434908 4.450594 4.080788
C 1.269314 4.180944 4.300796
C 1.235325 4.860000 4.741981
C 1.729567 4.193182 4.676115
C 1.728955 4.861120 4.266505
C 2.065023 4.116540 4.065640
C 2.069842 4.589908 4.500835
C 2.464938 4.103230 4.425287
C 2.395259 4.434973 4.016813
C 2.247093 4.310206 4.266696
C 2.240474 4.655006 4.783640
C 2.656663 4.326014 4.816253
C 2.832928 4.696617 4.260167
C 3.065624 3.999814 4.036005
C 3.005310 4.487469 4.443515
C 3.460433 3.997272 4.608985
C 3.470412 4.465503 3.935205
C 3.282143 4.418258 4.213221
C 3.298638 4.870453 4.828184
C 3.721365 4.204303 4.746401
C 3.658879 4.823049 4.314823
C 4.006329 4.036852 3.910150
C 4.079767 4.569713 4.526999
C 4.432896 4.125670 4.508688
C 4.427357 4.576234 3.985958
C 4.210225 4.266922 4.299038
C 4.330305 4.697886 4.723744
C 4.821179 4.172413 4.810116
C 4.674592 4.767466 4.278390
C 5.113765 3.981903 3.923447
C 4.919275 4.417163 4.474580
C 5.372454 4.024469 4.472145
C 5.446829 4.512859 4.033986
C 5.257446 4.253858 4.231789
C 5.254278 4.697547 4.838899
C 5.718873 4.193448 4.890175
C 5.635233 4.858179 4.227284
C 0.095800 5.027044 4.049844
C 0.054943 5.558904 4.471769
C 0.534292 4.962024 4.588551
C 0.538064 5.586378 3.953370
C 0.287336 5.162887 4.282928
C 0.157736 5.599507 4.750379
C 0.691871 5.148939 4.838814
C 0.847577 5.726879 4.221437
C 0.989697 4.971089 3.944176
C 1.004696 5.605592 4.478628
C 1.406942 5.047780 4.494300
C 1.570905 5.451350 4.040049
C 1.207387 5.314008 4.226212
C 1.150702 5.688450 4.818315
C 1.700297 5.241933 4.858638
C 1.768616 5.744811 4.275904
C 1.941478 5.032856 3.966940
C 2.054626 5.478279 4.483698
C 2.535002 4.855621 4.498502
C 2.525965 5.531420 4.055438
C 2.264601 5.214224 4.189528
C 2.192567 5.739021 4.662635
C 2.831407 5.214613 4.742517
C 2.658000 5.736523 4.255447
C 2.904860 4.944213 4.047985
C 3.011751 5.515317 4.457211
C 3.430182 5.005746 4.479498
C 3.569594 5.509663 3.895797
C 3.297458 5.218557 4.124831
C 3.160235 5.746888 4.690442
C 3.878722 5.225263 4.747889
C 3.736145 5.681129 4.372183
C 4.001231 4.991401 4.110815
C 3.999446 5.482074 4.527888
C 4.527334 5.020653 4.577310
C 4.441875 5.471315 3.999468
C 4.150857 5.240262 4.174923
C 4.192537 5.730391 4.672128
C 4.769200 5.203103 4.797421
C 4.620130 5.742463 4.167892
C 4.962860 4.898512 4.058232
C 4.975244 5.559025 4.410712
C 5.441313 5.061501 4.511941
C 5.579067 5.496725 3.985957
C 5.244378 5.180631 4.268075
C 5.108204 5.739866 4.740536
C 5.722401 5.282661 4.652605
C 5.588899 5.736124 4.111952
C 0.009306 0.016810 4.908830
C 0.009456 0.434176 5.578452
C 0.514271 0.041114 5.520648
C 0.548067 0.392366 4.994130
C 0.194550 0.282686 5.215286
C 0.227704 0.751007 5.742582
C 0.786723 0.142913 5.591006
C 0.647202 0.788950 5.272090
C 0.968275 0.046202 5.032507
C 1.091716 0.432213 5.472477
C 1.484992 0.015169 5.511415
C 1.536746 0.512451 4.920800
C 1.270818 0.212004 5.127831
C 1.202940 0.657706 5.677149
C 1.877598 0.161140 5.718848
C 1.678401 0.833684 5.265845
C 2.076104 0.069311 4.978818
C 2.065550 0.590197 5.555021
C 2.387695 0.013524 5.531162
C 2.483455 0.536552 5.042347
C 2.318777 0.274008 5.231776
C 2.239913 0.855323 5.685624
C 2.775650 0.321517 5.748520
C 2.727755 0.592258 5.267348
C 3.137995 0.011951 5.003939
C 3.023547 0.484066 5.476515
C 3.456088 0.037826 5.586818
C 3.464402 0.541742 5.146554
C 3.206598 0.328857 5.247207
C 3.223070 0.694190 5.659308
C 3.769173 0.235400 5.700301
C 3.687742 0.761501 5.223718
C 4.056889 0.106593 5.034400
C 3.969713 0.545266 5.535758
C 4.379258 0.087323 5.485312
C 4.603865 0.596539 4.986192
C 4.115716 0.327544 5.309332
C 4.173967 0.739051 5.725280
C 4.717027 0.187971 5.699775
C 4.799116 0.846051 5.261971
C 5.086229 0.046809 4.977920
C 4.932865 0.424833 5.498909
C 5.618730 0.098782 5.443551
C 5.567283 0.507599 4.893298
C 5.271389 0.202515 5.358667
C 5.357023 0.817055 5.670575
C 5.724564 0.107702 5.729958
C 5.701388 0.750928 5.377291
C 0.083681 1.056267 5.044901
C 0.034342 1.577911 5.538840
C 0.571394 0.962270 5.504071
C 0.462631 1.583155 5.010923
C 0.208880 1.205595 5.306412
C 0.265242 1.555526 5.722367
C 0.826163 1.155369 5.731902
C 0.684366 1.824175 5.229644
C 1.065671 0.980280 5.018093
C 1.057942 1.423575 5.553194
C 1.487433 1.075234 5.492208
C 1.542660 1.498605 4.978779
C 1.169924 1.169071 5.299801
C 1.354441 1.734597 5.651943
C 1.677508 1.218304 5.709508
C 1.748950 1.733465 5.136653
C 2.095910 0.922461 5.028178
C 1.910409 1.460962 5.503380
C 2.428445 1.050233 5.515672
C 2.496071 1.505128 4.904883
C 2.277556 1.245943 5.291310
C 2.325200 1.785917 5.737742
C 2.680010 1.097990 5.684371
C 2.686078 1.662229 5.143194
C 2.955208 0.995013 4.943032
C 2.940843 1.454030 5.445781
C 3.613796 0.990884 5.550265
C 3.357855 1.446940 4.923804
C 3.294184 1.309289 5.227615
C 3.360947 1.733286 5.730728
C 3.654237 1.264124 5.627016
C 3.792178 1.796307 5.302269
C 3.926141 0.967851 4.989976
C 3.873153 1.465102 5.422678
C 4.554163 0.977059 5.414850
C 4.557275 1.518209 5.086670
C 4.274878 1.243230 5.310766
C 4.402492 1.691365 5.639171
C 4.593853 1.220712 5.716245
C 4.797096 1.800040 5.343215
C 5.015233 1.009073 5.069711
C 5.046093 1.439164 5.581319
C 5.554497 1.042499 5.610660
C 5.455515 1.524473 4.999891
C 5.243551 1.311400 5.161671
C 5.134741 1.776139 5.703642
C 5.725501 1.379423 5.686258
C 5.710013 1.669030 5.311503
C 0.059780 1.848123 5.020229
C 0.062901 2.525284 5.387355
C 0.502007 1.989889 5.552800
C 0.560784 2.521064 4.961479
C 0.191906 2.200775 5.257882
C 0.233297 2.706898 5.669061
C 0.716037 2.250772 5.613290
C 0.722964 2.759002 5.328178
C 1.077552 1.997365 4.901087
C 0.913444 2.560605 5.545116
C 1.457820 1.919760 5.386088
C 1.541392 2.525637 5.076184
C 1.247367 2.243477 5.204310
C 1.268237 2.594356 5.666521
C 1.800245 2.335541 5.683164
C 1.719156 2.743522 5.373078
C 2.097371 1.900078 5.023024
C 2.052577 2.510886 5.484480
C 2.664306 1.983699 5.448181
C 2.451793 2.519256 4.973975
C 2.287165 2.261086 5.302844
C 2.235534 2.817111 5.748348
C 2.747440 2.171227 5.681072
C 2.694134 2.742389 5.336995
C 2.944665 1.883345 4.981139
C 2.996568 2.423003 5.506083
C 3.576920 1.999526 5.493352
C 3.463746 2.577526 4.982999
C 3.245052 2.204277 5.339930
C 3.214648 2.714477 5.571405
C 3.687727 2.122506 5.747633
C 3.721635 2.779330 5.248822
C 4.013174 1.912621 4.925343
C 4.099519 2.457025 5.530934
C 4.457790 1.956869 5.560793
C 4.548495 2.440511 4.995707
C 4.193480 2.163842 5.265593
C 4.160621 2.798898 5.680242
C 4.760861 2.109772 5.712481
C 4.694886 2.758997 5.363695
C 4.944204 2.006517 4.904990
C 5.014345 2.575888 5.521165
C 5.483336 1.930021 5.421704
C 5.448404 2.579059 5.045536
C 5.155537 2.304143 5.312973
C 5.248191 2.796269 5.712438
C 5.636946 2.184469 5.583612
C 5.687341 2.767821 5.119148
C 0.047374 3.026055 5.102408
C 0.048483 3.515324 5.476768
C 0.470158 3.022351 5.648449
C 0.442570 3.443610 5.110737
C 0.295414 3.194159 5.189875
C 0.177639 3.776728 5.643134
C 0.719336 3.255988 5.646398
C 0.840850 3.677322 5.329545
C 1.017177 2.999804 4.897762
C 1.073225 3.415914 5.464987
C 1.585272 2.990648 5.580632
C 1.491429 3.457548 4.964260
C 1.143447 3.348239 5.187835
C 1.142808 3.740414 5.598786
C 1.812507 3.290527 5.737916
C 1.744087 3.635524 5.264919
C 1.937712 2.895495 4.964246
C 2.095851 3.577850 5.519655
C 2.469336 2.991075 5.578133
C 2.465464 3.457021 4.904486
C 2.183864 3.223010 5.234759
C 2.247905 3.918005 5.700836
C 2.767306 3.267190 5.728269
C 2.690641 3.671258 5.155767
C 3.074326 2.991187 4.974791
C 3.054045 3.462714 5.571893
C 3.480378 2.869073 5.563549
C 3.455969 3.517987 4.957554
C 3.189058 3.279822 5.204940
C 3.262975 3.685068 5.738785
C 3.723268 3.253262 5.725726
C 3.678406 3.738867 5.198191
C 3.925754 3.044607 4.990909
C 3.920689 3.447571 5.510849
C 4.612401 2.977578 5.597428
C 4.452907 3.585210 4.943335
C 4.140716 3.233624 5.272473
C 4.215647 3.663676 5.727235
C 4.611525 3.240350 5.727238
C 4.672902 3.851380 5.177280
C 4.957622 3.021012 4.924493
C 4.929921 3.471172 5.537785
C 5.441331 2.974402 5.526874
C 5.435781 3.407342 4.959056
C 5.192149 3.302635 5.183843
C 5.258213 3.656489 5.748838
C 5.658033 3.142611 5.729835
C 5.746171 3.851774 5.259694
C 0.076121 4.000375 4.924064
C 0.002629 4.444350 5.611092
C 0.470804 4.055379 5.501224
C 0.427859 4.459906 5.083721
C 0.261665 4.235572 5.301955
C 0.240761 4.818890 5.646830
C 0.641531 4.153994 5.745390
C 0.721326 4.814544 5.184227
C 1.109541 3.959789 4.976764
C 0.901221 4.497098 5.550297
C 1.473057 3.918871 5.433380
C 1.414301 4.476868 5.099452
C 1.131333 4.224663 5.330763
C 1.126866 4.752542 5.728529
C 1.810136 4.313127 5.716025
C 1.787924 4.682418 5.314589
C 2.033359 4.001199 5.081497
C 2.031021 4.607985 5.591617
C 2.418553 3.905058 5.477100
C 2.497531 4.487453 5.065210
C 2.326609 4.161228 5.296228
C 2.368542 4.693408 5.748479
C 2.755022 4.265895 5.626261
C 2.674285 4.762473 5.181381
C 3.121706 3.980695 4.935009
C 2.960094 4.506847 5.460263
C 3.478630 4.001762 5.407277
C 3.444074 4.539331 4.983089
C 3.320759 4.333300 5.296117
C 3.206017 4.662195 5.682673
C 3.794465 4.134148 5.700765
C 3.663244 4.884204 5.246230
C 4.007861 3.980717 4.857740
C 3.962881 4.569465 5.546509
C 4.491962 4.059025 5.555962
C 4.469125 4.544035 5.116579
C 4.208565 4.163917 5.183878
C 4.192631 4.774817 5.679889
C 4.646885 4.305779 5.708107
C 4.723719 4.675489 5.228770
C 5.038318 3.947126 5.083898
C 5.032128 4.563051 5.502892
C 5.535028 4.016150 5.510935
C 5.600896 4.509371 5.109228
C 5.178643 4.345113 5.302638
C 5.139099 4.849757 5.738684
C 5.696179 4.215495 5.733686
C 5.689536 4.775224 5.078576
C 0.036265 4.957387 5.054549
C 0.112664 5.490140 5.644670
C 0.496148 4.985782 5.449805
C 0.555828 5.399614 5.013217
C 0.136476 5.201383 5.332390
C 0.379467 5.699362 5.725979
C 0.841046 5.234310 5.697602
C 0.775013 5.731750 5.099711
C 0.948584 4.965531 4.992878
C 1.084815 5.477605 5.590718
C 1.499356 4.903886 5.465781
C 1.571435 5.544225 5.001409
C 1.254928 5.322110 5.362066
C 1.116314 5.731951 5.592187
C 1.843131 5.289481 5.720475
C 1.823657 5.699403 5.106856
C 1.890322 5.008457 5.007198
C 2.092476 5.494328 5.510331
C 2.445452 4.921225 5.551573
C 2.526374 5.489623 4.938983
C 2.235699 5.237602 5.211755
C 2.409159 5.637703 5.650168
C 2.658526 5.316345 5.694627
C 2.845090 5.739218 5.145939
C 2.982208 5.088633 5.045606
C 3.023742 5.596078 5.503944
C 3.440666 4.987450 5.561570
C 3.371828 5.599527 4.964256
C 3.181248 5.207739 5.261630
C 3.291283 5.693491 5.733843
C 3.703402 5.183048 5.742150
C 3.728679 5.598209 5.217083
C 4.054808 4.992012 5.116419
C 4.007396 5.417575 5.439336
C 4.425882 5.057400 5.500846
C 4.487724 5.547062 4.952485
C 4.228242 5.278427 5.235917
C 4.193893 5.603799 5.667416
C 4.704258 5.166026 5.728060
C 4.703302 5.639082 5.237490
C 5.059329 4.990653 5.080646
C 5.078900 5.479434 5.381695
C 5.379364 4.952230 5.544819
C 5.416485 5.404992 4.971339
C 5.371058 5.208767 5.257292
C 5.269410 5.668935 5.686361
C 5.663684 5.376384 5.711422
C 5.651566 5.610858 5.222320
1728
Frame 8/10
C 0.199249 0.083100 0.128165
C 0.122226 0.573252 0.573885
C 0.450282 0.100272 0.656798
C 0.528492 0.632950 0.014922
C 0.105347 0.411411 0.292579
C 0.110984 0.815105 0.731555
C 0.750505 0.210867 0.888957
C 0.653749 0.773244 0.243713
C 0.866560 0.103738 0.131977
C 0.967893 0.386835 0.453140
C 1.513696 0.111175 0.465430
C 1.340683 0.441230 0.045189
C 1.212504 0.218593 0.209595
C 1.183394 0.691148 0.799257
C 1.796183 0.329310 0.784230
C 1.704030 0.750723 0.142213
C 2.050138 0.039254 0.094442
C 2.010915 0.490671 0.626825
C 2.477500 0.035797 0.497177
C 2.416851 0.591921 0.049833
C 2.199367 0.223499 0.306415
C 2.223508 0.645000 0.817584
C 2.789268 0.212021 0.702474
C 2.686148 0.655689 0.192721
C 3.055410 0.047474 0.016803
C 3.023323 0.555288 0.603400
C 3.544708 0.016089 0.394857
C 3.574810 0.469332 0.016813
C 3.286522 0.358263 0.097592
C 3.313822 0.790266 0.728276
C 3.803134 0.241235 0.664574
C 3.711396 0.913383 0.235924
C 4.192248 0.085414 0.017473
C 3.870775 0.533017 0.544525
C 4.554751 0.104747 0.461138
C 4.432895 0.555147 0.094743
C 4.277101 0.326294 0.191864
C 4.240231 0.801487 0.835772
C 4.773010 0.320419 0.750146
C 4.752445 0.663884 0.232283
C 4.837528 0.005179 0.055678
C 5.036967 0.458349 0.446788
C 5.421001 0.064230 0.605091
C 5.495507 0.365011 0.162082
C 5.165252 0.174450 0.336885
C 5.234148 0.682659 0.859741
C 5.671756 0.295285 0.788669
C 5.654281 0.711272 0.218386
C 0.003913 0.870880 0.027834
C 0.107980 1.487684 0.541072
C 0.432000 0.942563 0.354412
C 0.424893 1.467912 0.149353
C 0.209119 1.186613 0.202203
C 0.165456 1.810931 0.607243
C 0.721291 1.147391 0.760408
C 0.778874 1.740522 0.366612
C 1.035248 0.918410 0.010340
C 0.915257 1.462951 0.489116
C 1.617675 1.011977 0.612409
C 1.493218 1.495717 0.043199
C 1.182025 1.187651 0.342104
C 1.138235 1.724359 0.662352
C 1.628420 1.278321 0.740096
C 1.713525 1.778034 0.357350
C 1.912147 1.083340 0.030149
C 1.996373 1.536606 0.466504
C 2.429408 1.020164 0.608530
C 2.525653 1.542126 0.048401
C 2.335854 1.280922 0.218177
C 2.229508 1.667186 0.692403
C 2.753731 1.362675 0.813504
C 2.675291 1.869385 0.204336
C 3.035537 1.016557 0.108028
C 3.049007 1.558898 0.516686
C 3.486297 1.047900 0.458978
C 3.632842 1.341973 0.003268
C 3.295466 1.229847 0.111652
C 3.192033 1.835950 0.860827
C 3.734554 1.313739 0.658894
C 3.853410 1.672591 0.190362
C 3.995040 1.132186 0.056984
C 4.054877 1.491614 0.531395
C 4.534630 0.903711 0.590851
C 4.538821 1.486799 0.123524
C 4.381455 1.159483 0.258108
C 4.313420 1.652369 0.648262
C 4.751415 1.279623 0.698640
C 4.765777 1.742963 0.177309
C 4.916545 1.003228 0.016610
C 5.046899 1.388440 0.410747
C 5.469553 1.044405 0.532673
C 5.380024 1.480136 0.035314
C 5.277771 1.130321 0.191922
C 5.203982 1.739957 0.691907
C 5.724208 1.334358 0.778836
C 5.678690 1.780138 0.200799
C 0.120728 1.923768 0.106993
C 0.001018 2.602291 0.488183
C 0.448543 1.862412 0.510765
C 0.610740 2.568186 0.084647
C 0.201656 2.257044 0.245213
C 0.313487 2.621585 0.731268
C 0.658021 2.256408 0.712974
C 0.619559 2.852335 0.291952
C 1.102561 2.141804 0.032893
C 1.059995 2.558502 0.477556
C 1.463882 1.988137 0.499523
C 1.626233 2.630510 0.024147
C 1.200295 2.189416 0.311223
C 1.150020 2.683001 0.729809
C 1.684671 2.311730 0.761032
C 1.902562 2.780782 0.259309
C 2.045856 2.063185 0.059421
C 2.025532 2.517511 0.468347
C 2.631520 1.998903 0.595429
C 2.549407 2.406921 0.134537
C 2.289247 2.194819 0.321033
C 2.251796 2.843248 0.735213
C 2.640949 2.324106 0.773373
C 2.787454 2.778724 0.199228
C 3.100451 2.006686 0.090061
C 2.890656 2.451517 0.628437
C 3.557676 1.949621 0.605703
C 3.446750 2.603364 0.137492
C 3.341670 2.277221 0.285921
C 3.334111 2.779438 0.770200
C 3.672466 2.315896 0.840034
C 3.816075 2.707822 0.252752
C 4.116885 2.026507 0.042899
C 4.073531 2.540487 0.421437
C 4.417351 1.899573 0.526710
C 4.495186 2.708659 0.096286
C 4.325279 2.218987 0.173718
C 4.169689 2.693518 0.712179
C 4.786488 2.250873 0.809273
C 4.770580 2.608251 0.270052
C 4.922372 1.970066 0.003216
C 4.999274 2.526381 0.534809
C 5.452152 1.867390 0.563626
C 5.451359 2.523614 0.117864
C 5.161232 2.284542 0.263724
C 5.249225 2.659114 0.682738
C 5.732323 2.319797 0.578282
C 5.639954 2.705916 0.358257
C 0.120248 3.052256 0.083053
C 0.017127 3.700516 0.492069
C 0.590623 2.972642 0.542636
C 0.543714 3.492183 0.004883
C 0.208802 3.236139 0.372506
C 0.195851 3.784916 0.784178
C 0.860688 3.296743 0.723845
C 0.804888 3.856599 0.296480
C 0.886991 2.865657 0.050503
C 1.071470 3.473621 0.602894
C 1.534312 3.058473 0.331955
C 1.512753 3.609539 0.008862
C 1.119974 3.239140 0.204658
C 1.272998 3.720401 0.730065
C 1.822047 3.245322 0.611509
C 1.767234 3.771183 0.208775
C 1.914574 2.910408 0.008198
C 1.939139 3.524130 0.403253
C 2.621777 3.044560 0.531087
C 2.500796 3.591762 0.065154
C 2.185394 3.275210 0.342214
C 2.395292 3.804292 0.843809
C 2.760932 3.176006 0.776039
C 2.585589 3.650079 0.337053
C 3.030661 3.098801 0.037555
C 2.971025 3.362709 0.492798
C 3.495730 3.012954 0.468493
C 3.511165 3.389623 0.044297
C 3.171951 3.311728 0.262451
C 3.284208 3.852651 0.714490
C 3.868967 3.200932 0.771123
C 3.785909 3.768427 0.212429
C 4.000223 3.025561 0.018938
C 3.890492 3.509943 0.539557
C 4.533481 2.922085 0.588060
C 4.398107 3.513123 0.104822
C 4.251111 3.277234 0.115803
C 4.169048 3.720280 0.780431
C 4.725961 3.309782 0.783560
C 4.831815 3.703306 0.143779
C 4.995402 3.075723 0.048419
C 4.982502 3.418528 0.411734
C 5.545347 3.054301 0.435778
C 5.485990 3.387147 0.064902
C 5.169485 3.315429 0.187954
C 5.280533 3.777403 0.748813
C 5.747986 3.214728 0.692384
C 5.655566 3.655403 0.344708
C 0.047728 3.882713 0.108748
C 0.105751 4.517718 0.361900
C 0.524289 3.861272 0.366834
C 0.431536 4.469289 0.013394
C 0.248902 4.231498 0.152845
C 0.339543 4.685493 0.860530
C 0.644698 4.149378 0.740790
C 0.688412 4.656165 0.344501
C 1.057517 3.932666 0.156079
C 1.100104 4.440917 0.435552
C 1.485042 3.942916 0.607513
C 1.306514 4.486151 0.107713
C 1.350537 4.260742 0.292760
C 1.267420 4.729135 0.884235
C 1.734513 4.283105 0.871890
C 1.816332 4.732031 0.139430
C 2.117930 3.861760 0.078112
C 2.024477 4.501075 0.368169
C 2.411547 3.989552 0.411607
C 2.450139 4.438901 0.092080
C 2.146548 4.235382 0.192647
C 2.166684 4.890783 0.658292
C 2.696847 4.216786 0.724040
C 2.901935 4.672269 0.305719
C 3.046446 3.938969 0.124069
C 2.974914 4.488432 0.595326
C 3.572695 3.914834 0.454767
C 3.447421 4.689910 0.056133
C 3.263853 4.236652 0.155171
C 3.072500 4.769403 0.872567
C 3.842631 4.156072 0.659373
C 3.766414 4.838512 0.206559
C 3.832688 4.086853 0.014265
C 3.939276 4.439360 0.533264
C 4.487575 4.066939 0.410826
C 4.364608 4.397445 0.003135
C 4.272726 4.151825 0.200933
C 4.258530 4.932790 0.758271
C 4.791050 4.382602 0.752428
C 4.623196 4.709522 0.334999
C 5.044000 4.015913 0.051161
C 4.942593 4.532711 0.364745
C 5.599109 3.968053 0.473450
C 5.359768 4.502732 0.095055
C 5.176847 4.296946 0.253646
C 5.237811 4.720469 0.864198
C 5.681623 4.167282 0.751761
C 5.652591 4.818143 0.264474
C 0.061234 4.860582 0.141757
C 0.111173 5.595053 0.380123
C 0.533829 5.128601 0.479269
C 0.352961 5.477685 0.098494
C 0.149819 5.179012 0.389018
C 0.205658 5.744885 0.668032
C 0.844132 5.332114 0.705306
C 0.736473 5.628554 0.118183
C 0.901619 4.930518 0.076521
C 0.962506 5.629112 0.425748
C 1.518324 5.049214 0.583677
C 1.605223 5.529309 0.018448
C 1.177288 5.236471 0.246112
C 1.161466 5.735462 0.637262
C 1.707007 5.266647 0.828961
C 1.703087 5.661580 0.357617
C 1.924067 5.022280 0.167133
C 1.905226 5.411634 0.535350
C 2.406984 4.950220 0.520748
C 2.518508 5.434362 0.054351
C 2.170610 5.153123 0.183196
C 2.360512 5.652428 0.862264
C 2.792498 5.350133 0.791993
C 2.896829 5.735603 0.277379
C 2.923623 4.906098 0.110920
C 2.994608 5.425908 0.545942
C 3.485344 4.997917 0.590322
C 3.439225 5.444674 0.042160
C 3.283886 5.174001 0.144201
C 3.412212 5.707360 0.614906
C 3.888979 5.209694 0.764575
C 3.885581 5.662858 0.214908
C 4.052564 4.891497 0.036604
C 4.010886 5.404936 0.350081
C 4.415433 4.908526 0.523261
C 4.508440 5.392099 0.048496
C 4.368864 5.252130 0.350489
C 4.046098 5.747737 0.873338
C 4.775311 5.120702 0.777145
C 4.812854 5.633321 0.318269
C 4.901472 5.013373 0.035340
C 4.979967 5.411484 0.448376
C 5.388131 4.990279 0.482920
C 5.422152 5.367674 0.022942
C 5.306345 5.252830 0.373746
C 5.183246 5.614476 0.672175
C 5.731595 5.094052 0.787008
C 5.681777 5.661945 0.123302
C 0.018743 0.060430 0.784150
C 0.055878 0.350018 1.565799
C 0.352768 0.014979 1.533706
C 0.463420 0.398333 1.051564
C 0.322362 0.300702 1.296202
C 0.240509 0.614424 1.663180
C 0.669322 0.301447 1.778708
C 0.876370 0.808028 1.206046
C 1.079029 0.052763 0.958234
C 1.103014 0.369030 1.548260
C 1.659795 0.017065 1.537031
C 1.371372 0.435751 0.991821
C 1.264201 0.193944 1.234222
C 1.314927 0.790823 1.782752
C 1.822878 0.370573 1.811665
C 1.757383 0.676930 1.153304
C 1.882007 0.043336 0.962548
C 2.149883 0.488089 1.432183
C 2.612767 0.004859 1.466740
C 2.389232 0.438008 0.977917
C 2.165344 0.298542 1.221779
C 2.377748 0.714151 1.695596
C 2.737941 0.324439 1.768185
C 2.670787 0.780751 1.141216
C 3.040686 0.089116 0.854155
C 2.983184 0.453517 1.582756
C 3.559861 0.028188 1.548493
C 3.658425 0.470431 1.058513
C 3.143626 0.199361 1.313338
C 3.297290 0.811758 1.679277
C 3.783142 0.382570 1.698061
C 3.865701 0.814551 1.256997
C 4.073019 0.181668 1.000472
C 3.982703 0.382923 1.476758
C 4.466743 0.153910 1.514750
C 4.410148 0.523537 0.979833
C 4.267086 0.193414 1.279552
C 4.338600 0.845021 1.648503
C 4.634015 0.216326 1.745326
C 4.787809 0.624767 1.325697
C 5.001272 0.127577 1.001103
C 5.103126 0.393226 1.486840
C 5.516052 0.028514 1.528232
C 5.402362 0.458098 0.845995
C 5.399236 0.297430 1.175658
C 5.182940 0.684488 1.667124
C 5.711437 0.314634 1.815950
C 5.684356 0.833787 1.349152
C 0.033224 1.068594 1.080843
C 0.005152 1.510973 1.414423
C 0.585427 0.999465 1.392808
C 0.452530 1.592314 0.922983
C 0.325636 1.173050 1.370915
C 0.181560 1.798976 1.794111
C 0.601287 1.329950 1.828331
C 0.870237 1.665533 1.247729
C 0.981914 1.085605 1.061552
C 1.114873 1.477494 1.567084
C 1.572357 0.976305 1.405561
C 1.494655 1.550356 1.113009
C 1.303834 1.183232 1.358126
C 1.239425 1.740349 1.758203
C 1.746529 1.326878 1.784391
C 1.814060 1.894387 1.322346
C 1.958421 0.881511 1.035429
C 2.077196 1.581382 1.442593
C 2.564736 0.968495 1.390140
C 2.395133 1.457684 0.931306
C 2.196813 1.239620 1.228082
C 2.333761 1.594231 1.783948
C 2.819151 1.158437 1.665491
C 2.724271 1.797184 1.345534
C 2.906569 1.071170 1.050585
C 2.939511 1.443102 1.573284
C 3.617889 0.949017 1.574708
C 3.608798 1.517623 0.891623
C 3.261880 1.217944 1.237183
C 3.257639 1.827936 1.773380
C 3.739402 1.338123 1.776872
C 3.752088 1.810217 1.320777
C 4.055038 1.076869 0.999099
C 4.035414 1.552006 1.448127
C 4.504222 1.061833 1.482855
C 4.406432 1.491802 0.953182
C 4.287491 1.167831 1.174113
C 4.149636 1.739453 1.773497
C 4.669849 1.219585 1.822978
C 4.747875 1.682463 1.202330
C 4.918160 0.949240 1.073307
C 4.895571 1.528176 1.482107
C 5.395582 0.979101 1.514529
C 5.394560 1.416786 0.989403
C 5.408309 1.203308 1.323220
C 5.286952 1.873114 1.675976
C 5.656241 1.169353 1.663549
C 5.737550 1.621485 1.179142
C 0.030851 1.967825 0.955547
C 0.002644 2.567687 1.462055
C 0.392962 1.967957 1.427620
C 0.426514 2.504689 1.068113
C 0.222094 2.120065 1.187411
C 0.168526 2.838878 1.802522
C 0.864666 2.208242 1.719867
C 0.806366 2.770132 1.148174
C 0.995562 1.914826 1.058908
C 0.916092 2.376921 1.467457
C 1.570848 1.896955 1.548797
C 1.558232 2.596165 0.971884
C 1.234282 2.259005 1.160263
C 1.067104 2.760155 1.772044
C 1.705956 2.121064 1.769276
C 1.849776 2.688353 1.232357
C 1.880473 2.116986 1.000737
C 2.021877 2.503673 1.527464
C 2.511220 1.955649 1.564811
C 2.587692 2.559360 0.994025
C 2.223419 2.303066 1.224496
C 2.259170 2.648279 1.710558
C 2.763312 2.327744 1.660394
C 2.774695 2.825726 1.288605
C 3.000763 2.147429 0.979027
C 2.995968 2.365958 1.403849
C 3.475347 1.916280 1.589609
C 3.337616 2.466339 0.954357
C 3.197032 2.170471 1.254685
C 3.303712 2.778816 1.713164
C 3.683273 2.364737 1.645186
C 3.664054 2.741649 1.105364
C 4.032400 1.900461 0.936077
C 3.999761 2.517372 1.442487
C 4.515495 2.069896 1.438402
C 4.425723 2.411261 1.058070
C 4.134331 2.236863 1.253362
C 4.217592 2.786663 1.832928
C 4.792560 2.320869 1.662334
C 4.852737 2.862469 1.205810
C 4.919281 1.983032 0.938328
C 5.106657 2.486282 1.620931
C 5.456149 2.039779 1.482249
C 5.548958 2.468535 1.076472
C 5.172579 2.163050 1.214320
C 5.130208 2.709890 1.788971
C 5.605715 2.143474 1.780378
C 5.699721 2.713173 1.141570
C 0.102352 2.912091 0.887362
C 0.101118 3.440338 1.397539
C 0.498600 2.844765 1.428957
C 0.481708 3.529266 0.952588
C 0.342317 3.353940 1.227661
C 0.279469 3.666540 1.727983
C 0.842074 3.304651 1.765067
C 0.836091 3.838359 1.255485
C 1.104536 2.943384 0.975936
C 1.016758 3.343552 1.541872
C 1.550208 3.136817 1.387489
C 1.463049 3.578362 0.930322
C 1.237598 3.299382 1.354101
C 1.186520 3.691782 1.836392
C 1.685096 3.260975 1.688933
C 1.781976 3.885819 1.238731
C 1.983568 2.991535 1.154315
C 2.034539 3.568830 1.453602
C 2.511417 2.991559 1.555619
C 2.521378 3.398330 1.113246
C 2.281427 3.111672 1.302027
C 2.332657 3.722917 1.623043
C 2.754135 3.098492 1.750723
C 2.799656 3.758251 1.090665
C 2.940364 2.996913 1.090894
C 3.113770 3.342484 1.512117
C 3.613611 3.079457 1.410372
C 3.527964 3.472058 1.021977
C 3.195096 3.191498 1.176842
C 3.288995 3.738923 1.723888
C 3.836260 3.326185 1.742126
C 3.775836 3.662755 1.309356
C 4.020552 2.968003 1.103436
C 3.988420 3.596382 1.506023
C 4.592035 3.058411 1.531337
C 4.527489 3.652073 0.965598
C 4.279782 3.124692 1.290577
C 4.302556 3.665473 1.674328
C 4.646811 3.242394 1.755885
C 4.858676 3.682357 1.350105
C 5.005378 3.169637 0.983946
C 4.913581 3.422145 1.437928
C 5.511654 2.876282 1.604334
C 5.454221 3.445398 1.084135
C 5.209644 3.187546 1.185290
C 5.426869 3.665902 1.738177
C 5.656616 3.330185 1.845152
C 5.665287 3.587468 1.301936
C 0.017162 4.038828 0.824272
C 0.040956 4.601460 1.427378
C 0.517990 4.014033 1.549821
C 0.424996 4.396110 1.067135
C 0.154858 4.387429 1.257459
C 0.306408 4.731608 1.745660
C 0.688355 4.165776 1.741555
C 0.655153 4.665536 1.225897
C 0.980661 3.961651 1.002640
C 0.930310 4.487719 1.531225
C 1.364639 3.996040 1.409986
C 1.474900 4.434657 0.841038
C 1.205816 4.295555 1.338860
C 1.243905 4.783478 1.886999
C 1.845056 4.243900 1.699368
C 1.797380 4.716076 1.210322
C 2.060951 4.098297 1.055572
C 2.137619 4.492994 1.480044
C 2.632257 3.915201 1.443235
C 2.446943 4.581242 0.983137
C 2.333815 4.311755 1.262128
C 2.276319 4.700813 1.652660
C 2.795154 4.297032 1.775366
C 2.785427 4.717677 1.107064
C 3.081729 4.088272 0.981090
C 3.051641 4.453707 1.475214
C 3.396021 3.996993 1.531400
C 3.403676 4.596683 0.975128
C 3.265403 4.110812 1.241935
C 3.256285 4.688813 1.608147
C 3.666512 4.230974 1.758890
C 3.748054 4.800462 1.296116
C 4.015470 3.972483 0.941297
C 3.912108 4.513875 1.551371
C 4.368750 3.967568 1.421986
C 4.546695 4.547695 0.901803
C 4.326170 4.337043 1.151150
C 4.355866 4.740860 1.738423
C 4.844614 4.241510 1.667326
C 4.716075 4.620178 1.291032
C 4.836877 3.965923 1.071134
C 5.105777 4.476278 1.541011
C 5.508664 4.058476 1.367525
C 5.456419 4.545094 0.830601
C 5.180146 4.334275 1.215318
C 5.279862 4.740777 1.669793
C 5.609189 4.287436 1.628859
C 5.696861 4.643945 1.173364
C 0.017200 5.106571 1.142559
C 0.152901 5.561077 1.405337
C 0.408875 5.011377 1.612099
C 0.444646 5.508093 0.899371
C 0.241815 5.250085 1.279311
C 0.342870 5.706574 1.751805
C 0.688428 5.270520 1.613366
C 0.640785 5.623182 1.208098
C 1.048670 4.959553 1.101619
C 0.933024 5.509198 1.468274
C 1.401369 5.040152 1.508387
C 1.417944 5.455800 0.877176
C 1.139343 5.390922 1.244016
C 1.301737 5.726187 1.821229
C 1.816123 5.222644 1.675907
C 1.715197 5.749478 1.232475
C 2.006707 4.972823 0.886503
C 1.953886 5.625382 1.473803
C 2.426715 4.935447 1.481155
C 2.570428 5.449482 1.039029
C 2.266599 5.213439 1.319599
C 2.383710 5.691950 1.696149
C 2.847089 5.205379 1.733636
C 2.815934 5.709694 1.329174
C 3.048584 5.087939 1.066161
C 3.136005 5.414780 1.607905
C 3.553519 5.011381 1.357997
C 3.500963 5.584914 0.943163
C 3.157626 5.244477 1.335609
C 3.197782 5.721516 1.687912
C 3.704712 5.130474 1.799610
C 3.862265 5.645096 1.152400
C 4.113523 5.063908 1.042874
C 3.909650 5.480526 1.617222
C 4.440436 4.964291 1.489607
C 4.467199 5.555428 0.967598
C 4.311585 5.211370 1.216320
C 4.159097 5.667201 1.662167
C 4.755963 5.252716 1.664707
C 4.824974 5.659925 1.206333
C 5.011993 5.044463 1.069336
C 5.052440 5.450046 1.506761
C 5.611571 4.932056 1.586793
C 5.364302 5.507822 1.012760
C 5.341385 5.242700 1.304114
C 5.256199 5.658133 1.661098
C 5.612875 5.353063 1.753184
C 5.695788 5.624837 1.285303
C 0.039705 0.037112 1.903767
C 0.018742 0.698588 2.613801
C 0.614421 0.029975 2.492458
C 0.381571 0.372764 1.921193
C 0.130559 0.314046 2.325414
C 0.249329 0.589854 2.659801
C 0.731708 0.350855 2.714274
C 0.713776 0.643404 2.176585
C 0.985246 0.006447 2.088354
C 0.884993 0.547702 2.493699
C 1.660223 0.048417 2.577310
C 1.574060 0.476464 2.034310
C 1.241939 0.220763 2.097544
C 1.327399 0.850187 2.697240
C 1.694884 0.279040 2.733468
C 1.821759 0.766405 2.169083
C 1.993154 0.157200 1.954221
C 1.945011 0.572280 2.397000
C 2.406924 0.109268 2.473929
C 2.353571 0.437627 2.039326
C 2.381428 0.183016 2.215999
C 2.231629 0.808212 2.717687
C 2.663987 0.252374 2.754532
C 2.717438 0.709741 2.237261
C 3.032555 0.059093 1.987992
C 3.083725 0.532545 2.494637
C 3.428693 0.048266 2.390866
C 3.512133 0.386273 2.011421
C 3.301179 0.315224 2.243153
C 3.219646 0.661804 2.788563
C 3.780936 0.262727 2.653594
C 3.734285 0.758857 2.287956
C 3.948327 0.123056 2.007266
C 4.019571 0.499970 2.586335
C 4.511010 0.068494 2.637046
C 4.542804 0.492598 1.901283
C 4.274632 0.341023 2.144650
C 4.177532 0.688353 2.769829
C 4.807967 0.262008 2.608131
C 4.839081 0.864244 2.204402
C 5.134815 0.061759 2.132963
C 5.026961 0.464217 2.640223
C 5.450517 0.095251 2.453345
C 5.435600 0.345463 2.025034
C 5.313422 0.331986 2.303182
C 5.266731 0.694341 2.833780
C 5.729709 0.359645 2.702721
C 5.677062 0.778982 2.133664
C 0.016841 0.902224 1.886434
C 0.060858 1.663537 2.494738
C 0.424227 1.016898 2.490037
C 0.482649 1.497436 2.127646
C 0.180366 1.277014 2.386946
C 0.245313 1.736302 2.856474
C 0.805636 1.210586 2.800334
C 0.731707 1.778351 2.395082
C 0.931047 1.052647 2.100309
C 0.988524 1.610004 2.494115
C 1.622619 1.084726 2.585563
C 1.436174 1.487459 2.082272
C 1.301294 1.115570 2.222031
C 1.141051 1.767530 2.735762
C 1.686678 1.317212 2.765752
C 1.763828 1.886346 2.223152
C 1.963286 1.105108 1.918700
C 1.924592 1.553380 2.433109
C 2.585176 0.957318 2.407123
C 2.543539 1.382620 2.074699
C 2.314360 1.306525 2.353330
C 2.237075 1.924578 2.760267
C 2.858531 1.260543 2.645785
C 2.781379 1.784101 2.124769
C 2.963380 0.926579 2.085329
C 3.124132 1.437031 2.444371
C 3.442625 0.910497 2.447297
C 3.579045 1.403210 2.009881
C 3.296305 1.184800 2.279889
C 3.160936 1.611824 2.690446
C 3.806973 1.255137 2.874424
C 3.787035 1.653913 2.258916
C 3.926213 0.913946 1.946555
C 4.018342 1.561356 2.444926
C 4.561966 1.094300 2.588629
C 4.522860 1.370611 2.089434
C 4.286805 1.199574 2.382058
C 4.257398 1.808935 2.802232
C 4.845996 1.244606 2.638686
C 4.693443 1.885670 2.304705
C 4.946341 0.911017 1.927824
C 5.146862 1.541715 2.397518
C 5.465421 0.864971 2.530628
C 5.470164 1.463225 1.986141
C 5.342171 1.355957 2.237185
C 5.316179 1.634036 2.887603
C 5.726122 1.309807 2.828040
C 5.606126 1.658117 2.275391
C 0.005252 1.849956 2.068387
C 0.042547 2.631347 2.390616
C 0.383919 2.041301 2.566358
C 0.380420 2.463664 1.929124
C 0.209923 2.308203 2.206257
C 0.303659 2.850902 2.821760
C 0.676571 2.126955 2.690044
C 0.824945 2.778873 2.109181
C 0.902987 2.021402 1.936938
C 0.864874 2.417568 2.568675
C 1.376255 1.981335 2.590038
C 1.425686 2.556061 2.033535
C 1.304531 2.239390 2.151391
C 1.278777 2.707425 2.807373
C 1.673253 2.172825 2.766961
C 1.675731 2.802752 2.275933
C 2.042397 2.157089 2.084591
C 2.033873 2.559304 2.464849
C 2.455735 1.895258 2.578870
C 2.564598 2.544386 1.971457
C 2.340143 2.322204 2.318568
C 2.266354 2.691070 2.664450
C 2.732203 2.260746 2.723729
C 2.896191 2.774102 2.231191
C 3.003062 2.027029 2.137356
C 2.918640 2.515502 2.601881
C 3.559034 1.961190 2.491903
C 3.506059 2.530769 2.098313
C 3.193335 2.174722 2.405062
C 3.176142 2.690242 2.668548
C 3.647483 2.334004 2.695679
C 3.839717 2.643507 2.132680
C 4.163678 2.046650 1.957548
C 3.944003 2.467939 2.354315
C 4.449999 1.902274 2.585409
C 4.566349 2.415924 1.879288
C 4.364139 2.273530 2.118269
C 4.352177 2.792166 2.834537
C 4.772761 2.212235 2.763934
C 4.748601 2.815804 2.280447
C 5.126392 1.967686 2.006773
C 4.924328 2.448427 2.484272
C 5.416963 1.959600 2.619268
C 5.567380 2.455238 2.012762
C 5.284239 2.274273 2.289556
C 5.191930 2.867717 2.724900
C 5.676719 2.379462 2.796943
C 5.666226 2.723706 2.190938
C 0.148687 2.963150 2.121262
C 0.025971 3.479289 2.461222
C 0.476218 2.970638 2.549421
C 0.566372 3.472967 1.965754
C 0.134571 3.227359 2.319124
C 0.129998 3.725878 2.714134
C 0.685833 3.149296 2.655853
C 0.674444 3.705757 2.303692
C 0.835961 3.049630 2.038435
C 0.974739 3.553677 2.485168
C 1.338233 2.982504 2.632889
C 1.546416 3.590618 2.020237
C 1.184939 3.229053 2.408797
C 1.178590 3.569825 2.754454
C 1.736420 3.251739 2.815366
C 1.859654 3.755840 2.332006
C 2.023076 2.861909 2.006748
C 2.124674 3.536721 2.415258
C 2.507408 3.057934 2.387137
C 2.675840 3.424922 1.967076
C 2.199979 3.156505 2.196660
C 2.203795 3.768646 2.876236
C 2.670039 3.325417 2.728158
C 2.712672 3.869331 2.175552
C 2.913419 3.123726 2.044125
C 2.993513 3.640764 2.522640
C 3.513221 3.139989 2.479395
C 3.462174 3.459800 1.944299
C 3.293256 3.120945 2.241707
C 3.416208 3.709910 2.758165
C 3.834777 3.332510 2.688561
C 3.842292 3.681682 2.337448
C 3.988883 3.098505 2.018251
C 4.098960 3.535529 2.448319
C 4.417883 2.966267 2.498107
C 4.525947 3.339837 2.016821
C 4.230377 3.257429 2.275297
C 4.352158 3.875686 2.723787
C 4.713487 3.327197 2.684202
C 4.801853 3.769741 2.164031
C 5.033384 2.902387 2.008245
C 4.920431 3.590389 2.471137
C 5.612034 2.881638 2.442417
C 5.429328 3.626208 2.061733
C 5.288794 3.213690 2.304102
C 5.172505 3.777401 2.685806
C 5.735340 3.144570 2.590301
C 5.664181 3.750304 2.225370
C 0.158338 4.032469 1.928956
C 0.095119 4.486408 2.555225
C 0.546859 4.002442 2.376177
C 0.353249 4.448394 2.043928
C 0.381000 4.248624 2.239245
C 0.203795 4.717154 2.753675
C 0.813296 4.235475 2.670707
C 0.722286 4.844699 2.269333
C 1.027093 3.878425 2.017482
C 0.878316 4.569997 2.518761
C 1.423098 3.930686 2.450049
C 1.456389 4.548084 1.927261
C 1.352873 4.255812 2.250638
C 1.161349 4.703243 2.695206
C 1.609068 4.229549 2.751347
C 1.851959 4.799358 2.285248
C 2.029749 3.989485 1.964036
C 1.898944 4.556064 2.529233
C 2.557066 4.016754 2.533463
C 2.496757 4.562956 2.168318
C 2.237038 4.351333 2.326511
C 2.209549 4.713690 2.683296
C 2.615013 4.260450 2.794892
C 2.791190 4.862329 2.253163
C 2.918010 3.990085 1.973836
C 2.965902 4.442153 2.570427
C 3.507784 4.129927 2.578573
C 3.352692 4.428202 2.089487
C 3.341116 4.210704 2.262312
C 3.325901 4.634263 2.766766
C 3.744826 4.369112 2.651593
C 3.739797 4.652133 2.167600
C 3.926002 3.903384 1.979830
C 3.935847 4.646036 2.500313
C 4.443779 4.134839 2.561494
C 4.527962 4.380129 1.921815
C 4.277706 4.354399 2.280240
C 4.238668 4.768119 2.836260
C 4.727046 4.217304 2.687850
C 4.796372 4.749061 2.192136
C 4.938136 4.041091 2.101637
C 4.956078 4.425893 2.439681
C 5.473992 4.089639 2.424559
C 5.621269 4.532692 1.996698
C 5.146747 4.181278 2.262815
C 5.249572 4.707486 2.862405
C 5.723625 4.323879 2.812737
C 5.617013 4.714727 2.200547
C 0.043258 5.101027 1.914312
C 0.021885 5.386001 2.409580
C 0.511529 4.961805 2.584206
C 0.407536 5.401164 2.000650
C 0.151774 5.294894 2.152215
C 0.267355 5.694948 2.699955
C 0.809702 5.313371 2.794957
C 0.797510 5.657320 2.157737
C 1.111619 5.056299 2.023672
C 1.089798 5.525854 2.449571
C 1.456907 5.068553 2.603850
C 1.365571 5.451041 2.069482
C 1.269184 5.306154 2.380402
C 1.157425 5.734837 2.781498
C 1.825145 5.109716 2.778859
C 1.861704 5.684143 2.236699
C 1.874856 5.058255 1.928665
C 2.037946 5.654110 2.455483
C 2.574861 4.865280 2.569817
C 2.556418 5.413267 1.977141
C 2.297544 5.239260 2.133891
C 2.382672 5.739315 2.706955
C 2.747136 5.157712 2.639494
C 2.658437 5.722812 2.298121
C 3.032504 5.000636 1.964199
C 2.943030 5.365536 2.537954
C 3.386047 5.122574 2.505007
C 3.502779 5.603601 2.020925
C 3.244606 5.224022 2.221436
C 3.129269 5.746531 2.663596
C 3.666931 5.261742 2.755897
C 3.889924 5.739270 2.164766
C 3.927634 4.893391 2.050268
C 3.997828 5.554155 2.459292
C 4.564824 4.892924 2.567365
C 4.491018 5.555736 1.897022
C 4.147600 5.309973 2.174242
C 4.334375 5.700910 2.847984
C 4.695416 5.402575 2.758264
C 4.628644 5.717041 2.338065
C 4.912282 5.003739 1.986338
C 5.110387 5.493869 2.535170
C 5.560712 4.986099 2.404331
C 5.347313 5.465915 1.934359
C 5.219341 5.244390 2.184200
C 5.328075 5.718566 2.589422
C 5.712285 5.334318 2.621646
C 5.654170 5.641456 2.143035
C 0.058586 0.119654 3.060064
C 0.077663 0.539460 3.353194
C 0.407936 0.037757 3.375949
C 0.559898 0.411365 2.972978
C 0.298628 0.258462 3.042712
C 0.142764 0.737923 3.673359
C 0.763755 0.162779 3.827304
C 0.726450 0.655465 3.322155
C 0.908345 0.009757 3.007626
C 0.972051 0.529569 3.585510
C 1.564829 0.016143 3.597870
C 1.488010 0.430171 2.891462
C 1.200072 0.245675 3.328696
C 1.197412 0.792993 3.661771
C 1.793663 0.215644 3.844649
C 1.852944 0.736280 3.206056
C 1.908843 0.006761 3.039915
C 1.880067 0.511031 3.597522
C 2.454152 0.088047 3.558730
C 2.498180 0.530484 3.077846
C 2.196272 0.196302 3.134363
C 2.127222 0.697282 3.675230
C 2.740047 0.383723 3.690840
C 2.786218 0.670364 3.300612
C 2.937990 0.057631 2.932911
C 3.077548 0.524240 3.355784
C 3.429545 0.029262 3.325967
C 3.484966 0.655547 3.010598
C 3.209120 0.198687 3.351895
C 3.230234 0.845072 3.793805
C 3.750027 0.091018 3.705071
C 3.716139 0.811697 3.164058
C 4.017011 0.130160 3.016139
C 4.044283 0.390258 3.587035
C 4.535367 0.007385 3.653332
C 4.405118 0.507220 3.006831
C 4.391044 0.136214 3.217593
C 4.343613 0.731915 3.797542
C 4.895543 0.226753 3.703411
C 4.771348 0.703381 3.406586
C 4.864532 0.034906 3.028179
C 5.068211 0.573573 3.419560
C 5.552366 0.150776 3.516657
C 5.512357 0.391963 2.987444
C 5.141192 0.204007 3.186122
C 5.193971 0.793863 3.754069
C 5.702082 0.338603 3.854349
C 5.684704 0.826306 3.276302
C 0.078835 0.931577 2.950823
C 0.127376 1.420995 3.489753
C 0.409725 1.039801 3.405721
C 0.487767 1.519768 3.049792
C 0.318913 1.179302 3.145139
C 0.238120 1.773646 3.885631
C 0.744894 1.288699 3.625942
C 0.689091 1.791352 3.213337
C 1.088065 1.061846 3.057384
C 0.957515 1.577870 3.548161
C 1.620851 1.050309 3.544441
C 1.622572 1.554346 3.078221
C 1.276355 1.403662 3.215232
C 1.331552 1.732869 3.835296
C 1.607144 1.208901 3.813750
C 1.668636 1.829612 3.417344
C 2.085981 0.990508 3.099312
C 1.896503 1.542373 3.467629
C 2.601781 0.932701 3.496941
C 2.461282 1.614788 2.901709
C 2.350503 1.218597 3.152712
C 2.374052 1.846562 3.701549
C 2.802097 1.338416 3.678336
C 2.867600 1.682050 3.252420
C 2.921209 1.031653 3.013745
C 3.140297 1.512718 3.418735
C 3.440493 1.150066 3.505476
C 3.560208 1.433961 2.998122
C 3.264318 1.367225 3.173088
C 3.273683 1.768629 3.834758
C 3.807314 1.318031 3.729381
C 3.822927 1.811801 3.178007
C 4.127918 1.042509 2.951707
C 3.916322 1.634245 3.502988
C 4.466854 1.005522 3.357283
C 4.519054 1.439119 3.103910
C 4.249909 1.228048 3.238352
C 4.180349 1.885079 3.696568
C 4.873950 1.305032 3.675999
C 4.843933 1.723864 3.174546
C 5.091848 0.948664 2.945713
C 5.056649 1.658940 3.472825
C 5.592947 1.078557 3.415542
C 5.591996 1.606280 2.914883
C 5.207144 1.298763 3.266829
C 5.161063 1.754699 3.836365
C 5.703102 1.306449 3.647008
C 5.745528 1.784216 3.372230
C 0.020561 2.152601 3.081995
C 0.028148 2.343482 3.476215
C 0.454198 2.085685 3.519014
C 0.459414 2.434277 3.091589
C 0.300267 2.093757 3.242668
C 0.211582 2.873705 3.740957
C 0.706639 2.228859 3.707557
C 0.835484 2.693731 3.246106
C 1.116177 2.019579 2.877679
C 1.034684 2.423814 3.616386
C 1.496440 2.091019 3.465919
C 1.407526 2.421735 3.044983
C 1.225192 2.182528 3.166914
C 1.193501 2.802671 3.750642
C 1.727003 2.217185 3.653524
C 1.787036 2.848546 3.300108
C 1.881821 2.136753 2.996277
C 2.069846 2.471337 3.454294
C 2.518306 2.070943 3.475075
C 2.394805 2.537049 2.902205
C 2.303497 2.141001 3.291173
C 2.150841 2.879224 3.756738
C 2.822289 2.244553 3.910096
C 2.753995 2.862077 3.198907
C 3.017665 1.955290 3.181412
C 2.990760 2.480120 3.457646
C 3.344075 1.935909 3.446495
C 3.626237 2.586441 2.953719
C 3.150632 2.260384 3.200324
C 3.241100 2.665704 3.778398
C 3.858345 2.233493 3.713911
C 3.698703 2.571479 3.331631
C 4.002831 1.974239 2.881082
C 3.917119 2.481828 3.516933
C 4.597289 1.936070 3.508731
C 4.547243 2.385207 2.933754
C 4.121819 2.182013 3.245455
C 4.135980 2.825857 3.837823
C 4.775578 2.241291 3.705489
C 4.802358 2.681718 3.294438
C 5.030011 1.912097 2.941865
C 4.961863 2.631775 3.628096
C 5.515056 1.971406 3.461581
C 5.399145 2.465231 3.074228
C 5.417005 2.205415 3.214251
C 5.292744 2.857986 3.857768
C 5.709541 2.303634 3.749594
C 5.582876 2.692642 3.224094
C 0.029511 2.881151 2.969697
C 0.014856 3.616022 3.557895
C 0.585298 2.938981 3.517778
C 0.408268 3.449937 2.969322
C 0.282506 3.300862 3.278557
C 0.235901 3.778865 3.872243
C 0.652141 3.218814 3.668710
C 0.714793 3.835790 3.296384
C 1.028331 2.990125 3.157455
C 0.948524 3.634996 3.408910
C 1.621421 3.023848 3.502655
C 1.548853 3.364570 3.046814
C 1.173495 3.259469 3.282725
C 1.211267 3.863641 3.694261
C 1.719580 3.308444 3.865747
C 1.833361 3.831487 3.343648
C 1.943580 3.109356 2.996893
C 2.023152 3.440077 3.479449
C 2.378330 2.902586 3.585824
C 2.404165 3.519033 2.878902
C 2.388459 3.227075 3.265432
C 2.180525 3.725251 3.660933
C 2.841111 3.146676 3.821260
C 2.850973 3.730209 3.263403
C 3.078343 2.943238 3.040409
C 2.969237 3.440763 3.557309
C 3.513564 2.932406 3.626326
C 3.476548 3.373482 3.064116
C 3.229122 3.217609 3.127179
C 3.140638 3.766801 3.733044
C 3.590318 3.276713 3.675672
C 3.704734 3.691001 3.300189
C 4.059031 3.003425 2.954241
C 3.918286 3.562371 3.558171
C 4.621683 3.074536 3.569525
C 4.433674 3.482784 2.910393
C 4.290581 3.137373 3.164222
C 4.416242 3.775621 3.708751
C 4.789862 3.180986 3.840825
C 4.736713 3.682905 3.224583
C 5.035279 3.052451 2.956890
C 5.109315 3.494180 3.501796
C 5.619619 2.955713 3.424924
C 5.471249 3.528702 3.087968
C 5.094305 3.175906 3.284681
C 5.335671 3.767102 3.834767
C 5.629025 3.230174 3.892566
C 5.622834 3.701554 3.316191
C 0.109190 4.005275 2.907362
C 0.048140 4.465631 3.527182
C 0.583692 4.044132 3.462187
C 0.533792 4.592164 3.043870
C 0.184744 4.231015 3.360707
C 0.336597 4.869222 3.844414
C 0.725752 4.277214 3.674407
C 0.796678 4.712189 3.114452
C 1.006684 3.868790 2.978794
C 0.951574 4.505058 3.506200
C 1.469822 4.086541 3.528302
C 1.536820 4.371625 3.022579
C 1.338864 4.307706 3.282137
C 1.226290 4.879441 3.735686
C 1.632055 4.249944 3.736614
C 1.615726 4.727716 3.186839
C 2.050949 4.020639 3.057112
C 2.017209 4.432098 3.393490
C 2.412293 3.905385 3.379202
C 2.500443 4.372978 3.079714
C 2.241362 4.228638 3.398051
C 2.303077 4.687892 3.820162
C 2.682593 4.114859 3.695678
C 2.789787 4.757329 3.373737
C 2.981604 4.015411 2.981108
C 2.970423 4.501227 3.440089
C 3.369300 4.001252 3.595733
C 3.526835 4.400226 2.938389
C 3.189167 4.097896 3.300014
C 3.218552 4.682790 3.737707
C 3.816269 4.292827 3.763040
C 3.657918 4.784149 3.397401
C 4.102797 4.015415 3.097912
C 3.925132 4.559685 3.553429
C 4.547582 3.897983 3.457966
C 4.542849 4.607613 2.893102
C 4.265185 4.291792 3.378083
C 4.167020 4.705608 3.680088
C 4.807387 4.137586 3.812225
C 4.683494 4.828256 3.213833
C 5.116617 4.029008 2.924399
C 4.954574 4.588720 3.380056
C 5.604020 4.001967 3.389636
C 5.444396 4.554502 3.071266
C 5.176486 4.309560 3.155656
C 5.190163 4.671288 3.773622
C 5.720240 4.278612 3.818047
C 5.732803 4.706747 3.192447
C 0.005664 5.097973 2.899440
C 0.117499 5.584912 3.424819
C 0.383551 5.062432 3.632235
C 0.495853 5.561167 3.065849
C 0.316502 5.320092 3.213739
C 0.312057 5.598518 3.665614
C 0.785167 5.127699 3.725825
C 0.797753 5.569912 3.276363
C 0.963937 5.103328 3.041925
C 0.932972 5.404082 3.592498
C 1.446468 5.032430 3.421050
C 1.440508 5.577838 2.915898
C 1.208407 5.255621 3.114283
C 1.234139 5.665286 3.824117
C 1.824774 5.258487 3.790029
C 1.763544 5.726679 3.139268
C 2.061717 5.156773 2.945474
C 2.040755 5.632363 3.533210
C 2.663821 5.004841 3.479779
C 2.422548 5.472445 2.852790
C 2.317771 5.344600 3.264689
C 2.224186 5.684378 3.843729
C 2.722377 5.349734 3.810468
C 2.725326 5.672152 3.153009
C 3.132066 4.938848 3.029752
C 3.088601 5.452153 3.394662
C 3.534769 5.163170 3.553951
C 3.435206 5.671731 2.992608
C 3.250630 5.350491 3.131493
C 3.217166 5.684432 3.616036
C 3.761088 5.214427 3.845636
C 3.811580 5.737077 3.374335
C 3.981307 4.958449 3.003101
C 3.950564 5.423185 3.460349
C 4.514631 5.027755 3.391782
C 4.349679 5.443048 2.947435
C 4.099935 5.301893 3.232455
C 4.219171 5.642252 3.789829
C 4.718055 5.341457 3.732985
C 4.799575 5.642628 3.322159
C 4.954808 5.022141 2.915966
C 4.934407 5.433428 3.511928
C 5.515930 4.991283 3.536236
C 5.397002 5.514787 3.002498
C 5.193394 5.335008 3.181643
C 5.294027 5.749201 3.729030
C 5.712926 5.209695 3.722551
C 5.670487 5.696537 3.089411
C 0.094602 0.197782 3.884758
C 0.027621 0.611109 4.334302
C 0.398473 0.128081 4.388084
C 0.602951 0.553742 3.946734
C 0.277674 0.260271 4.129517
C 0.241832 0.637454 4.653204
C 0.809018 0.155242 4.807873
C 0.695269 0.854281 4.207519
C 1.046345 0.091497 3.866878
C 0.989627 0.597815 4.576167
C 1.518892 0.145343 4.643208
C 1.651296 0.483677 3.890593
C 1.193337 0.177203 4.197853
C 1.281888 0.739828 4.818985
C 1.837737 0.286476 4.630692
C 1.825880 0.750804 4.196025
C 2.069323 0.106582 3.871766
C 2.068031 0.498968 4.568129
C 2.428622 0.096581 4.445305
C 2.526062 0.399494 3.907049
C 2.252311 0.234249 4.127679
C 2.225554 0.799422 4.681559
C 2.797233 0.423311 4.738056
C 2.738038 0.680141 4.394498
C 2.970277 0.085451 3.872136
C 2.897195 0.445106 4.457646
C 3.577022 0.072860 4.511005
C 3.430937 0.483974 3.910683
C 3.276161 0.259673 4.390603
C 3.255931 0.745089 4.644704
C 3.795765 0.197981 4.799943
C 3.804617 0.855726 4.169380
C 3.971470 0.138842 4.026318
C 3.906553 0.469193 4.571136
C 4.396557 0.107272 4.477975
C 4.556918 0.608011 4.075175
C 4.309913 0.300931 4.224828
C 4.259534 0.785256 4.888228
C 4.879754 0.247336 4.770909
C 4.740602 0.716028 4.342943
C 4.943795 0.053311 4.171370
C 4.862859 0.473305 4.474396
C 5.626273 0.086777 4.572528
C 5.434388 0.447628 3.979629
C 5.134985 0.248792 4.159964
C 5.344376 0.686932 4.665684
C 5.728994 0.092709 4.824712
C 5.617322 0.827397 4.293662
C 0.051252 1.022191 4.059126
C 0.086887 1.667212 4.409535
C 0.531534 1.019275 4.479675
C 0.582923 1.512874 3.943901
C 0.325245 1.245237 4.131115
C 0.244948 1.762516 4.679471
C 0.753112 1.176015 4.730607
C 0.814665 1.892594 4.159668
C 0.982461 1.065697 3.966651
C 1.100824 1.450082 4.539611
C 1.528254 1.015489 4.435434
C 1.434939 1.568170 4.123557
C 1.166617 1.155747 4.179671
C 1.279888 1.703968 4.855860
C 1.797285 1.267606 4.630741
C 1.739328 1.861417 4.320123
C 2.043236 0.989847 4.171222
C 2.064634 1.632576 4.557598
C 2.435521 0.954553 4.483750
C 2.408694 1.562797 3.954565
C 2.260024 1.162162 4.283801
C 2.299482 1.730986 4.729083
C 2.829334 1.396235 4.685058
C 2.656354 1.708908 4.162148
C 2.924980 1.114994 4.033108
C 3.106129 1.355133 4.517319
C 3.555248 0.942518 4.504165
C 3.520830 1.605974 4.113685
C 3.314797 1.167041 4.352896
C 3.171210 1.717223 4.790062
C 3.892392 1.282677 4.782171
C 3.713853 1.622803 4.321983
C 4.024585 1.129741 4.004767
C 4.096971 1.447601 4.543826
C 4.571825 0.892047 4.519912
C 4.580297 1.438225 3.913617
C 4.249212 1.290958 4.216646
C 4.284330 1.631401 4.794382
C 4.699038 1.320343 4.585033
C 4.732395 1.660592 4.306429
C 5.113027 1.032783 4.051468
C 5.061966 1.452044 4.495464
C 5.620300 1.109862 4.449914
C 5.434562 1.633060 4.044621
C 5.243117 1.189666 4.407541
C 5.305370 1.830944 4.792775
C 5.630983 1.201635 4.778988
C 5.650020 1.801417 4.276514
C 0.016651 2.069179 3.999794
C 0.091619 2.497100 4.412161
C 0.571352 2.028852 4.451051
C 0.475052 2.460929 3.897453
C 0.245190 2.152024 4.201280
C 0.286834 2.651240 4.680771
C 0.737554 2.253567 4.892391
C 0.912424 2.781137 4.209912
C 1.077296 1.960910 4.155180
C 1.037828 2.576544 4.526937
C 1.474494 2.016862 4.484030
C 1.634319 2.357161 4.072544
C 1.252329 2.400940 4.179616
C 1.350280 2.685037 4.688726
C 1.816759 2.181591 4.866682
C 1.759704 2.650469 4.323193
C 2.025380 2.027690 3.989031
C 2.031651 2.571373 4.535476
C 2.440820 1.880582 4.499210
C 2.443960 2.542292 4.057159
C 2.308917 2.296823 4.254031
C 2.294259 2.755710 4.680334
C 2.755804 2.230974 4.852589
C 2.815315 2.729790 4.137134
C 2.906348 1.993013 4.072303
C 3.017438 2.580154 4.453633
C 3.608502 1.988340 4.430270
C 3.479431 2.529137 3.919010
C 3.115922 2.231792 4.271222
C 3.261956 2.759787 4.749066
C 3.735395 2.388325 4.807049
C 3.866664 2.769222 4.267642
C 3.834798 1.999839 3.978338
C 3.995838 2.621102 4.515791
C 4.472524 1.910381 4.556981
C 4.457661 2.474230 4.003233
C 4.408499 2.313669 4.264311
C 4.216321 2.763187 4.744003
C 4.780362 2.322685 4.831567
C 4.656104 2.664881 4.148438
C 4.996952 2.071951 3.928742
C 5.039092 2.375374 4.520305
C 5.503641 2.115664 4.573243
C 5.545979 2.390356 4.011972
C 5.198892 2.262170 4.285694
C 5.336036 2.848517 4.765839
C 5.641623 2.330301 4.757566
C 5.642604 2.661835 4.288702
C 0.161554 2.889568 4.060092
C 0.047209 3.488627 4.351501
C 0.411434 3.084135 4.391170
C 0.460286 3.579393 4.084045
C 0.179662 3.165417 4.138074
C 0.288995 3.673935 4.803663
C 0.764007 3.265010 4.838444
C 0.671166 3.841186 4.204676
C 1.136014 3.082413 3.950082
C 0.966809 3.576681 4.389454
C 1.419372 2.992875 4.439282
C 1.389708 3.541070 3.979582
C 1.114481 3.185583 4.308604
C 1.201449 3.692760 4.806374
C 1.667010 3.228962 4.837749
C 1.870501 3.817106 4.245079
C 2.126234 3.022850 4.015066
C 1.997468 3.550641 4.395903
C 2.408971 3.029063 4.548459
C 2.479749 3.439074 3.901331
C 2.333492 3.322538 4.258916
C 2.223416 3.672926 4.834546
C 2.768719 3.340030 4.852533
C 2.659736 3.855544 4.241375
C 3.112336 2.884948 3.944727
C 3.018541 3.525176 4.522391
C 3.649260 2.959614 4.493731
C 3.455933 3.521953 3.852295
C 3.147506 3.197857 4.266595
C 3.249790 3.782430 4.640493
C 3.683864 3.159239 4.776065
C 3.591975 3.789362 4.241019
C 4.035246 3.063147 4.064132
C 4.142445 3.533415 4.526533
C 4.616077 3.031867 4.442113
C 4.491648 3.485530 3.891154
C 4.269205 3.136034 4.260810
C 4.334192 3.786039 4.668884
C 4.827537 3.359091 4.702907
C 4.780778 3.706190 4.201049
C 5.032176 2.850365 4.078735
C 5.075646 3.430290 4.587523
C 5.503157 2.941619 4.422353
C 5.460068 3.469098 3.928582
C 5.150530 3.124935 4.192205
C 5.212448 3.789274 4.853263
C 5.670256 3.271787 4.734142
C 5.740368 3.660151 4.414513
C 0.115186 4.161803 3.925786
C 0.073132 4.563113 4.641782
C 0.455539 4.065495 4.374444
C 0.521895 4.621541 3.987914
C 0.237980 4.212179 4.232207
C 0.274680 4.818013 4.668883
C 0.714861 4.197296 4.857231
C 0.694270 4.854403 4.176467
C 0.935664 4.040693 3.970381
C 0.981659 4.428206 4.413388
C 1.340987 3.948387 4.491674
C 1.424059 4.442360 4.094253
C 1.272533 4.169435 4.309262
C 1.232880 4.878334 4.740644
C 1.726161 4.183712 4.663801
C 1.725448 4.879640 4.269256
C 2.075860 4.135964 4.076580
C 2.081482 4.604893 4.500974
C 2.459095 4.120435 4.412835
C 2.377802 4.424136 4.019615
C 2.246608 4.320240 4.269479
C 2.238887 4.639174 4.789247
C 2.641107 4.338682 4.827296
C 2.846749 4.687720 4.261862
C 3.076561 3.999783 4.042006
C 3.006194 4.485381 4.434101
C 3.453838 3.996818 4.627149
C 3.465480 4.459753 3.924406
C 3.287500 4.446301 4.207091
C 3.306744 4.890528 4.841215
C 3.716592 4.196687 4.745801
C 3.643692 4.835224 4.325627
C 4.007384 4.042995 3.895175
C 4.093061 4.581331 4.531499
C 4.421712 4.146615 4.510136
C 4.415250 4.588939 3.983618
C 4.203596 4.269743 4.307211
C 4.343689 4.689200 4.719368
C 4.833042 4.159482 4.820135
C 4.662024 4.770377 4.283121
C 5.132726 3.978887 3.910688
C 4.905821 4.403357 4.470344
C 5.351196 4.028547 4.467503
C 5.437967 4.515002 4.039650
C 5.258687 4.254501 4.228754
C 5.254991 4.688805 4.853716
C 5.713685 4.184023 4.913538
C 5.616105 4.876209 4.223498
C 0.111767 5.031552 4.058152
C 0.064100 5.568721 4.467064
C 0.540008 4.955695 4.603309
C 0.544408 5.600774 3.945598
C 0.293559 5.148369 4.288416
C 0.142359 5.574425 4.750442
C 0.682183 5.132095 4.853616
C 0.863840 5.723025 4.216676
C 0.987980 4.966271 3.934871
C 1.005478 5.623191 4.475066
C 1.391433 5.055744 4.493350
C 1.582722 5.443242 4.046724
C 1.200285 5.324676 4.222247
C 1.134153 5.678192 4.829701
C 1.692013 5.240589 4.876745
C 1.771718 5.743946 4.280221
C 1.931725 5.038332 3.961430
C 2.063731 5.474659 4.480981
C 2.540835 4.831558 4.498253
C 2.530292 5.536657 4.064677
C 2.267035 5.208262 4.179450
C 2.182995 5.737192 4.648074
C 2.844975 5.208715 4.741270
C 2.642667 5.734277 4.256355
C 2.889003 4.934915 4.055982
C 3.013709 5.517870 4.450079
C 3.418546 5.006704 4.476081
C 3.581193 5.511273 3.878430
C 3.305368 5.213317 4.103970
C 3.145274 5.746369 4.680516
C 3.900175 5.221140 4.747538
C 3.733836 5.669651 4.392547
C 4.001436 4.989968 4.129284
C 3.999354 5.479086 4.532536
C 4.531890 5.024095 4.590195
C 4.432187 5.466534 3.999380
C 4.134333 5.238639 4.162410
C 4.182959 5.727123 4.659150
C 4.772399 5.195287 4.805324
C 4.598485 5.741207 4.154207
C 4.956670 4.881598 4.067937
C 4.971118 5.568863 4.395831
C 5.431532 5.071751 4.513931
C 5.592245 5.496179 3.983617
C 5.243441 5.169070 4.271087
C 5.084571 5.738177 4.738959
C 5.717801 5.288105 4.636373
C 5.562049 5.733812 4.088944
C 0.010857 0.019611 4.893635
C 0.011032 0.423205 5.591527
C 0.516649 0.047967 5.524090
C 0.556078 0.374427 4.993152
C 0.185308 0.288133 5.209500
C 0.223988 0.751175 5.741345
C 0.792844 0.125065 5.564507
C 0.630069 0.795441 5.275772
C 0.962987 0.053902 5.037925
C 1.107002 0.420915 5.467890
C 1.482491 0.017697 5.513318
C 1.542870 0.514526 4.907600
C 1.274287 0.205671 5.107469
C 1.195096 0.642323 5.665007
C 1.898865 0.146330 5.713655
C 1.666468 0.847631 5.268486
C 2.088789 0.080862 4.975288
C 2.076475 0.605230 5.564191
C 2.368977 0.015778 5.536355
C 2.480698 0.542644 5.049405
C 2.330240 0.278010 5.228739
C 2.238231 0.872877 5.674895
C 2.779925 0.333437 5.748274
C 2.724048 0.565968 5.270240
C 3.160994 0.013942 5.004596
C 3.027472 0.481410 5.472600
C 3.448769 0.044130 5.601288
C 3.458469 0.548699 5.170979
C 3.199364 0.342000 5.246741
C 3.218582 0.684888 5.644192
C 3.772368 0.232967 5.692018
C 3.677366 0.763417 5.219338
C 4.066371 0.124358 5.040133
C 3.964666 0.552810 5.541717
C 4.359135 0.101877 5.482864
C 4.621176 0.612628 4.983891
C 4.093335 0.340468 5.319220
C 4.161294 0.737226 5.721160
C 4.711532 0.177633 5.691404
C 4.807302 0.862059 5.263966
C 5.100600 0.054611 4.974240
C 4.921676 0.412305 5.498728
C 5.638518 0.115246 5.434143
C 5.578497 0.508866 4.875514
C 5.274953 0.194601 5.376778
C 5.374860 0.828230 5.657337
C 5.720324 0.083985 5.726618
C 5.693285 0.751083 5.398506
C 0.097628 1.065645 5.052384
C 0.040066 1.590896 5.545313
C 0.583293 0.955981 5.504750
C 0.456403 1.597014 5.012743
C 0.202027 1.198194 5.315814
C 0.267782 1.523114 5.717762
C 0.838857 1.139597 5.728886
C 0.673428 1.836538 5.226252
C 1.076617 0.976993 5.021108
C 1.067599 1.410837 5.562060
C 1.485339 1.087773 5.490909
C 1.549770 1.498372 4.975242
C 1.156577 1.155583 5.308101
C 1.371847 1.732029 5.635601
C 1.665426 1.213021 5.702759
C 1.748775 1.730709 5.117762
C 2.111895 0.909538 5.032874
C 1.895477 1.454455 5.503944
C 2.416519 1.058605 5.518284
C 2.495417 1.505982 4.889030
C 2.282149 1.245266 5.298195
C 2.337733 1.791903 5.735699
C 2.668346 1.072655 5.673432
C 2.675424 1.647601 5.125393
C 2.947742 0.994182 4.933537
C 2.930983 1.446368 5.436744
C 3.632762 0.989364 5.558642
C 3.334164 1.438097 4.911104
C 3.301548 1.319171 5.223884
C 3.379438 1.730501 5.727516
C 3.638276 1.266478 5.606518
C 3.799208 1.804025 5.310981
C 3.913831 0.962493 4.988306
C 3.852011 1.459286 5.409791
C 4.563190 0.973236 5.400659
C 4.566821 1.521243 5.101115
C 4.279025 1.242102 5.320893
C 4.427907 1.681593 5.620700
C 4.567828 1.215831 5.710619
C 4.804945 1.808380 5.358751
C 5.017772 1.010585 5.081330
C 5.053776 1.429024 5.594872
C 5.563580 1.049582 5.629104
C 5.448101 1.528552 4.999872
C 5.242476 1.321634 5.146950
C 5.115531 1.780496 5.695915
C 5.721418 1.400993 5.675635
C 5.703349 1.655535 5.321754
C 0.069744 1.822810 5.023600
C 0.073385 2.529498 5.368581
C 0.502342 1.988204 5.561599
C 0.570914 2.524574 4.955059
C 0.182224 2.192571 5.259196
C 0.230514 2.699714 5.655571
C 0.710377 2.250901 5.590505
C 0.718458 2.760502 5.341207
C 1.090477 1.996926 4.884602
C 0.899018 2.570706 5.552635
C 1.450791 1.906387 5.367103
C 1.548291 2.529910 5.088882
C 1.246928 2.242389 5.196695
C 1.271277 2.568416 5.652608
C 1.808619 2.349798 5.672025
C 1.714016 2.742442 5.393591
C 2.113599 1.883425 5.026861
C 2.061340 2.512701 5.481893
C 2.691691 1.980982 5.439544
C 2.443759 2.522465 4.969637
C 2.293360 2.262933 5.311651
C 2.233123 2.828296 5.748072
C 2.747013 2.158099 5.669584
C 2.684823 2.741120 5.351494
C 2.935442 1.863902 4.977995
C 2.995996 2.410170 5.507097
C 3.589740 1.999447 5.492244
C 3.457704 2.590447 4.980165
C 3.244227 2.196657 5.354918
C 3.208756 2.708557 5.541639
C 3.677348 2.101257 5.747238
C 3.716907 2.784219 5.248626
C 4.015369 1.898058 4.912900
C 4.116105 2.449862 5.536090
C 4.450755 1.949681 5.570926
C 4.556577 2.430596 4.994992
C 4.184060 2.149482 5.268192
C 4.145725 2.807048 5.668616
C 4.762671 2.086401 5.706228
C 4.685700 2.760496 5.382644
C 4.934905 2.007603 4.889156
C 5.016736 2.588535 5.524693
C 5.480558 1.918358 5.408655
C 5.439805 2.592235 5.053125
C 5.139794 2.313166 5.323469
C 5.247890 2.803980 5.706178
C 5.618103 2.173547 5.555881
C 5.676898 2.770791 5.097339
C 0.055270 3.030397 5.119476
C 0.056563 3.517878 5.472896
C 0.465185 3.026076 5.673191
C 0.432999 3.434211 5.129193
C 0.302983 3.184852 5.179854
C 0.165579 3.781183 5.625323
C 0.714226 3.256986 5.629131
C 0.855992 3.665209 5.342802
C 1.020040 2.999772 4.880722
C 1.085429 3.401899 5.459152
C 1.599484 2.989089 5.594071
C 1.490001 3.450472 4.958303
C 1.125688 3.364612 5.177474
C 1.124943 3.738816 5.573583
C 1.822924 3.297282 5.735902
C 1.743101 3.616445 5.267405
C 1.927331 2.878078 4.958287
C 2.111826 3.590825 5.522931
C 2.464225 2.989588 5.591156
C 2.459708 3.449858 4.888567
C 2.172841 3.218512 5.232219
C 2.247555 3.946005 5.692642
C 2.770190 3.270055 5.724647
C 2.680748 3.658134 5.140061
C 3.086714 2.989718 4.970589
C 3.063052 3.456500 5.583875
C 3.477107 2.847252 5.574141
C 3.448631 3.520985 4.950480
C 3.178901 3.284792 5.197430
C 3.265138 3.674246 5.736916
C 3.718813 3.253806 5.721680
C 3.666474 3.737012 5.189556
C 3.913380 3.052041 4.989393
C 3.907471 3.438833 5.512658
C 4.631134 2.973842 5.613666
C 4.445059 3.599412 4.933890
C 4.122502 3.230895 5.276219
C 4.209921 3.649288 5.723441
C 4.588446 3.238742 5.723444
C 4.660052 3.868277 5.165159
C 4.950559 3.024513 4.911908
C 4.918241 3.466367 5.544082
C 5.431552 2.970136 5.531354
C 5.425077 3.391899 4.952233
C 5.182507 3.311408 5.172817
C 5.259582 3.640904 5.748645
C 5.642705 3.124713 5.726474
C 5.745533 3.868737 5.261310
C 0.088808 4.000438 4.911407
C 0.003068 4.435074 5.629607
C 0.465938 4.064609 5.501428
C 0.415836 4.453223 5.097674
C 0.263610 4.233167 5.310614
C 0.239221 4.830372 5.629635
C 0.623453 4.137993 5.744622
C 0.716547 4.825301 5.173264
C 1.127798 3.953087 4.972892
C 0.884758 4.496614 5.558680
C 1.468566 3.905349 5.422277
C 1.400018 4.473013 5.116028
C 1.111555 4.220441 5.344223
C 1.106344 4.752966 5.724950
C 1.820158 4.323648 5.710363
C 1.794244 4.671154 5.325354
C 2.038919 4.001399 5.095080
C 2.036191 4.625983 5.606886
C 2.404979 3.889235 5.473284
C 2.497120 4.485362 5.076078
C 2.339377 4.146433 5.303932
C 2.388299 4.683976 5.748225
C 2.755859 4.268544 5.605638
C 2.661666 4.764552 5.169945
C 3.141991 3.977478 4.924177
C 2.953443 4.507988 5.453640
C 3.475068 4.002055 5.391823
C 3.434753 4.545886 4.980270
C 3.332552 4.347183 5.303804
C 3.198686 4.647561 5.671451
C 3.801876 4.114839 5.692560
C 3.648784 4.906571 5.245602
C 4.009171 3.977503 4.834029
C 3.956694 4.581042 5.554260
C 4.490622 4.068863 5.565289
C 4.463979 4.551375 5.136009
C 4.201659 4.149569 5.172857
C 4.183070 4.778953 5.668204
C 4.629699 4.315076 5.701125
C 4.719339 4.663070 5.225231
C 5.044704 3.938314 5.097881
C 5.037483 4.573559 5.503374
C 5.540866 4.018842 5.512757
C 5.617712 4.510933 5.127433
C 5.166750 4.360965 5.311411
C 5.120616 4.866383 5.736798
C 5.687209 4.209745 5.730968
C 5.679459 4.779428 5.050006
C 0.042309 4.950285 5.063641
C 0.131441 5.488497 5.668781
C 0.495506 4.983413 5.441439
C 0.565133 5.382883 5.015420
C 0.117556 5.193280 5.346122
C 0.401045 5.690922 5.721975
C 0.856221 5.231695 5.688870
C 0.779182 5.728709 5.074663
C 0.940014 4.959786 4.991691
C 1.098951 5.473873 5.605838
C 1.499249 4.887867 5.460078
C 1.583341 5.551596 5.001644
C 1.255749 5.334128 5.380744
C 1.094033 5.728943 5.565885
C 1.858652 5.296061 5.715555
C 1.835934 5.690970 5.082999
C 1.872042 5.009866 5.008398
C 2.107888 5.493382 5.512053
C 2.436360 4.908095 5.560168
C 2.530770 5.487893 4.928814
C 2.233316 5.235536 5.205381
C 2.435685 5.618987 5.633529
C 2.643280 5.327402 5.685398
C 2.860938 5.737421 5.128595
C 2.979242 5.103406 5.053208
C 3.027699 5.612091 5.504601
C 3.430777 4.985358 5.571832
C 3.350466 5.616115 4.958299
C 3.169789 5.200695 5.263568
C 3.298164 5.684073 5.731150
C 3.695635 5.171889 5.740841
C 3.725126 5.572910 5.211596
C 4.063943 4.990681 5.135823
C 4.008629 5.403837 5.429226
C 4.413529 5.066967 5.500986
C 4.485678 5.554905 4.944566
C 4.224615 5.283165 5.233570
C 4.184542 5.579433 5.653653
C 4.696634 5.152030 5.724404
C 4.695519 5.620595 5.235405
C 5.069218 4.989095 5.094088
C 5.092050 5.476007 5.361978
C 5.359258 4.944268 5.552289
C 5.402566 5.389157 4.966563
C 5.391235 5.201895 5.258507
C 5.272645 5.655425 5.675754
C 5.649298 5.397448 5.704992
C 5.635160 5.587667 5.217707
1728
Frame 9/10
C 0.227713 0.094971 0.146474
C 0.139687 0.583716 0.584440
C 0.443180 0.114596 0.679198
C 0.532562 0.651943 0.017053
C 0.084682 0.434469 0.298661
C 0.091125 0.824406 0.728920
C 0.750577 0.205277 0.908808
C 0.639999 0.776565 0.242815
C 0.847498 0.118557 0.150830
C 0.963306 0.370669 0.446446
C 1.515653 0.127057 0.460491
C 1.317923 0.432835 0.051645
C 1.207148 0.214106 0.203823
C 1.173879 0.682741 0.806294
C 1.802780 0.340640 0.789120
C 1.697463 0.750826 0.126815
C 2.057301 0.044861 0.107934
C 2.012475 0.489338 0.644943
C 2.474286 0.040911 0.496773
C 2.404973 0.605053 0.056952
C 2.192134 0.219713 0.314475
C 2.219723 0.630000 0.827239
C 2.794878 0.206596 0.695684
C 2.677027 0.642216 0.184539
C 3.063326 0.054256 0.019203
C 3.026655 0.563186 0.618172
C 3.551095 0.018387 0.379837
C 3.585498 0.464950 0.019214
C 3.291739 0.373729 0.075820
C 3.322940 0.796019 0.725173
C 3.810725 0.239982 0.652371
C 3.705881 0.936723 0.233913
C 4.219712 0.097616 0.019969
C 3.852314 0.537733 0.550885
C 4.562573 0.119711 0.455586
C 4.423308 0.563025 0.108278
C 4.280972 0.337193 0.183559
C 4.238836 0.808842 0.848025
C 4.776297 0.330479 0.750166
C 4.752794 0.651581 0.229751
C 4.814318 0.005919 0.063632
C 5.042248 0.452398 0.439186
C 5.409715 0.073406 0.620104
C 5.494865 0.345727 0.185236
C 5.153146 0.163657 0.349297
C 5.231883 0.673038 0.875419
C 5.660578 0.301754 0.794193
C 5.640606 0.705739 0.213870
C 0.004472 0.852434 0.031810
C 0.123406 1.485924 0.546939
C 0.422286 0.934358 0.333614
C 0.414164 1.463328 0.170689
C 0.203279 1.177557 0.195375
C 0.153378 1.819636 0.586849
C 0.717190 1.132733 0.761895
C 0.782999 1.739168 0.383271
C 1.040283 0.906754 0.011817
C 0.903151 1.457659 0.487561
C 1.634485 1.013688 0.628467
C 1.492249 1.495105 0.049371
C 1.172314 1.178744 0.355261
C 1.122268 1.720696 0.649831
C 1.611052 1.282367 0.738681
C 1.708315 1.782039 0.372685
C 1.899597 1.095246 0.034456
C 1.995854 1.541835 0.461719
C 2.419323 1.023045 0.624034
C 2.529318 1.548144 0.055315
C 2.348119 1.285339 0.213631
C 2.226580 1.655356 0.684174
C 2.754265 1.378771 0.822576
C 2.664618 1.886440 0.197813
C 3.040613 1.018922 0.123461
C 3.056008 1.567312 0.519069
C 3.484340 1.054743 0.453117
C 3.651819 1.319398 0.003735
C 3.301961 1.226968 0.091889
C 3.183752 1.848228 0.876659
C 3.732347 1.322844 0.645879
C 3.868183 1.661532 0.181842
C 3.994331 1.151069 0.065124
C 4.062717 1.490416 0.535880
C 4.539578 0.889956 0.603830
C 4.544366 1.484913 0.141170
C 4.400234 1.146552 0.259267
C 4.322480 1.638422 0.633728
C 4.751617 1.283855 0.691303
C 4.768031 1.741958 0.166924
C 4.904623 1.003689 0.018982
C 5.053599 1.372503 0.397996
C 5.465204 1.050749 0.537341
C 5.362884 1.477298 0.040359
C 5.281739 1.113224 0.183625
C 5.197408 1.738522 0.683609
C 5.720523 1.346410 0.782955
C 5.668502 1.784443 0.193770
C 0.137974 1.912878 0.122278
C 0.001164 2.616904 0.486495
C 0.441192 1.842757 0.512303
C 0.626560 2.577927 0.096739
C 0.194750 2.258051 0.244529
C 0.322557 2.603240 0.728592
C 0.644881 2.257323 0.707685
C 0.600925 2.866955 0.297946
C 1.117212 2.162062 0.037592
C 1.068566 2.566860 0.474350
C 1.458722 1.986442 0.499455
C 1.644267 2.649154 0.027596
C 1.193195 2.180761 0.319970
C 1.135738 2.673429 0.726925
C 1.675338 2.320549 0.762608
C 1.924357 2.785180 0.260639
C 2.052407 2.072211 0.067909
C 2.029180 2.520012 0.463825
C 2.650309 1.998747 0.609062
C 2.556465 2.393624 0.153757
C 2.294854 2.186936 0.331181
C 2.252052 2.856569 0.733100
C 2.625370 2.334692 0.776712
C 2.792804 2.782827 0.191975
C 3.114801 2.007642 0.102927
C 2.875035 2.444591 0.646785
C 3.565915 1.942424 0.620803
C 3.439143 2.618130 0.157133
C 3.354766 2.281109 0.291053
C 3.346126 2.783643 0.773085
C 3.661389 2.325310 0.852896
C 3.825515 2.701797 0.253145
C 4.133583 2.030294 0.049027
C 4.084036 2.546271 0.410214
C 4.405545 1.885227 0.530525
C 4.494498 2.738467 0.110041
C 4.336034 2.214556 0.162821
C 4.158216 2.685449 0.706776
C 4.791700 2.250998 0.817741
C 4.773520 2.588001 0.272916
C 4.911282 1.965790 0.003675
C 4.999170 2.530149 0.539781
C 5.445316 1.848445 0.572716
C 5.444410 2.526988 0.134702
C 5.148551 2.289476 0.265685
C 5.249114 2.646131 0.673130
C 5.729797 2.329768 0.553751
C 5.624233 2.699618 0.373722
C 0.137426 3.059721 0.094917
C 0.019574 3.729161 0.490936
C 0.603570 2.968734 0.548727
C 0.549959 3.491066 0.005580
C 0.202916 3.234159 0.390007
C 0.188116 3.789904 0.789060
C 0.876500 3.303420 0.720108
C 0.812729 3.871828 0.303120
C 0.870847 2.846465 0.057717
C 1.081680 3.469853 0.617594
C 1.539214 3.066826 0.307949
C 1.514575 3.625187 0.010128
C 1.101399 3.237588 0.198181
C 1.276283 3.716172 0.727217
C 1.832340 3.244654 0.591724
C 1.769696 3.774209 0.202886
C 1.902370 2.897609 0.009369
C 1.930444 3.527577 0.389432
C 2.639173 3.050926 0.535528
C 2.500909 3.604871 0.074462
C 2.176165 3.278811 0.355388
C 2.416048 3.812048 0.857210
C 2.762494 3.165435 0.779759
C 2.562102 3.635804 0.349489
C 3.035041 3.112915 0.042920
C 2.966886 3.343096 0.491769
C 3.495120 3.014805 0.463992
C 3.512760 3.373855 0.050626
C 3.160801 3.320546 0.264230
C 3.289095 3.867315 0.709418
C 3.885963 3.193922 0.774140
C 3.791038 3.771059 0.207061
C 4.000255 3.029213 0.021644
C 3.874848 3.511364 0.545208
C 4.538264 2.910955 0.600640
C 4.383551 3.514998 0.119797
C 4.251269 3.281125 0.096632
C 4.157484 3.716035 0.784778
C 4.722527 3.318323 0.788354
C 4.843503 3.696636 0.128604
C 4.994745 3.086541 0.055336
C 4.980003 3.406889 0.399125
C 5.551825 3.062059 0.426604
C 5.483988 3.371025 0.074173
C 5.157983 3.324776 0.179090
C 5.284894 3.781317 0.748644
C 5.747698 3.209689 0.684153
C 5.642076 3.641889 0.358238
C 0.054546 3.865958 0.124283
C 0.120859 4.520249 0.342172
C 0.527759 3.841453 0.347811
C 0.421756 4.464901 0.015308
C 0.248746 4.228854 0.138965
C 0.352334 4.676278 0.876320
C 0.629655 4.135003 0.739474
C 0.679613 4.642760 0.358001
C 1.065733 3.923047 0.178376
C 1.114405 4.432476 0.426345
C 1.482905 3.934762 0.622872
C 1.278873 4.484172 0.123101
C 1.364900 4.262277 0.298869
C 1.269909 4.726154 0.903411
C 1.732300 4.287834 0.889303
C 1.825808 4.729464 0.123635
C 2.134777 3.842011 0.089271
C 2.027974 4.501229 0.349336
C 2.398911 3.988059 0.398979
C 2.443016 4.430173 0.105235
C 2.131770 4.233294 0.184454
C 2.154782 4.910895 0.645191
C 2.689254 4.212041 0.720332
C 2.923640 4.661164 0.313679
C 3.053081 3.930251 0.141793
C 2.971330 4.486779 0.608944
C 3.583080 3.902667 0.448305
C 3.439910 4.717040 0.064152
C 3.265831 4.234745 0.141624
C 3.047143 4.772175 0.890077
C 3.855864 4.142653 0.646427
C 3.768759 4.851156 0.200353
C 3.808787 4.099261 0.016303
C 3.930601 4.430697 0.538016
C 4.485800 4.076501 0.398087
C 4.345266 4.382794 0.003583
C 4.275973 4.137800 0.193923
C 4.259749 4.958903 0.759453
C 4.796915 4.401546 0.752775
C 4.605081 4.703740 0.347141
C 5.050285 4.018186 0.058470
C 4.934392 4.537384 0.345423
C 5.613267 3.963489 0.469657
C 5.339735 4.503122 0.108635
C 5.166396 4.303652 0.254167
C 5.236070 4.716250 0.880513
C 5.671855 4.155465 0.752012
C 5.638676 4.827878 0.266542
C 0.069982 4.840665 0.162008
C 0.127055 5.608633 0.362998
C 0.538662 5.146973 0.476308
C 0.331955 5.474498 0.112565
C 0.135508 5.168871 0.408878
C 0.199324 5.744155 0.656322
C 0.857579 5.343844 0.698921
C 0.734541 5.611205 0.099353
C 0.887565 4.920593 0.087452
C 0.957150 5.647557 0.415141
C 1.520942 5.056245 0.595630
C 1.620255 5.533496 0.021084
C 1.166901 5.234538 0.245557
C 1.148819 5.733386 0.621157
C 1.700865 5.269025 0.840241
C 1.696385 5.648949 0.372990
C 1.913219 5.025462 0.191009
C 1.891687 5.399010 0.540400
C 2.393696 4.943108 0.523713
C 2.521152 5.424985 0.062115
C 2.159269 5.139283 0.173653
C 2.376299 5.638490 0.878301
C 2.798569 5.364438 0.797992
C 2.917805 5.733547 0.281291
C 2.912712 4.892684 0.126766
C 2.993837 5.415323 0.552505
C 3.483250 4.997619 0.603225
C 3.430543 5.436770 0.048183
C 3.288727 5.163144 0.129087
C 3.435385 5.701268 0.595606
C 3.908833 5.203936 0.766657
C 3.904950 5.650409 0.209895
C 4.060073 4.875997 0.041833
C 4.012441 5.391355 0.328664
C 4.403352 4.895459 0.526584
C 4.509645 5.376685 0.055425
C 4.385844 5.252434 0.364844
C 4.016969 5.747414 0.890958
C 4.778927 5.102231 0.781023
C 4.821833 5.616653 0.328022
C 4.887397 5.015283 0.040388
C 4.977105 5.398839 0.441002
C 5.372149 4.988890 0.480480
C 5.411031 5.348770 0.026219
C 5.314394 5.253235 0.391424
C 5.173710 5.595116 0.661057
C 5.728966 5.071774 0.792295
C 5.672031 5.649366 0.105202
C 0.021420 0.069063 0.753315
C 0.063861 0.328592 1.575198
C 0.331735 0.017119 1.538522
C 0.458195 0.383809 1.058930
C 0.332700 0.307945 1.302802
C 0.239153 0.595056 1.650777
C 0.657796 0.308797 1.782810
C 0.894423 0.816317 1.199766
C 1.090319 0.060300 0.952267
C 1.117730 0.350320 1.555155
C 1.682623 0.019503 1.542321
C 1.352996 0.426572 0.990652
C 1.266230 0.185936 1.231968
C 1.324202 0.796655 1.787431
C 1.833290 0.387798 1.820474
C 1.758437 0.666492 1.139491
C 1.865151 0.049527 0.957197
C 2.171295 0.486387 1.422495
C 2.628877 0.005553 1.461988
C 2.373408 0.429152 0.974763
C 2.153251 0.305476 1.217748
C 2.395997 0.709030 1.687824
C 2.736218 0.335073 1.770783
C 2.659471 0.785144 1.125676
C 3.046499 0.101847 0.833320
C 2.980782 0.446877 1.594579
C 3.568412 0.032215 1.555421
C 3.681057 0.466207 1.066872
C 3.128429 0.192127 1.322387
C 3.304046 0.820581 1.669174
C 3.787877 0.401509 1.690641
C 3.882230 0.823772 1.257996
C 4.083450 0.207621 1.000539
C 3.980233 0.366198 1.473438
C 4.461992 0.175897 1.516857
C 4.397312 0.526899 0.976952
C 4.269527 0.185331 1.283774
C 4.351257 0.858595 1.634003
C 4.617446 0.211515 1.744659
C 4.793211 0.606877 1.336510
C 5.001454 0.145802 1.001260
C 5.117858 0.377973 1.484960
C 5.518345 0.032588 1.532266
C 5.388414 0.452112 0.823994
C 5.420555 0.304206 1.165038
C 5.173360 0.675129 1.655285
C 5.705928 0.323867 1.825371
C 5.674979 0.845756 1.363317
C 0.037970 1.078393 1.092391
C 0.005888 1.512540 1.402198
C 0.597631 0.999388 1.377495
C 0.445748 1.605502 0.911981
C 0.336442 1.162057 1.388189
C 0.171782 1.805972 1.800413
C 0.580043 1.341371 1.839521
C 0.887414 1.653466 1.247404
C 0.979330 1.097834 1.070345
C 1.131283 1.474279 1.576668
C 1.582694 0.972919 1.392070
C 1.493892 1.557550 1.129153
C 1.311525 1.173694 1.373572
C 1.237915 1.738970 1.759375
C 1.746033 1.337860 1.789304
C 1.823211 1.915014 1.332681
C 1.952481 0.864583 1.040490
C 2.088223 1.593008 1.434392
C 2.573984 0.963995 1.374446
C 2.380151 1.451639 0.921493
C 2.189215 1.238137 1.224950
C 2.345726 1.571978 1.788798
C 2.829030 1.145357 1.653418
C 2.720596 1.803925 1.359182
C 2.893221 1.081337 1.057811
C 2.930870 1.434974 1.583754
C 3.634730 0.941734 1.585381
C 3.624340 1.520141 0.876140
C 3.263577 1.213365 1.235352
C 3.258730 1.839070 1.776720
C 3.737888 1.350712 1.780711
C 3.752386 1.818820 1.330888
C 4.062900 1.087850 0.998970
C 4.040474 1.559435 1.440717
C 4.504825 1.070666 1.480406
C 4.393065 1.490631 0.946493
C 4.292846 1.156093 1.163271
C 4.135299 1.737946 1.776853
C 4.658399 1.215241 1.833403
C 4.747572 1.672815 1.195520
C 4.906468 0.941989 1.083779
C 4.880652 1.532202 1.479551
C 5.380665 0.976115 1.516605
C 5.379497 1.404898 0.987890
C 5.430925 1.196638 1.333680
C 5.292231 1.890702 1.665401
C 5.642847 1.157832 1.651199
C 5.735772 1.603126 1.169020
C 0.035258 1.963229 0.949196
C 0.003022 2.577357 1.456634
C 0.377671 1.963379 1.417279
C 0.416016 2.505359 1.077843
C 0.218107 2.101502 1.178470
C 0.156887 2.851575 1.810025
C 0.881047 2.202277 1.715563
C 0.814419 2.773008 1.133628
C 0.994929 1.902658 1.067324
C 0.904105 2.359338 1.462808
C 1.580969 1.882235 1.555768
C 1.566550 2.609903 0.967868
C 1.232036 2.260291 1.147444
C 1.040976 2.761606 1.775193
C 1.699664 2.102644 1.772029
C 1.864030 2.679546 1.229837
C 1.863398 2.133698 1.000842
C 2.025002 2.504197 1.531387
C 2.512823 1.949314 1.574070
C 2.600219 2.567840 0.993171
C 2.219622 2.310646 1.220853
C 2.260480 2.633748 1.704923
C 2.765214 2.338850 1.647593
C 2.778223 2.836544 1.294120
C 3.000872 2.168490 0.976031
C 2.995392 2.346809 1.390113
C 3.471825 1.904320 1.602410
C 3.314418 2.461530 0.947837
C 3.189466 2.159110 1.255354
C 3.311385 2.782933 1.707902
C 3.673740 2.381128 1.630212
C 3.651776 2.740456 1.084701
C 4.037029 1.886241 0.926945
C 3.999727 2.519853 1.434271
C 4.517709 2.079881 1.429603
C 4.415112 2.398585 1.066366
C 4.117807 2.234986 1.253842
C 4.212963 2.791901 1.844774
C 4.798640 2.330993 1.649810
C 4.867413 2.878537 1.199497
C 4.907749 1.980607 0.929518
C 5.121894 2.484323 1.638207
C 5.449884 2.045462 1.479713
C 5.555952 2.464039 1.087396
C 5.161519 2.150628 1.209222
C 5.113095 2.704160 1.794538
C 5.585102 2.128256 1.784717
C 5.692539 2.707912 1.126080
C 0.116974 2.899532 0.871270
C 0.115564 3.431815 1.382902
C 0.498401 2.822588 1.418808
C 0.479095 3.533446 0.945815
C 0.355505 3.368788 1.224469
C 0.283679 3.654617 1.724838
C 0.855227 3.312459 1.767220
C 0.848389 3.850981 1.256268
C 1.119470 2.935296 0.972498
C 1.019152 3.321202 1.547854
C 1.557381 3.156363 1.371415
C 1.457770 3.589556 0.920368
C 1.235826 3.306436 1.368972
C 1.177452 3.683465 1.848734
C 1.675824 3.262543 1.680209
C 1.786544 3.905221 1.237121
C 1.981221 2.990325 1.176360
C 2.039473 3.578663 1.446974
C 2.513048 2.990353 1.563565
C 2.524432 3.383806 1.129424
C 2.285916 3.091910 1.309460
C 2.344465 3.719048 1.604907
C 2.754725 3.076848 1.750826
C 2.806749 3.759430 1.067903
C 2.931845 2.996472 1.103879
C 3.130022 3.319981 1.513848
C 3.629841 3.090808 1.397568
C 3.531959 3.468066 1.025117
C 3.187252 3.183140 1.166391
C 3.294566 3.737341 1.720158
C 3.848583 3.337069 1.741001
C 3.779527 3.650291 1.317836
C 4.023488 2.963432 1.118213
C 3.986765 3.610151 1.506883
C 4.605183 3.066756 1.535814
C 4.531416 3.673797 0.960683
C 4.284037 3.106791 1.296373
C 4.310065 3.653397 1.663517
C 4.632070 3.241308 1.756725
C 4.874201 3.672694 1.364406
C 5.006146 3.193870 0.981653
C 4.901235 3.411023 1.429060
C 5.513319 2.858608 1.619239
C 5.447681 3.437598 1.096155
C 5.203879 3.178625 1.176046
C 5.452136 3.653888 1.736488
C 5.643276 3.341640 1.858745
C 5.653185 3.564250 1.309355
C 0.019614 4.044375 0.799168
C 0.046806 4.615955 1.417003
C 0.520559 4.016037 1.556938
C 0.414281 4.381269 1.076726
C 0.141266 4.407061 1.258525
C 0.314467 4.728980 1.745040
C 0.679548 4.153745 1.740348
C 0.641603 4.653470 1.222454
C 0.977899 3.956173 1.003017
C 0.920355 4.485965 1.535685
C 1.345302 3.995475 1.397127
C 1.471314 4.425323 0.818329
C 1.199503 4.302063 1.351554
C 1.243034 4.788260 1.906570
C 1.858636 4.243028 1.692135
C 1.804149 4.711230 1.204654
C 2.069659 4.112339 1.063511
C 2.157279 4.491994 1.477193
C 2.651151 3.903087 1.435126
C 2.439364 4.592848 0.980728
C 2.345789 4.320577 1.263860
C 2.280079 4.693786 1.638754
C 2.801605 4.303751 1.778990
C 2.790488 4.713060 1.086645
C 3.093404 4.100882 0.978389
C 3.059019 4.447094 1.471673
C 3.381167 3.996563 1.535886
C 3.389916 4.610494 0.971575
C 3.267604 4.090928 1.240783
C 3.257183 4.680072 1.587882
C 3.654585 4.228255 1.760160
C 3.747776 4.807671 1.302704
C 4.017680 3.968552 0.932911
C 3.899552 4.515857 1.558710
C 4.350000 3.962935 1.410841
C 4.553365 4.554508 0.887775
C 4.337052 4.349477 1.137029
C 4.370990 4.739554 1.736769
C 4.858130 4.240297 1.655516
C 4.711228 4.601632 1.296893
C 4.813574 3.961055 1.081296
C 5.120888 4.472890 1.546869
C 5.509902 4.066829 1.348600
C 5.450194 4.551535 0.806402
C 5.170167 4.346314 1.210363
C 5.284127 4.739460 1.658335
C 5.589073 4.292785 1.611554
C 5.689270 4.628794 1.162416
C 0.019657 5.121795 1.162924
C 0.174744 5.569802 1.391813
C 0.395857 5.013002 1.628113
C 0.436738 5.509249 0.884995
C 0.240646 5.250097 1.283498
C 0.356137 5.700370 1.752063
C 0.679632 5.273451 1.593847
C 0.625182 5.605065 1.202112
C 1.055622 4.953775 1.116136
C 0.923456 5.510512 1.463742
C 1.387279 5.045887 1.509585
C 1.406222 5.449485 0.859630
C 1.123535 5.411054 1.243161
C 1.309128 5.722785 1.831404
C 1.825570 5.218736 1.665322
C 1.710225 5.749403 1.229971
C 2.007665 4.968940 0.870290
C 1.947298 5.643294 1.470060
C 2.416246 4.926225 1.478463
C 2.580490 5.442265 1.044604
C 2.268970 5.208216 1.329541
C 2.402812 5.683658 1.688456
C 2.860959 5.199004 1.731298
C 2.825353 5.703936 1.340484
C 3.055524 5.100502 1.075613
C 3.155435 5.402606 1.623320
C 3.561164 5.013007 1.337710
C 3.501101 5.597044 0.935043
C 3.144430 5.243688 1.347838
C 3.190323 5.717447 1.679042
C 3.698242 5.113399 1.806697
C 3.878303 5.630109 1.138457
C 4.129741 5.073037 1.048999
C 3.896743 5.477744 1.633969
C 4.431926 4.959190 1.488123
C 4.462513 5.563347 0.962969
C 4.320383 5.205852 1.211508
C 4.146111 5.655373 1.649620
C 4.756815 5.253104 1.652523
C 4.835685 5.647057 1.200094
C 5.013707 5.050814 1.079242
C 5.059931 5.442909 1.507727
C 5.627510 4.922350 1.599192
C 5.344917 5.508940 1.014583
C 5.354440 5.241657 1.311845
C 5.257085 5.645009 1.648398
C 5.593286 5.367786 1.753638
C 5.688043 5.606957 1.290346
C 0.045377 0.042414 1.890020
C 0.021419 0.726958 2.630058
C 0.630766 0.034257 2.491381
C 0.364653 0.354588 1.909935
C 0.113496 0.323195 2.336187
C 0.249233 0.566976 2.646915
C 0.729095 0.365263 2.709171
C 0.708602 0.628176 2.166097
C 0.983139 0.007368 2.100976
C 0.868564 0.554516 2.492799
C 1.683112 0.055333 2.588354
C 1.584640 0.473102 2.039211
C 1.240787 0.216587 2.075764
C 1.338456 0.864500 2.689702
C 1.687010 0.283189 2.731107
C 1.832010 0.768749 2.157524
C 1.992176 0.179657 1.947681
C 1.937155 0.582605 2.382286
C 2.393627 0.124878 2.470204
C 2.332652 0.428716 2.044944
C 2.400203 0.173447 2.211142
C 2.229005 0.816528 2.713071
C 2.651700 0.252713 2.755179
C 2.712787 0.703990 2.235442
C 3.037206 0.067535 1.986277
C 3.095686 0.537194 2.493871
C 3.418506 0.055161 2.375275
C 3.513867 0.370027 2.013053
C 3.308491 0.324542 2.242175
C 3.215309 0.649204 2.794072
C 3.785356 0.264545 2.639822
C 3.732040 0.760123 2.293378
C 3.940945 0.140636 2.008304
C 4.022366 0.499965 2.598668
C 4.512582 0.078279 2.656624
C 4.548919 0.491541 1.887180
C 4.278150 0.354026 2.129600
C 4.167179 0.679546 2.772662
C 4.816248 0.263724 2.587864
C 4.851807 0.880564 2.197888
C 5.154074 0.070581 2.151958
C 5.030812 0.459105 2.660255
C 5.443448 0.108858 2.446680
C 5.426400 0.323386 2.028610
C 5.322482 0.343698 2.310780
C 5.269121 0.686389 2.845748
C 5.726810 0.375309 2.695966
C 5.666642 0.783123 2.117045
C 0.019247 0.888256 1.870210
C 0.069552 1.686899 2.493986
C 0.413402 1.019312 2.488614
C 0.480170 1.497070 2.145881
C 0.170418 1.280873 2.406510
C 0.244644 1.734346 2.871685
C 0.813584 1.204955 2.807525
C 0.729093 1.782401 2.415808
C 0.921197 1.060168 2.114639
C 0.986885 1.625719 2.493275
C 1.640136 1.096830 2.597786
C 1.427056 1.485668 2.094025
C 1.308621 1.096366 2.218035
C 1.125487 1.770034 2.733728
C 1.677632 1.326814 2.768003
C 1.765803 1.905824 2.219317
C 1.958041 1.120124 1.907086
C 1.913819 1.561006 2.423553
C 2.597344 0.951220 2.393854
C 2.549758 1.365852 2.085370
C 2.323554 1.314600 2.368091
C 2.235229 1.949518 2.761733
C 2.874035 1.262049 2.630897
C 2.785861 1.788973 2.106879
C 2.958149 0.916090 2.097519
C 3.141865 1.428035 2.436424
C 3.434429 0.897711 2.439768
C 3.590337 1.389383 2.011293
C 3.302921 1.175486 2.284159
C 3.148212 1.592085 2.681938
C 3.815112 1.255871 2.892199
C 3.792325 1.640186 2.260190
C 3.915672 0.901653 1.938920
C 4.020963 1.570121 2.437058
C 4.570818 1.107771 2.601290
C 4.526125 1.352126 2.102210
C 4.292062 1.192371 2.400923
C 4.258455 1.817354 2.809693
C 4.859709 1.243835 2.622784
C 4.685364 1.905052 2.312520
C 4.938675 0.898305 1.917514
C 5.167842 1.547675 2.382878
C 5.460481 0.845681 2.535004
C 5.465902 1.457972 1.984162
C 5.355339 1.371093 2.235355
C 5.325633 1.617470 2.907261
C 5.722711 1.318351 2.839188
C 5.585572 1.644990 2.279019
C 0.006003 1.828521 2.078157
C 0.048625 2.650111 2.374990
C 0.367336 2.047202 2.575837
C 0.363337 2.458473 1.918999
C 0.204197 2.316518 2.200008
C 0.311325 2.865316 2.832012
C 0.666081 2.109377 2.681479
C 0.835652 2.782998 2.089064
C 0.889128 2.024459 1.927929
C 0.845571 2.405792 2.578486
C 1.358578 1.978669 2.602900
C 1.415069 2.564070 2.038326
C 1.312321 2.237874 2.137304
C 1.282888 2.701343 2.815569
C 1.662289 2.161801 2.769384
C 1.665121 2.810289 2.279638
C 2.048454 2.179530 2.096675
C 2.038712 2.567776 2.459828
C 2.449411 1.880294 2.590137
C 2.573826 2.550727 1.967380
C 2.353021 2.332519 2.328363
C 2.268690 2.682651 2.652228
C 2.729660 2.262281 2.719976
C 2.917075 2.777545 2.228504
C 3.003499 2.030890 2.156979
C 2.907017 2.517716 2.616436
C 3.567467 1.955646 2.490746
C 3.506925 2.535164 2.112358
C 3.185240 2.163968 2.427213
C 3.165591 2.681705 2.656912
C 3.632838 2.346005 2.687919
C 3.852534 2.628294 2.115920
C 4.187061 2.053314 1.951483
C 3.936003 2.463359 2.333503
C 4.442857 1.888314 2.597611
C 4.575828 2.403914 1.862044
C 4.380445 2.276892 2.099451
C 4.366774 2.798190 2.846614
C 4.776012 2.206840 2.765924
C 4.748401 2.825205 2.284797
C 5.144447 1.963070 2.007741
C 4.913518 2.441060 2.482025
C 5.405101 1.953828 2.636306
C 5.577005 2.448843 2.014586
C 5.289130 2.277740 2.295207
C 5.183634 2.884534 2.721314
C 5.666250 2.397957 2.803649
C 5.654258 2.719950 2.182500
C 0.169928 2.957885 2.138585
C 0.029681 3.476331 2.455682
C 0.472821 2.966443 2.556481
C 0.575854 3.469105 1.960862
C 0.118082 3.224125 2.328999
C 0.112855 3.722432 2.709011
C 0.676666 3.134910 2.642404
C 0.663650 3.699436 2.311362
C 0.812526 3.056719 2.043926
C 0.971131 3.561345 2.483049
C 1.315124 2.980004 2.651873
C 1.553047 3.603564 2.023128
C 1.175644 3.226061 2.431482
C 1.168389 3.544086 2.755090
C 1.734480 3.251987 2.824704
C 1.875319 3.756674 2.343721
C 2.026373 2.842182 2.007712
C 2.142484 3.541967 2.403152
C 2.508466 3.066210 2.371013
C 2.700960 3.414196 1.962372
C 2.192834 3.143148 2.189040
C 2.197194 3.771310 2.894269
C 2.658616 3.336191 2.725038
C 2.707339 3.886378 2.164917
C 2.901051 3.141401 2.050429
C 2.992587 3.660873 2.525875
C 3.515110 3.159987 2.476451
C 3.456771 3.454057 1.936341
C 3.299435 3.102508 2.240522
C 3.439952 3.704183 2.759332
C 3.846888 3.344297 2.679784
C 3.855477 3.671923 2.349940
C 3.987294 3.112578 2.020858
C 4.113098 3.540605 2.440936
C 4.406152 2.961448 2.497837
C 4.529653 3.316956 2.019224
C 4.227574 3.258491 2.278911
C 4.366752 3.893641 2.720042
C 4.708270 3.338226 2.674802
C 4.809261 3.772561 2.151749
C 5.038153 2.888442 2.009423
C 4.909064 3.603301 2.467013
C 5.628039 2.864729 2.434191
C 5.419232 3.644238 2.070552
C 5.294336 3.208503 2.311830
C 5.161435 3.781315 2.676636
C 5.733245 3.129509 2.567487
C 5.651921 3.750347 2.221852
C 0.180957 4.037107 1.918807
C 0.108707 4.484467 2.563114
C 0.553554 4.002791 2.358488
C 0.332284 4.441021 2.050203
C 0.399714 4.248427 2.237708
C 0.197194 4.712461 2.754200
C 0.822338 4.233400 2.659380
C 0.718327 4.858228 2.272095
C 1.030963 3.861057 2.019979
C 0.860933 4.579997 2.521441
C 1.412112 3.920784 2.442913
C 1.450159 4.554954 1.916870
C 1.367569 4.256643 2.250730
C 1.148685 4.696564 2.687379
C 1.588935 4.226628 2.751539
C 1.866525 4.806409 2.290284
C 2.033998 3.987983 1.958898
C 1.884507 4.564073 2.533409
C 2.565219 4.019147 2.538244
C 2.496293 4.571949 2.192364
C 2.235187 4.365809 2.337442
C 2.203770 4.708502 2.673766
C 2.595729 4.261943 2.801305
C 2.797074 4.878376 2.253615
C 2.906297 3.988668 1.970099
C 2.961031 4.433889 2.580488
C 3.508896 4.148488 2.589798
C 3.331647 4.417945 2.102271
C 3.354133 4.205090 2.264070
C 3.336745 4.617730 2.769161
C 3.744087 4.386128 2.637535
C 3.738340 4.638152 2.155828
C 3.915431 3.889582 1.976949
C 3.926683 4.666899 2.500358
C 4.435747 4.154101 2.570279
C 4.531956 4.363005 1.910646
C 4.281664 4.369313 2.284560
C 4.237049 4.770708 2.848582
C 4.723766 4.212633 2.678971
C 4.802997 4.748927 2.183870
C 4.929298 4.046961 2.116156
C 4.949803 4.415306 2.431064
C 5.470277 4.102445 2.413782
C 5.638594 4.537362 1.996226
C 5.131996 4.171460 2.264645
C 5.249511 4.701412 2.878462
C 5.719857 4.334434 2.821700
C 5.598014 4.709688 2.193482
C 0.049438 5.115459 1.902071
C 0.025012 5.369715 2.396663
C 0.513176 4.956348 2.596235
C 0.394327 5.387045 2.000743
C 0.137742 5.301308 2.138246
C 0.269834 5.687083 2.692806
C 0.818231 5.322424 2.801379
C 0.804297 5.644080 2.144557
C 1.127564 5.064341 2.027054
C 1.102626 5.529547 2.442366
C 1.450751 5.078346 2.618686
C 1.346366 5.444047 2.079408
C 1.271924 5.314176 2.399030
C 1.144200 5.732671 2.785998
C 1.835880 5.089675 2.782982
C 1.877662 5.674735 2.234799
C 1.856978 5.066577 1.918474
C 2.043367 5.676125 2.449123
C 2.585556 4.846034 2.579791
C 2.564477 5.400877 1.973876
C 2.304337 5.237726 2.117303
C 2.401625 5.737788 2.700806
C 2.746727 5.144528 2.623708
C 2.645356 5.718927 2.304995
C 3.037147 5.000727 1.959084
C 2.934892 5.346326 2.543376
C 3.369768 5.140084 2.505723
C 3.503176 5.618401 2.023914
C 3.243836 5.220311 2.217356
C 3.112021 5.746035 2.651252
C 3.655064 5.263420 2.756740
C 3.909913 5.737738 2.152590
C 3.917296 4.878161 2.057449
C 3.997518 5.561891 2.453477
C 4.574084 4.877627 2.576989
C 4.489735 5.563698 1.882311
C 4.132972 5.318541 2.163419
C 4.346429 5.693898 2.861982
C 4.687618 5.424371 2.759445
C 4.611308 5.712332 2.350645
C 4.899751 5.004273 1.984387
C 5.126157 5.492994 2.540194
C 5.569386 4.984113 2.390664
C 5.325500 5.461045 1.924981
C 5.214961 5.243588 2.174800
C 5.339228 5.714075 2.566482
C 5.706898 5.346363 2.603310
C 5.640480 5.625950 2.127755
C 0.066956 0.136747 3.068644
C 0.088758 0.545098 3.332222
C 0.394784 0.043151 3.358228
C 0.568455 0.398702 2.969117
C 0.305575 0.259670 3.013099
C 0.127444 0.736198 3.662410
C 0.765720 0.150318 3.838348
C 0.723085 0.641960 3.332463
C 0.895252 0.011151 3.008715
C 0.968058 0.533793 3.597726
C 1.574090 0.018449 3.611851
C 1.486298 0.420196 2.875957
C 1.192939 0.245057 3.339939
C 1.189900 0.799135 3.649167
C 1.799900 0.210737 3.858171
C 1.867650 0.734320 3.199779
C 1.895820 0.007727 3.045617
C 1.862934 0.512607 3.611454
C 2.447603 0.100625 3.567120
C 2.497919 0.534839 3.088967
C 2.188596 0.188630 3.117844
C 2.109683 0.689750 3.664549
C 2.738625 0.402827 3.682389
C 2.791392 0.658987 3.307842
C 2.929132 0.065863 2.923327
C 3.088626 0.527703 3.335182
C 3.419480 0.033442 3.301105
C 3.482818 0.677768 3.012112
C 3.203280 0.191357 3.366451
C 3.227410 0.858654 3.800063
C 3.750031 0.068307 3.698653
C 3.711302 0.820511 3.151780
C 4.019442 0.148755 3.018444
C 4.050609 0.374580 3.599468
C 4.540420 0.008440 3.675236
C 4.391563 0.508251 3.007807
C 4.411194 0.119959 3.212963
C 4.356987 0.729332 3.804334
C 4.916335 0.223432 3.696755
C 4.774397 0.696721 3.428955
C 4.845180 0.039893 3.032204
C 5.077955 0.584084 3.408068
C 5.559847 0.172316 3.519037
C 5.514122 0.376530 2.985651
C 5.125648 0.197437 3.176997
C 5.185967 0.800129 3.754651
C 5.695237 0.351260 3.869256
C 5.675376 0.837207 3.280060
C 0.090097 0.921802 2.943797
C 0.145573 1.409708 3.488290
C 0.396828 1.045487 3.392252
C 0.486019 1.522592 3.056905
C 0.328757 1.169202 3.130158
C 0.236422 1.777024 3.905007
C 0.744164 1.294227 3.608219
C 0.680389 1.797260 3.208099
C 1.100646 1.070681 3.065582
C 0.951445 1.588995 3.555042
C 1.638115 1.057495 3.550790
C 1.640083 1.562110 3.089396
C 1.280120 1.425614 3.210265
C 1.343202 1.730422 3.847481
C 1.586736 1.203030 3.822857
C 1.657012 1.840985 3.441250
C 2.098264 0.989152 3.113499
C 1.881718 1.548426 3.463004
C 2.616321 0.923087 3.496504
C 2.455751 1.631186 2.887668
C 2.364860 1.214111 3.138813
C 2.391774 1.860356 3.694628
C 2.809539 1.351047 3.668098
C 2.884400 1.672343 3.252766
C 2.909953 1.036175 3.015709
C 3.160340 1.514535 3.407125
C 3.431992 1.171504 3.506259
C 3.568809 1.424526 2.997854
C 3.266364 1.383971 3.162100
C 3.277067 1.771291 3.846867
C 3.815501 1.327750 3.726436
C 3.833345 1.820629 3.167723
C 4.146192 1.048581 2.944808
C 3.904367 1.653423 3.503415
C 4.462118 1.006310 3.336895
C 4.521776 1.430421 3.118754
C 4.249896 1.224912 3.236688
C 4.170399 1.904376 3.688935
C 4.891657 1.312894 3.665428
C 4.857352 1.720130 3.163767
C 5.104969 0.941331 2.937958
C 5.064741 1.681646 3.468943
C 5.606226 1.089780 3.403477
C 5.605139 1.621463 2.902723
C 5.201022 1.305729 3.269233
C 5.148358 1.755371 3.848702
C 5.696402 1.314513 3.632295
C 5.744889 1.789105 3.389692
C 0.023499 2.174401 3.093708
C 0.032170 2.321122 3.472817
C 0.447655 2.097926 3.521731
C 0.453616 2.424888 3.104673
C 0.307447 2.071436 3.241620
C 0.206093 2.891377 3.739665
C 0.700445 2.225839 3.701493
C 0.847695 2.685692 3.245549
C 1.132774 2.022376 2.860204
C 1.039638 2.412931 3.633013
C 1.495931 2.104021 3.461051
C 1.394316 2.410555 3.051409
C 1.221648 2.172889 3.155045
C 1.185429 2.810196 3.750733
C 1.723718 2.212497 3.639742
C 1.792327 2.862624 3.307267
C 1.864938 2.156289 2.995745
C 2.079823 2.467242 3.447764
C 2.520921 2.081078 3.471514
C 2.379777 2.542341 2.888234
C 2.311140 2.125430 3.297055
C 2.136676 2.897685 3.757701
C 2.832616 2.243775 3.932967
C 2.754566 2.878088 3.191609
C 3.020188 1.948903 3.207328
C 2.989440 2.477280 3.451595
C 3.321800 1.926753 3.438851
C 3.644271 2.598790 2.947107
C 3.136436 2.261867 3.193227
C 3.239828 2.653661 3.782455
C 3.873823 2.231134 3.708755
C 3.691375 2.545976 3.343292
C 4.003235 1.970559 2.864093
C 3.905279 2.479232 3.519353
C 4.611187 1.926937 3.509979
C 4.553992 2.368808 2.924291
C 4.103508 2.172300 3.244806
C 4.119691 2.836693 3.850369
C 4.779232 2.240046 3.699130
C 4.809838 2.671964 3.300786
C 5.034299 1.899540 2.933560
C 4.956414 2.650600 3.646396
C 5.517207 1.967321 3.456093
C 5.384737 2.460264 3.084832
C 5.440863 2.199046 3.209144
C 5.298850 2.873413 3.873163
C 5.703761 2.311296 3.749536
C 5.559001 2.684448 3.220393
C 0.033727 2.864172 2.965368
C 0.016979 3.632596 3.566165
C 0.597483 2.930264 3.520317
C 0.395163 3.442785 2.964939
C 0.287150 3.308127 3.282637
C 0.233887 3.782989 3.889706
C 0.638161 3.214358 3.657098
C 0.709764 3.848046 3.303010
C 1.032378 2.988715 3.179948
C 0.941170 3.654281 3.395897
C 1.638767 3.027254 3.503035
C 1.555832 3.345223 3.053502
C 1.162565 3.260821 3.287400
C 1.205734 3.879875 3.686298
C 1.715234 3.316793 3.882282
C 1.845270 3.843129 3.357026
C 1.935520 3.124978 2.996449
C 2.026460 3.431516 3.476513
C 2.360948 2.888670 3.598085
C 2.390474 3.521752 2.861602
C 2.408239 3.223800 3.267636
C 2.170601 3.721715 3.648209
C 2.854127 3.131916 3.831440
C 2.865397 3.727382 3.265318
C 3.089535 2.935129 3.046181
C 2.964842 3.432300 3.565496
C 3.515502 2.922750 3.644372
C 3.473197 3.355408 3.073276
C 3.226139 3.212982 3.109633
C 3.125015 3.769201 3.730622
C 3.567506 3.280529 3.665053
C 3.698268 3.682572 3.307359
C 4.067464 3.003914 2.947703
C 3.906613 3.571281 3.566481
C 4.639066 3.085184 3.579457
C 4.424199 3.480324 2.897592
C 4.296378 3.121284 3.151968
C 4.439991 3.779282 3.702858
C 4.795556 3.171127 3.853800
C 4.734815 3.673320 3.220952
C 5.040319 3.059944 2.950731
C 5.124931 3.493348 3.502053
C 5.636707 2.949386 3.414199
C 5.467142 3.532802 3.100535
C 5.072062 3.165321 3.289635
C 5.347910 3.769545 3.846876
C 5.611743 3.227341 3.912932
C 5.604667 3.694633 3.325647
C 0.124788 4.006028 2.894128
C 0.055017 4.460722 3.531066
C 0.595648 4.050437 3.456786
C 0.538619 4.605330 3.050137
C 0.175422 4.228302 3.376522
C 0.348968 4.886253 3.857901
C 0.722288 4.281101 3.663608
C 0.803346 4.706788 3.095088
C 1.007639 3.850045 2.975765
C 0.944657 4.505780 3.507086
C 1.465511 4.098904 3.532345
C 1.542080 4.353286 3.025805
C 1.351559 4.315949 3.286728
C 1.222903 4.897933 3.733641
C 1.615205 4.249936 3.734702
C 1.596544 4.724532 3.177816
C 2.058227 4.023588 3.065271
C 2.019668 4.422398 3.378274
C 2.399763 3.891868 3.361946
C 2.500507 4.354832 3.091101
C 2.240128 4.225586 3.419201
C 2.310659 4.679020 3.830185
C 2.672963 4.095553 3.687917
C 2.795471 4.758376 3.391414
C 2.978976 4.017613 2.978409
C 2.966198 4.501402 3.431530
C 3.350629 4.001431 3.609410
C 3.530669 4.385972 2.929588
C 3.180477 4.076167 3.307159
C 3.214059 4.673188 3.735951
C 3.825736 4.298945 3.764903
C 3.644763 4.789027 3.418458
C 4.117482 4.017618 3.111900
C 3.914437 4.568211 3.561062
C 4.554380 3.883409 3.451962
C 4.548970 4.622986 2.877831
C 4.267354 4.297763 3.396380
C 4.155166 4.699266 3.670100
C 4.815585 4.121527 3.821114
C 4.673994 4.839436 3.208666
C 5.133277 4.033152 2.913599
C 4.948084 4.601394 3.362921
C 5.618880 4.002248 3.373870
C 5.436453 4.562288 3.081446
C 5.165984 4.318069 3.142178
C 5.181615 4.660044 3.776997
C 5.715988 4.282700 3.827768
C 5.730346 4.700568 3.184226
C 0.006473 5.111969 2.885074
C 0.134285 5.597042 3.414079
C 0.366915 5.071350 3.651125
C 0.495261 5.569905 3.075256
C 0.326002 5.330105 3.208559
C 0.320923 5.576878 3.653559
C 0.790191 5.110228 3.722372
C 0.804575 5.544185 3.280129
C 0.958785 5.118090 3.047915
C 0.923396 5.390380 3.605712
C 1.438821 5.037063 3.409771
C 1.432009 5.588958 2.903883
C 1.202465 5.256424 3.094894
C 1.231873 5.653184 3.834705
C 1.835455 5.259700 3.795747
C 1.765479 5.723347 3.123449
C 2.070533 5.179169 2.937684
C 2.046577 5.651272 3.537955
C 2.687225 5.005533 3.476891
C 2.411484 5.468509 2.831760
C 2.327453 5.358114 3.266787
C 2.220498 5.675003 3.857119
C 2.718431 5.363982 3.819106
C 2.721801 5.661031 3.139153
C 3.150932 4.930112 3.034002
C 3.101258 5.445318 3.379614
C 3.539737 5.186479 3.561659
C 3.425950 5.696264 2.991552
C 3.250720 5.364846 3.114563
C 3.212475 5.675065 3.596898
C 3.762672 5.209345 3.859298
C 3.820377 5.735231 3.392097
C 3.978637 4.952514 3.003544
C 3.943502 5.412212 3.454685
C 4.516722 5.031719 3.376323
C 4.328205 5.434912 2.939926
C 4.078498 5.309307 3.229949
C 4.214767 5.626860 3.795519
C 4.713492 5.354522 3.730555
C 4.806657 5.627289 3.332467
C 4.948352 5.025304 2.903961
C 4.925037 5.423917 3.513632
C 5.518206 4.990038 3.541412
C 5.382288 5.516899 3.002855
C 5.185308 5.347152 3.171877
C 5.300316 5.749087 3.726035
C 5.707629 5.203938 3.718630
C 5.659128 5.688899 3.066470
C 0.108117 0.226037 3.868295
C 0.031567 0.626982 4.310631
C 0.383969 0.146378 4.372096
C 0.617658 0.561419 3.939125
C 0.281628 0.261738 4.112305
C 0.240665 0.621376 4.639376
C 0.817449 0.141705 4.816140
C 0.687450 0.869178 4.201450
C 1.052965 0.104568 3.847861
C 0.988145 0.611789 4.587049
C 1.521591 0.166106 4.663666
C 1.672910 0.481345 3.874964
C 1.185242 0.166803 4.190403
C 1.286444 0.738375 4.828840
C 1.850271 0.291687 4.613647
C 1.836720 0.750919 4.188314
C 2.079226 0.121808 3.853447
C 2.077750 0.498821 4.577861
C 2.418426 0.110378 4.437491
C 2.529785 0.385136 3.893771
C 2.252642 0.231999 4.110205
C 2.222062 0.806482 4.671782
C 2.803981 0.448069 4.736350
C 2.736329 0.670161 4.415141
C 2.966031 0.097659 3.853870
C 2.882508 0.437264 4.451595
C 3.588025 0.083268 4.512577
C 3.421071 0.481684 3.897923
C 3.279899 0.261054 4.410689
C 3.256778 0.744388 4.629662
C 3.802303 0.190550 4.807078
C 3.812419 0.870830 4.157863
C 3.967394 0.158677 4.030078
C 3.893203 0.464792 4.581298
C 4.381780 0.122596 4.474828
C 4.565049 0.623442 4.085914
C 4.318472 0.308207 4.221232
C 4.260896 0.790293 4.907975
C 4.898290 0.246955 4.773896
C 4.739259 0.711175 4.356221
C 4.935765 0.060927 4.195852
C 4.843268 0.469492 4.470738
C 5.644312 0.099174 4.582889
C 5.425015 0.440146 3.976719
C 5.118554 0.248619 4.147101
C 5.357858 0.677922 4.653639
C 5.725993 0.070239 4.835385
C 5.598368 0.838453 4.299899
C 0.058573 1.025361 4.067573
C 0.099299 1.691099 4.396612
C 0.536039 1.022029 4.476771
C 0.594769 1.514713 3.935887
C 0.335994 1.244556 4.114132
C 0.244226 1.764304 4.669395
C 0.753556 1.165446 4.727837
C 0.823903 1.912965 4.146764
C 0.979955 1.075082 3.961886
C 1.115228 1.442951 4.545270
C 1.532290 1.017701 4.426211
C 1.425645 1.577909 4.141208
C 1.154705 1.142282 4.169624
C 1.284158 1.697392 4.870983
C 1.804040 1.270121 4.613704
C 1.737803 1.877334 4.330141
C 2.049413 0.988396 4.195682
C 2.073867 1.651515 4.565826
C 2.426310 0.948061 4.481429
C 2.395650 1.571768 3.948075
C 2.261456 1.149613 4.288630
C 2.306551 1.728270 4.726095
C 2.840668 1.417125 4.675780
C 2.642976 1.703038 4.149597
C 2.914263 1.131421 4.037837
C 3.121291 1.334437 4.519794
C 3.563140 0.934306 4.504760
C 3.523806 1.621113 4.129926
C 3.324053 1.155189 4.367595
C 3.159954 1.712540 4.795785
C 3.912734 1.287345 4.786767
C 3.708690 1.604632 4.332267
C 4.028097 1.148276 4.005448
C 4.110825 1.440116 4.550087
C 4.582085 0.876625 4.522757
C 4.591769 1.429400 3.901277
C 4.249099 1.296810 4.211881
C 4.289234 1.614458 4.800722
C 4.691758 1.330392 4.561466
C 4.729880 1.647819 4.314490
C 5.129174 1.037466 4.058820
C 5.070818 1.445193 4.494816
C 5.637486 1.125557 4.442758
C 5.425214 1.652069 4.050996
C 5.242134 1.181047 4.430047
C 5.313280 1.842507 4.798886
C 5.613981 1.194726 4.783129
C 5.635737 1.808763 4.280302
C 0.019030 2.079062 3.999765
C 0.104708 2.496685 4.399613
C 0.581546 2.032973 4.444058
C 0.471488 2.455348 3.882803
C 0.244502 2.138027 4.194320
C 0.292096 2.637132 4.670882
C 0.735776 2.254076 4.912733
C 0.935627 2.785585 4.204185
C 1.088338 1.955325 4.177348
C 1.043232 2.587479 4.530786
C 1.470850 2.019270 4.481749
C 1.653507 2.336756 4.082908
C 1.252662 2.422503 4.169561
C 1.364606 2.675756 4.679973
C 1.826296 2.171818 4.883351
C 1.761090 2.636250 4.333649
C 2.029006 2.031646 3.987464
C 2.036173 2.581569 4.540545
C 2.432365 1.863523 4.499097
C 2.435955 2.548334 4.065324
C 2.317333 2.303512 4.254606
C 2.300582 2.756526 4.670381
C 2.756634 2.228256 4.867245
C 2.824646 2.726903 4.121010
C 2.892969 1.992015 4.082632
C 3.019929 2.591605 4.447010
C 3.624002 1.986674 4.420308
C 3.476493 2.533299 3.907440
C 3.096768 2.229190 4.274254
C 3.263665 2.761186 4.748933
C 3.733309 2.408086 4.815198
C 3.883330 2.771968 4.270162
C 3.811198 1.999816 3.975244
C 3.995244 2.638403 4.518046
C 4.468598 1.897578 4.565121
C 4.451613 2.470548 4.003695
C 4.431142 2.322765 4.266356
C 4.211510 2.765071 4.743146
C 4.784700 2.333068 4.843219
C 4.642690 2.652722 4.133930
C 4.996516 2.082230 3.918562
C 5.044676 2.357571 4.523206
C 5.504161 2.132187 4.583707
C 5.552548 2.374692 4.013682
C 5.191591 2.263908 4.290793
C 5.348327 2.862590 4.768102
C 5.626140 2.341773 4.758647
C 5.627262 2.649240 4.294231
C 0.184633 2.873792 4.068676
C 0.053953 3.487002 4.330287
C 0.398782 3.096154 4.375622
C 0.454613 3.590735 4.096051
C 0.169614 3.153334 4.122085
C 0.294566 3.663068 4.811330
C 0.766008 3.267154 4.851078
C 0.659904 3.854212 4.198201
C 1.155445 3.094186 3.942951
C 0.962067 3.587636 4.373662
C 1.407854 2.991857 4.430608
C 1.373952 3.546937 3.976665
C 1.095121 3.176380 4.316976
C 1.194513 3.684582 4.814427
C 1.655154 3.225956 4.850285
C 1.887715 3.826693 4.244376
C 2.144268 3.026115 4.017218
C 1.997106 3.557875 4.381032
C 2.395967 3.033215 4.555382
C 2.476856 3.430370 3.887236
C 2.345420 3.332900 4.260189
C 2.219619 3.661916 4.846624
C 2.771393 3.352892 4.867181
C 2.646841 3.870621 4.240142
C 3.128384 2.868512 3.936831
C 3.021190 3.528773 4.525590
C 3.670583 2.953845 4.492836
C 3.449638 3.525089 3.831195
C 3.132864 3.190408 4.268966
C 3.249760 3.787063 4.624849
C 3.674416 3.146273 4.779789
C 3.569400 3.794985 4.239736
C 4.040281 3.072168 4.073293
C 4.162794 3.538188 4.530324
C 4.632660 3.036419 4.433843
C 4.490455 3.483463 3.875604
C 4.271949 3.119753 4.262354
C 4.346219 3.791188 4.657295
C 4.838614 3.374675 4.696179
C 4.785175 3.699932 4.194056
C 5.036773 2.828989 4.089983
C 5.086453 3.420331 4.600026
C 5.503608 2.933279 4.411261
C 5.454364 3.464684 3.918379
C 5.136320 3.107069 4.183949
C 5.207084 3.794884 4.868015
C 5.658864 3.274899 4.731876
C 5.738992 3.647315 4.438015
C 0.131641 4.184918 3.915184
C 0.083579 4.572129 4.662036
C 0.449187 4.074852 4.356507
C 0.525023 4.638904 3.986187
C 0.236263 4.206776 4.229665
C 0.278205 4.827729 4.657295
C 0.709841 4.189767 4.872550
C 0.686309 4.869318 4.165962
C 0.926473 4.046506 3.966150
C 0.979039 4.417949 4.401015
C 1.318271 3.941014 4.490484
C 1.413210 4.434125 4.107718
C 1.275752 4.157926 4.317729
C 1.230434 4.896667 4.739308
C 1.722756 4.174243 4.651487
C 1.721940 4.898160 4.272007
C 2.086697 4.155387 4.087520
C 2.093123 4.619877 4.501114
C 2.453251 4.137640 4.400383
C 2.360345 4.413298 4.022417
C 2.246123 4.330275 4.272262
C 2.237299 4.623342 4.794854
C 2.625551 4.351351 4.838338
C 2.860570 4.678823 4.263557
C 3.087499 3.999752 4.048007
C 3.007079 4.483293 4.424687
C 3.447243 3.996363 4.645314
C 3.460549 4.454004 3.913607
C 3.292857 4.474344 4.200961
C 3.314851 4.910604 4.854246
C 3.711820 4.189071 4.745201
C 3.628505 4.847399 4.336431
C 4.008438 4.049137 3.880200
C 4.106356 4.592950 4.535999
C 4.410528 4.167560 4.511584
C 4.403142 4.601645 3.981277
C 4.196967 4.272563 4.315384
C 4.357073 4.680515 4.714992
C 4.844905 4.146550 4.830154
C 4.649456 4.773288 4.287853
C 5.151686 3.975871 3.897929
C 4.892366 4.389550 4.466107
C 5.329939 4.032626 4.462860
C 5.429105 4.517145 4.045315
C 5.259928 4.255144 4.225719
C 5.255704 4.680062 4.868532
C 5.708497 4.174598 4.936900
C 5.596977 4.894239 4.219711
C 0.127734 5.036059 4.066459
C 0.073257 5.578539 4.462359
C 0.545723 4.949365 4.618068
C 0.550752 5.615170 3.937826
C 0.299781 5.133850 4.293904
C 0.126981 5.549343 4.750505
C 0.672494 5.115251 4.868418
C 0.880102 5.719171 4.211916
C 0.986263 4.961452 3.925567
C 1.006261 5.640789 4.471504
C 1.375923 5.063707 4.492400
C 1.594540 5.435134 4.053399
C 1.193183 5.335344 4.218283
C 1.117603 5.667934 4.841087
C 1.683729 5.239245 4.894851
C 1.774821 5.743081 4.284539
C 1.921971 5.043808 3.955920
C 2.072835 5.471039 4.478264
C 2.546669 4.807495 4.498003
C 2.534620 5.541894 4.073917
C 2.269469 5.202299 4.169371
C 2.173423 5.735362 4.633513
C 2.858543 5.202817 4.740022
C 2.627334 5.732031 4.257263
C 2.873147 4.925617 4.063980
C 3.015668 5.520423 4.442948
C 3.406909 5.007661 4.472664
C 3.592792 5.512884 3.861063
C 3.313278 5.208076 4.083108
C 3.130313 5.745851 4.670590
C 3.921629 5.217018 4.747186
C 3.731527 5.658172 4.412911
C 4.001641 4.988535 4.147753
C 3.999262 5.476099 4.537184
C 4.536446 5.027537 4.603080
C 4.422500 5.461753 3.999291
C 4.117809 5.237016 4.149897
C 4.173382 5.723855 4.646171
C 4.775599 5.187471 4.813228
C 4.576840 5.739951 4.140523
C 4.950480 4.864683 4.077643
C 4.966992 5.578700 4.380950
C 5.421751 5.082001 4.515921
C 5.605423 5.495633 3.981276
C 5.242504 5.157508 4.274100
C 5.060938 5.736488 4.737381
C 5.713201 5.293548 4.620140
C 5.535198 5.731499 4.065936
C 0.012408 0.022413 4.878440
C 0.012608 0.412235 5.604603
C 0.519027 0.054819 5.527531
C 0.564089 0.356488 4.992174
C 0.176067 0.293581 5.203714
C 0.220272 0.751343 5.740109
C 0.798964 0.107217 5.538008
C 0.612936 0.801933 5.279454
C 0.957699 0.061602 5.043343
C 1.122288 0.409618 5.463303
C 1.479989 0.020225 5.515221
C 1.548995 0.516602 4.894400
C 1.277757 0.199338 5.087108
C 1.187253 0.626941 5.652865
C 1.920131 0.131520 5.708463
C 1.654534 0.861579 5.271126
C 2.101473 0.092414 4.971757
C 2.087400 0.620263 5.573361
C 2.350260 0.018032 5.541549
C 2.477940 0.548736 5.056463
C 2.341703 0.282011 5.225701
C 2.236550 0.890431 5.664165
C 2.784200 0.345357 5.748027
C 2.720340 0.539677 5.273131
C 3.183994 0.015934 5.005252
C 3.031396 0.478754 5.468686
C 3.441451 0.050434 5.615758
C 3.452536 0.555656 5.195405
C 3.192131 0.355143 5.246276
C 3.214093 0.675587 5.629077
C 3.775564 0.230534 5.683734
C 3.666989 0.765334 5.214957
C 4.075852 0.142124 5.045867
C 3.959618 0.560354 5.547677
C 4.339011 0.116431 5.480416
C 4.638487 0.628718 4.981589
C 4.070954 0.353392 5.329109
C 4.148622 0.735401 5.717040
C 4.706036 0.167294 5.683033
C 4.815488 0.878068 5.265961
C 5.114971 0.062412 4.970560
C 4.910486 0.399777 5.498546
C 5.658306 0.131710 5.424735
C 5.589711 0.510132 4.857731
C 5.278518 0.186686 5.394890
C 5.392697 0.839406 5.644100
C 5.716085 0.060269 5.723278
C 5.685183 0.751238 5.419721
C 0.111575 1.075022 5.059868
C 0.045790 1.603881 5.551787
C 0.595192 0.949693 5.505428
C 0.450175 1.610873 5.014564
C 0.195174 1.190793 5.325216
C 0.270322 1.490701 5.713157
C 0.851551 1.123825 5.725869
C 0.662489 1.848900 5.222859
C 1.087562 0.973707 5.024123
C 1.077256 1.398099 5.570926
C 1.483245 1.100312 5.489610
C 1.556881 1.498140 4.971705
C 1.143231 1.142095 5.316401
C 1.389254 1.729462 5.619258
C 1.653344 1.207738 5.696010
C 1.748600 1.727954 5.098871
C 2.127881 0.896614 5.037570
C 1.880546 1.447949 5.504507
C 2.404594 1.066978 5.520896
C 2.494762 1.506837 4.873177
C 2.286742 1.244590 5.305081
C 2.350266 1.797889 5.733656
C 2.656681 1.047320 5.662494
C 2.664771 1.632972 5.107592
C 2.940277 0.993351 4.924043
C 2.921124 1.438707 5.427708
C 3.651728 0.987845 5.567020
C 3.310473 1.429254 4.898405
C 3.308912 1.329052 5.220153
C 3.397929 1.727715 5.724304
C 3.622316 1.268832 5.586021
C 3.806237 1.811743 5.319693
C 3.901521 0.957135 4.986635
C 3.830870 1.453470 5.396904
C 4.572217 0.969412 5.386467
C 4.576367 1.524278 5.115560
C 4.283171 1.240974 5.331021
C 4.453322 1.671820 5.602228
C 4.541804 1.210949 5.704993
C 4.812795 1.816720 5.374287
C 5.020311 1.012097 5.092949
C 5.061458 1.418885 5.608426
C 5.572663 1.056665 5.647547
C 5.440687 1.532631 4.999854
C 5.241401 1.331867 5.132229
C 5.096321 1.784853 5.688189
C 5.717334 1.422563 5.665011
C 5.696684 1.642040 5.332005
C 0.079707 1.797498 5.026972
C 0.083868 2.533712 5.349806
C 0.502676 1.986518 5.570399
C 0.581045 2.528085 4.948639
C 0.172542 2.184367 5.260509
C 0.227730 2.692531 5.642081
C 0.704717 2.251030 5.567720
C 0.713952 2.762002 5.354237
C 1.103403 1.996487 4.868116
C 0.884592 2.580807 5.560154
C 1.443761 1.893014 5.348118
C 1.555190 2.534183 5.101579
C 1.246489 2.241302 5.189080
C 1.274316 2.542475 5.638695
C 1.816993 2.364055 5.660886
C 1.708875 2.741362 5.414104
C 2.129827 1.866771 5.030698
C 2.070103 2.514515 5.479306
C 2.719075 1.978265 5.430907
C 2.435725 2.525674 4.965300
C 2.299554 2.264781 5.320459
C 2.230712 2.839481 5.747797
C 2.746586 2.144970 5.658096
C 2.675512 2.739852 5.365994
C 2.926220 1.844460 4.974852
C 2.995424 2.397337 5.508110
C 3.602560 1.999369 5.491136
C 3.451661 2.603368 4.977332
C 3.243402 2.189036 5.369906
C 3.202864 2.702637 5.511873
C 3.666969 2.080008 5.746844
C 3.712180 2.789107 5.248430
C 4.017565 1.883495 4.900457
C 4.132691 2.442700 5.541246
C 4.443720 1.942492 5.581058
C 4.564660 2.420681 4.994276
C 4.174640 2.135123 5.270790
C 4.130828 2.815198 5.656990
C 4.764481 2.063030 5.699975
C 4.676514 2.761996 5.401594
C 4.925605 2.008689 4.873321
C 5.019127 2.601183 5.528220
C 5.477781 1.906695 5.395606
C 5.431205 2.605412 5.060715
C 5.124050 2.322190 5.333964
C 5.247589 2.811692 5.699918
C 5.599261 2.162625 5.528149
C 5.666455 2.773761 5.075530
C 0.063165 3.034740 5.136544
C 0.064644 3.520433 5.469024
C 0.460211 3.029801 5.697932
C 0.423427 3.424813 5.147649
C 0.310552 3.175545 5.169833
C 0.153519 3.785638 5.607512
C 0.709115 3.257983 5.611864
C 0.871134 3.653096 5.356060
C 1.022903 2.999739 4.863682
C 1.097633 3.387885 5.453316
C 1.613696 2.987531 5.607509
C 1.488572 3.443397 4.952346
C 1.107929 3.380985 5.167113
C 1.107077 3.737219 5.548381
C 1.833342 3.304036 5.733888
C 1.742116 3.597366 5.269892
C 1.916950 2.860661 4.952328
C 2.127801 3.603800 5.526207
C 2.459114 2.988100 5.604178
C 2.453952 3.442694 4.872648
C 2.161818 3.214014 5.229679
C 2.247206 3.974006 5.684448
C 2.773074 3.272920 5.721025
C 2.670854 3.645011 5.124356
C 3.099102 2.988249 4.966387
C 3.072060 3.450286 5.595857
C 3.473837 2.825431 5.584732
C 3.441292 3.523983 4.943405
C 3.168744 3.289762 5.189920
C 3.267301 3.663424 5.735047
C 3.714357 3.254349 5.717634
C 3.654542 3.735157 5.180921
C 3.901005 3.059476 4.987878
C 3.894252 3.430095 5.514466
C 4.649868 2.970105 5.629904
C 4.437210 3.613613 4.924446
C 4.104288 3.228166 5.279965
C 4.204196 3.634901 5.719646
C 4.565367 3.237134 5.719651
C 4.647202 3.885173 5.153039
C 4.943496 3.028015 4.899323
C 4.906561 3.461563 5.550380
C 5.421774 2.965870 5.535833
C 5.414374 3.376456 4.945409
C 5.172865 3.320180 5.161791
C 5.260951 3.625319 5.748451
C 5.627378 3.106815 5.723113
C 5.744895 3.885699 5.262926
C 0.101494 4.000500 4.898751
C 0.003506 4.425799 5.648122
C 0.461072 4.073839 5.501632
C 0.403812 4.446541 5.111628
C 0.265554 4.230762 5.319274
C 0.237681 4.841853 5.612440
C 0.605375 4.121992 5.743853
C 0.711767 4.836059 5.162302
C 1.146055 3.946385 4.969019
C 0.868295 4.496131 5.567063
C 1.464076 3.891828 5.411174
C 1.385734 4.469158 5.132603
C 1.091777 4.216218 5.357683
C 1.085822 4.753389 5.721372
C 1.830181 4.334170 5.704700
C 1.800565 4.659890 5.336119
C 2.044479 4.001599 5.108663
C 2.041362 4.643980 5.622156
C 2.391404 3.873411 5.469467
C 2.496708 4.483271 5.086947
C 2.352146 4.131638 5.311637
C 2.408056 4.674544 5.747972
C 2.756696 4.271194 5.585015
C 2.649047 4.766631 5.158509
C 3.162275 3.974260 4.913345
C 2.946792 4.509129 5.447018
C 3.471506 4.002349 5.376370
C 3.425432 4.552441 4.977451
C 3.344345 4.361066 5.311490
C 3.191356 4.632926 5.660230
C 3.809287 4.095531 5.684354
C 3.634325 4.928938 5.244973
C 4.010481 3.974289 4.810319
C 3.950508 4.592620 5.562012
C 4.489282 4.078701 5.574616
C 4.458833 4.558714 5.155439
C 4.194753 4.135222 5.161837
C 4.173508 4.783089 5.656519
C 4.612513 4.324373 5.694143
C 4.714958 4.650652 5.221693
C 5.051090 3.929501 5.111864
C 5.042837 4.584068 5.503856
C 5.546704 4.021533 5.514580
C 5.634528 4.512495 5.145638
C 5.154858 4.376817 5.320184
C 5.102132 4.883009 5.734912
C 5.678239 4.203994 5.728249
C 5.669381 4.783632 5.021435
C 0.048353 4.943182 5.072733
C 0.150218 5.486854 5.692893
C 0.494864 4.981043 5.433073
C 0.574438 5.366152 5.017622
C 0.098635 5.185177 5.359854
C 0.422622 5.682482 5.717972
C 0.871395 5.229080 5.680137
C 0.783351 5.725667 5.049615
C 0.931445 4.954042 4.990504
C 1.113087 5.470140 5.620958
C 1.499142 4.871847 5.454374
C 1.595247 5.558967 5.001879
C 1.256570 5.346146 5.399422
C 1.071752 5.725935 5.539583
C 1.874174 5.302641 5.710634
C 1.848210 5.682538 5.059142
C 1.853762 5.011276 5.009597
C 2.123301 5.492437 5.513774
C 2.427269 4.894966 5.568764
C 2.535166 5.486164 4.918645
C 2.230932 5.233470 5.199007
C 2.462212 5.600270 5.616891
C 2.628035 5.338460 5.676169
C 2.876787 5.735624 5.111252
C 2.976277 5.118178 5.060809
C 3.031656 5.628104 5.505259
C 3.420888 4.983267 5.582093
C 3.329104 5.632703 4.952341
C 3.158330 5.193652 5.265506
C 3.305044 5.674655 5.728458
C 3.687869 5.160731 5.739533
C 3.721572 5.547612 5.206110
C 4.073078 4.989350 5.155226
C 4.009862 5.390099 5.419115
C 4.401176 5.076533 5.501127
C 4.483632 5.562749 4.936647
C 4.220989 5.287903 5.231222
C 4.175191 5.555066 5.639889
C 4.689010 5.138034 5.720747
C 4.687736 5.602109 5.233320
C 5.079106 4.987537 5.107529
C 5.105199 5.472579 5.342261
C 5.339151 4.936306 5.559759
C 5.388647 5.373322 4.961786
C 5.411411 5.195023 5.259722
C 5.275880 5.641914 5.665147
C 5.634912 5.418511 5.698562
C 5.618755 5.564477 5.213094
1728
Frame 10/10
C 0.256177 0.106843 0.164783
C 0.157148 0.594181 0.594995
C 0.436077 0.128921 0.701597
C 0.536633 0.670936 0.019185
C 0.064017 0.457528 0.304744
C 0.071265 0.833707 0.726286
C 0.750649 0.199687 0.928659
C 0.626249 0.779885 0.241917
C 0.828435 0.133377 0.169684
C 0.958719 0.354503 0.439752
C 1.517610 0.142939 0.455553
C 1.295164 0.424439 0.058101
C 1.201791 0.209619 0.198051
C 1.164364 0.674333 0.813331
C 1.809378 0.351969 0.794010
C 1.690895 0.750930 0.111417
C 2.064464 0.050469 0.121426
C 2.014034 0.488005 0.663061
C 2.471071 0.046025 0.496370
C 2.393094 0.618184 0.064071
C 2.184900 0.215927 0.322534
C 2.215938 0.615000 0.836894
C 2.800487 0.201170 0.688895
C 2.667905 0.628743 0.176356
C 3.071241 0.061038 0.021603
C 3.029987 0.571084 0.632943
C 3.557481 0.020685 0.364816
C 3.596185 0.460569 0.021616
C 3.296957 0.389195 0.054047
C 3.332057 0.801771 0.722069
C 3.818316 0.238730 0.640167
C 3.700366 0.960064 0.231902
C 4.247176 0.109818 0.022465
C 3.833853 0.542450 0.557246
C 4.570394 0.134675 0.450035
C 4.413722 0.570903 0.121813
C 4.284844 0.348092 0.175253
C 4.237440 0.816197 0.860278
C 4.779584 0.340539 0.750187
C 4.753144 0.639279 0.227220
C 4.791108 0.006658 0.071586
C 5.047530 0.446448 0.431585
C 5.398429 0.082582 0.635117
C 5.494224 0.326443 0.208391
C 5.141039 0.152864 0.361709
C 5.229619 0.663418 0.891096
C 5.649401 0.308224 0.799717
C 5.626932 0.700206 0.209354
C 0.005031 0.833988 0.035787
C 0.138832 1.484165 0.552807
C 0.412572 0.926153 0.312816
C 0.403434 1.458744 0.192026
C 0.197438 1.168502 0.188547
C 0.141300 1.828340 0.566455
C 0.713089 1.118075 0.763382
C 0.787123 1.737814 0.399930
C 1.045319 0.895098 0.013294
C 0.891045 1.452366 0.486006
C 1.651296 1.015399 0.644526
C 1.491280 1.494493 0.055542
C 1.162603 1.169837 0.368419
C 1.106302 1.717033 0.637310
C 1.593683 1.286413 0.737266
C 1.703104 1.786044 0.388021
C 1.887047 1.107152 0.038764
C 1.995336 1.547065 0.456933
C 2.409239 1.025926 0.639539
C 2.532983 1.554162 0.062229
C 2.360383 1.289757 0.209085
C 2.223653 1.643525 0.675946
C 2.754798 1.394868 0.831648
C 2.653945 1.903496 0.191290
C 3.045690 1.021287 0.138893
C 3.063009 1.575726 0.521453
C 3.482382 1.061586 0.447257
C 3.670797 1.296823 0.004202
C 3.308456 1.224089 0.072125
C 3.175471 1.860507 0.892491
C 3.730140 1.331950 0.632863
C 3.882956 1.650474 0.173323
C 3.993622 1.169953 0.073265
C 4.070557 1.489218 0.540365
C 4.544525 0.876200 0.616808
C 4.549912 1.483027 0.158816
C 4.419013 1.133621 0.260425
C 4.331540 1.624475 0.619195
C 4.751819 1.288087 0.683965
C 4.770285 1.740953 0.156540
C 4.892701 1.004150 0.021355
C 5.060299 1.356565 0.385246
C 5.460854 1.057093 0.542009
C 5.345745 1.474461 0.045404
C 5.285706 1.096127 0.175328
C 5.190834 1.737087 0.675310
C 5.716838 1.358461 0.787075
C 5.658315 1.788748 0.186741
C 0.155221 1.901988 0.137563
C 0.001309 2.631517 0.484807
C 0.433841 1.823101 0.513841
C 0.642380 2.587668 0.108831
C 0.187844 2.259057 0.243845
C 0.331626 2.584896 0.725916
C 0.631741 2.258238 0.702396
C 0.582291 2.881574 0.303939
C 1.131864 2.182320 0.042291
C 1.077137 2.575217 0.471143
C 1.453562 1.984747 0.499387
C 1.662300 2.667799 0.031046
C 1.186094 2.172107 0.328716
C 1.121455 2.663858 0.724041
C 1.666005 2.329368 0.764184
C 1.946151 2.789577 0.261969
C 2.058958 2.081237 0.076398
C 2.032827 2.522514 0.459303
C 2.669097 1.998590 0.622695
C 2.563523 2.380327 0.172977
C 2.300460 2.179053 0.341328
C 2.252309 2.869891 0.730988
C 2.609792 2.345279 0.780051
C 2.798155 2.786931 0.184722
C 3.129151 2.008597 0.115793
C 2.859414 2.437665 0.665133
C 3.574155 1.935227 0.635903
C 3.431536 2.632896 0.176775
C 3.367861 2.284998 0.296184
C 3.358142 2.787849 0.775971
C 3.650313 2.334724 0.865758
C 3.834954 2.695772 0.253538
C 4.150281 2.034080 0.055156
C 4.094540 2.552055 0.398991
C 4.393738 1.870880 0.534341
C 4.493810 2.768276 0.123797
C 4.346788 2.210126 0.151924
C 4.146743 2.677380 0.701373
C 4.796913 2.251123 0.826208
C 4.776459 2.567751 0.275781
C 4.900193 1.961514 0.004135
C 4.999066 2.533918 0.544754
C 5.438481 1.829501 0.581805
C 5.437461 2.530361 0.151539
C 5.135870 2.294411 0.267645
C 5.249003 2.633147 0.663521
C 5.727272 2.339739 0.529220
C 5.608512 2.693320 0.389187
C 0.154605 3.067186 0.106782
C 0.022021 3.757806 0.489803
C 0.616516 2.964825 0.554818
C 0.556204 3.489950 0.006278
C 0.197031 3.232179 0.407508
C 0.180380 3.794891 0.793943
C 0.892313 3.310098 0.716372
C 0.820570 3.887056 0.309760
C 0.854703 2.827273 0.064932
C 1.091889 3.466085 0.632293
C 1.544115 3.075180 0.283942
C 1.516397 3.640836 0.011394
C 1.082824 3.236037 0.191703
C 1.279568 3.711944 0.724369
C 1.842632 3.243985 0.571940
C 1.772158 3.777235 0.196996
C 1.890166 2.884810 0.010540
C 1.921750 3.531024 0.375611
C 2.656570 3.057292 0.539968
C 2.501023 3.617980 0.083770
C 2.166935 3.282413 0.368561
C 2.436804 3.819804 0.870612
C 2.764055 3.154865 0.783479
C 2.538614 3.621530 0.361925
C 3.039421 3.127030 0.048284
C 2.962746 3.323483 0.490740
C 3.494510 3.016655 0.459490
C 3.514355 3.358087 0.056954
C 3.149651 3.329364 0.266009
C 3.293981 3.881980 0.704345
C 3.902958 3.186912 0.777158
C 3.796168 3.773691 0.201694
C 4.000287 3.032864 0.024349
C 3.859203 3.512784 0.550858
C 4.543047 2.899824 0.613220
C 4.368995 3.516873 0.134771
C 4.251428 3.285016 0.077461
C 4.145919 3.711789 0.789125
C 4.719093 3.326863 0.793149
C 4.855191 3.689965 0.113430
C 4.994088 3.097358 0.062254
C 4.977503 3.395250 0.386515
C 5.558303 3.069816 0.417429
C 5.481987 3.354903 0.083445
C 5.146481 3.334123 0.170227
C 5.289256 3.785232 0.748474
C 5.747410 3.204650 0.675922
C 5.628585 3.628375 0.371767
C 0.061365 3.849203 0.139819
C 0.135966 4.522780 0.322443
C 0.531229 3.821635 0.328787
C 0.411975 4.460514 0.017221
C 0.248589 4.226211 0.125086
C 0.365126 4.667063 0.892110
C 0.614612 4.120629 0.738158
C 0.670815 4.629355 0.371501
C 1.073950 3.913427 0.200673
C 1.128706 4.424036 0.417138
C 1.480768 3.926607 0.638232
C 1.251233 4.482194 0.138489
C 1.379262 4.263811 0.304978
C 1.272397 4.723174 0.922588
C 1.730088 4.292563 0.906716
C 1.835284 4.726897 0.107839
C 2.151624 3.822263 0.100429
C 2.031471 4.501382 0.330503
C 2.386274 3.986567 0.386352
C 2.435893 4.421444 0.118389
C 2.116991 4.231206 0.176261
C 2.142880 4.931006 0.632090
C 2.681661 4.207296 0.716623
C 2.945345 4.650060 0.321639
C 3.059716 3.921532 0.159518
C 2.967747 4.485127 0.622562
C 3.593465 3.890501 0.441843
C 3.432399 4.744170 0.072171
C 3.267810 4.232839 0.128077
C 3.021786 4.774947 0.907586
C 3.869097 4.129235 0.633480
C 3.771103 4.863801 0.194147
C 3.784885 4.111668 0.018341
C 3.921926 4.422034 0.542768
C 4.484025 4.086064 0.385348
C 4.325925 4.368143 0.004031
C 4.279220 4.123775 0.186914
C 4.260967 4.985016 0.760634
C 4.802779 4.420489 0.753122
C 4.586966 4.697957 0.359284
C 5.056571 4.020459 0.065778
C 4.926191 4.542058 0.326101
C 5.627426 3.958925 0.465864
C 5.319702 4.503513 0.122214
C 5.155946 4.310359 0.254688
C 5.234329 4.712031 0.896827
C 5.662087 4.143648 0.752264
C 5.624760 4.837613 0.268610
C 0.078730 4.820748 0.182259
C 0.142937 5.622212 0.345872
C 0.543495 5.165344 0.473346
C 0.310949 5.471310 0.126635
C 0.121196 5.158730 0.428737
C 0.192989 5.743424 0.644612
C 0.871026 5.355575 0.692536
C 0.732609 5.593855 0.080522
C 0.873511 4.910667 0.098384
C 0.951794 5.666002 0.404533
C 1.523559 5.063275 0.607584
C 1.635287 5.537683 0.023719
C 1.156513 5.232605 0.245001
C 1.136171 5.731309 0.605051
C 1.694723 5.271403 0.851521
C 1.689683 5.636317 0.388364
C 1.902371 5.028645 0.214885
C 1.878148 5.386386 0.545450
C 2.380408 4.935997 0.526677
C 2.523796 5.415608 0.069880
C 2.147928 5.125444 0.164110
C 2.392086 5.624551 0.894339
C 2.804641 5.378742 0.803991
C 2.938781 5.731490 0.285202
C 2.901801 4.879269 0.142612
C 2.993067 5.404739 0.559068
C 3.481156 4.997322 0.616128
C 3.421861 5.428866 0.054206
C 3.293568 5.152288 0.113973
C 3.458558 5.695177 0.576307
C 3.928687 5.198178 0.768739
C 3.924319 5.637960 0.204882
C 4.067582 4.860497 0.047062
C 4.013996 5.377775 0.307247
C 4.391271 4.882391 0.529907
C 4.510851 5.361270 0.062353
C 4.402825 5.252738 0.379200
C 3.987840 5.747090 0.908577
C 4.782542 5.083760 0.784901
C 4.830812 5.599984 0.337775
C 4.873322 5.017194 0.045437
C 4.974243 5.386194 0.433627
C 5.356168 4.987501 0.478040
C 5.399910 5.329867 0.029496
C 5.322443 5.253639 0.409102
C 5.164173 5.575755 0.649939
C 5.726337 5.049496 0.797582
C 5.662285 5.636786 0.087102
C 0.024098 0.077696 0.722479
C 0.071843 0.307165 1.584598
C 0.310702 0.019259 1.543337
C 0.452969 0.369285 1.066296
C 0.343037 0.315188 1.309402
C 0.237797 0.575688 1.638374
C 0.646271 0.316146 1.786911
C 0.912476 0.824607 1.193487
C 1.101609 0.067838 0.946300
C 1.132447 0.331610 1.562049
C 1.705451 0.021941 1.547612
C 1.334621 0.417394 0.989484
C 1.268258 0.177927 1.229714
C 1.333477 0.802487 1.792110
C 1.843701 0.405023 1.829283
C 1.759492 0.656053 1.125677
C 1.848295 0.055718 0.951847
C 2.192707 0.484686 1.412807
C 2.644987 0.006247 1.457237
C 2.357584 0.420296 0.971608
C 2.141157 0.312411 1.213716
C 2.414247 0.703909 1.680051
C 2.734495 0.345707 1.773381
C 2.648155 0.789537 1.110135
C 3.052311 0.114578 0.812485
C 2.978380 0.440237 1.606401
C 3.576964 0.036242 1.562349
C 3.703689 0.461983 1.075231
C 3.113233 0.184892 1.331435
C 3.310802 0.829403 1.659070
C 3.792611 0.420448 1.683221
C 3.898758 0.832994 1.258996
C 4.093881 0.233573 1.000607
C 3.977762 0.349473 1.470117
C 4.457241 0.197884 1.518964
C 4.384476 0.530261 0.974071
C 4.271968 0.177247 1.287995
C 4.363914 0.872170 1.619504
C 4.600877 0.206705 1.743991
C 4.798612 0.588986 1.347324
C 5.001636 0.164028 1.001418
C 5.132590 0.362719 1.483079
C 5.520638 0.036661 1.536299
C 5.374466 0.446126 0.801994
C 5.441874 0.310981 1.154418
C 5.163780 0.665770 1.643445
C 5.700419 0.333101 1.834793
C 5.665601 0.857726 1.377481
C 0.042717 1.088193 1.103940
C 0.006624 1.514108 1.389973
C 0.609835 0.999312 1.362182
C 0.438967 1.618689 0.900978
C 0.347247 1.151064 1.405462
C 0.162005 1.812969 1.806714
C 0.558798 1.352793 1.850712
C 0.904591 1.641399 1.247080
C 0.976747 1.110064 1.079138
C 1.147694 1.471064 1.586251
C 1.593030 0.969534 1.378579
C 1.493128 1.564744 1.145298
C 1.319215 1.164155 1.389019
C 1.236404 1.737591 1.760547
C 1.745537 1.348843 1.794217
C 1.832363 1.935641 1.343016
C 1.946541 0.847656 1.045551
C 2.099251 1.604634 1.426191
C 2.583232 0.959494 1.358752
C 2.365170 1.445594 0.911679
C 2.181617 1.236655 1.221819
C 2.357692 1.549725 1.793647
C 2.838909 1.132276 1.641345
C 2.716920 1.810666 1.372830
C 2.879874 1.091504 1.065038
C 2.922228 1.426846 1.594223
C 3.651572 0.934451 1.596054
C 3.639883 1.522659 0.860658
C 3.265274 1.208785 1.233521
C 3.259821 1.850204 1.780060
C 3.736373 1.363300 1.784550
C 3.752684 1.827422 1.340999
C 4.070763 1.098831 0.998841
C 4.045533 1.566864 1.433306
C 4.505428 1.079499 1.477957
C 4.379698 1.489460 0.939805
C 4.298202 1.144355 1.152430
C 4.120961 1.736439 1.780210
C 4.646949 1.210896 1.843828
C 4.747268 1.663167 1.188710
C 4.894777 0.934737 1.094252
C 4.865734 1.536227 1.476994
C 5.365748 0.973130 1.518681
C 5.364434 1.393011 0.986376
C 5.453540 1.189968 1.344140
C 5.297510 1.908289 1.654826
C 5.629453 1.146311 1.638849
C 5.733993 1.584767 1.158897
C 0.039665 1.958633 0.942846
C 0.003399 2.587027 1.451213
C 0.362380 1.958801 1.406939
C 0.405518 2.506029 1.087574
C 0.214121 2.082940 1.169529
C 0.145248 2.864272 1.817528
C 0.897428 2.196312 1.711258
C 0.822471 2.775884 1.119081
C 0.994295 1.890491 1.075739
C 0.892118 2.341755 1.458159
C 1.591090 1.867514 1.562739
C 1.574869 2.623641 0.963851
C 1.229791 2.261577 1.134624
C 1.014848 2.763056 1.778342
C 1.693372 2.084225 1.774783
C 1.878284 2.670740 1.227316
C 1.846323 2.150411 1.000947
C 2.028127 2.504722 1.535310
C 2.514426 1.942978 1.583329
C 2.612746 2.576320 0.992317
C 2.215825 2.318227 1.217210
C 2.261790 2.619216 1.699288
C 2.767116 2.349956 1.634792
C 2.781751 2.847362 1.299635
C 3.000981 2.189552 0.973035
C 2.994815 2.327660 1.376377
C 3.468303 1.892360 1.615211
C 3.291220 2.456721 0.941317
C 3.181899 2.147749 1.256023
C 3.319058 2.787049 1.702639
C 3.664208 2.397519 1.615239
C 3.639498 2.739262 1.064039
C 4.041658 1.872021 0.917813
C 3.999693 2.522335 1.426055
C 4.519922 2.089866 1.420803
C 4.404501 2.385908 1.074661
C 4.101283 2.233110 1.254322
C 4.208333 2.797138 1.856621
C 4.804720 2.341118 1.637286
C 4.882090 2.894604 1.193184
C 4.896218 1.978183 0.920707
C 5.137130 2.482363 1.655483
C 5.443620 2.051144 1.477177
C 5.562946 2.459544 1.098321
C 5.150459 2.138207 1.204125
C 5.095982 2.698430 1.800105
C 5.564490 2.113038 1.789057
C 5.685356 2.702651 1.110590
C 0.131596 2.886974 0.855179
C 0.130009 3.423291 1.368265
C 0.498201 2.800412 1.408659
C 0.476482 3.537627 0.939041
C 0.368694 3.383637 1.221278
C 0.287889 3.642695 1.721693
C 0.868381 3.320266 1.769372
C 0.860688 3.863604 1.257052
C 1.134404 2.927208 0.969060
C 1.021546 3.298852 1.553836
C 1.564554 3.175908 1.355342
C 1.452492 3.600751 0.910414
C 1.234055 3.313491 1.383844
C 1.168383 3.675148 1.861075
C 1.666552 3.264110 1.671485
C 1.791112 3.924624 1.235511
C 1.978873 2.989116 1.198405
C 2.044408 3.588495 1.440346
C 2.514679 2.989147 1.571510
C 2.527486 3.369282 1.145602
C 2.290406 3.072149 1.316892
C 2.356273 3.715179 1.586770
C 2.755316 3.055204 1.750929
C 2.813843 3.760609 1.045140
C 2.923325 2.996031 1.116864
C 3.146275 3.297479 1.515579
C 3.646072 3.102159 1.384764
C 3.535954 3.464074 1.028256
C 3.179409 3.174783 1.155940
C 3.300136 3.735758 1.716428
C 3.860906 3.347952 1.739876
C 3.783218 3.637827 1.326315
C 4.026424 2.958861 1.132989
C 3.985111 3.623920 1.507744
C 4.618330 3.075100 1.540291
C 4.535343 3.695522 0.955769
C 4.288291 3.088890 1.302170
C 4.317573 3.641322 1.652707
C 4.617328 3.240221 1.757566
C 4.889726 3.663031 1.378707
C 5.006914 3.218104 0.979359
C 4.888890 3.399901 1.420193
C 5.514984 2.840935 1.634144
C 5.441141 3.429797 1.108174
C 5.198114 3.169703 1.166802
C 5.477403 3.641874 1.734799
C 5.629935 3.353095 1.872338
C 5.641083 3.541031 1.316775
C 0.022066 4.049922 0.774064
C 0.052657 4.630449 1.406629
C 0.523129 4.018042 1.564056
C 0.403567 4.366427 1.086317
C 0.127674 4.426694 1.259591
C 0.322525 4.726353 1.744420
C 0.670742 4.141713 1.739142
C 0.628054 4.641404 1.219011
C 0.975136 3.950694 1.003394
C 0.910399 4.484210 1.540146
C 1.325965 3.994909 1.384268
C 1.467728 4.415988 0.795620
C 1.193191 4.308571 1.364248
C 1.242163 4.793043 1.926142
C 1.872215 4.242157 1.684902
C 1.810918 4.706383 1.198986
C 2.078366 4.126382 1.071450
C 2.176939 4.490993 1.474342
C 2.670045 3.890973 1.427017
C 2.431784 4.604454 0.978319
C 2.357763 4.329400 1.265593
C 2.283839 4.686759 1.624849
C 2.808055 4.310470 1.782614
C 2.795549 4.708442 1.066225
C 3.105080 4.113492 0.975687
C 3.066396 4.440480 1.468133
C 3.366313 3.996134 1.540372
C 3.376155 4.624306 0.968021
C 3.269804 4.071044 1.239631
C 3.258081 4.671331 1.567618
C 3.642658 4.225537 1.761430
C 3.747498 4.814880 1.309292
C 4.019890 3.964621 0.924525
C 3.886996 4.517840 1.566049
C 4.331250 3.958301 1.399697
C 4.560036 4.561322 0.873747
C 4.347933 4.361912 1.122907
C 4.386113 4.738249 1.735115
C 4.871646 4.239084 1.643705
C 4.706382 4.583086 1.302755
C 4.790271 3.956187 1.091458
C 5.135999 4.469501 1.552728
C 5.511140 4.075183 1.329675
C 5.443968 4.557977 0.782202
C 5.160188 4.358354 1.205408
C 5.288393 4.738142 1.646877
C 5.568957 4.298133 1.594248
C 5.681679 4.613644 1.151468
C 0.022114 5.137019 1.183290
C 0.196587 5.578528 1.378290
C 0.382840 5.014628 1.644127
C 0.428830 5.510405 0.870619
C 0.239477 5.250110 1.287686
C 0.369405 5.694167 1.752321
C 0.670835 5.276383 1.574328
C 0.609580 5.586948 1.196125
C 1.062575 4.947996 1.130653
C 0.913888 5.511826 1.459210
C 1.373188 5.051623 1.510783
C 1.394499 5.443171 0.842084
C 1.107727 5.431186 1.242306
C 1.316519 5.719384 1.841580
C 1.835016 5.214828 1.654738
C 1.705253 5.749328 1.227468
C 2.008624 4.965058 0.854076
C 1.940710 5.661206 1.466318
C 2.405776 4.917003 1.475771
C 2.590551 5.435048 1.050180
C 2.271341 5.202993 1.339484
C 2.421913 5.675365 1.680763
C 2.874828 5.192630 1.728960
C 2.834772 5.698179 1.351795
C 3.062465 5.113064 1.085064
C 3.174864 5.390431 1.638735
C 3.568810 5.014633 1.317424
C 3.501238 5.609175 0.926924
C 3.131234 5.242899 1.360068
C 3.182863 5.713378 1.670173
C 3.691772 5.096324 1.813785
C 3.894341 5.615123 1.124514
C 4.145959 5.082167 1.055124
C 3.883836 5.474962 1.650715
C 4.423417 4.954088 1.486638
C 4.457828 5.571265 0.958340
C 4.329181 5.200333 1.206697
C 4.133125 5.643544 1.637072
C 4.757667 5.253492 1.640338
C 4.846396 5.634189 1.193856
C 5.015420 5.057166 1.089147
C 5.067423 5.435773 1.508693
C 5.643448 4.912644 1.611591
C 5.325531 5.510057 1.016406
C 5.367495 5.240615 1.319576
C 5.257970 5.631885 1.635698
C 5.573697 5.382509 1.754093
C 5.680298 5.589076 1.295389
C 0.051049 0.047715 1.876272
C 0.024096 0.755328 2.646315
C 0.647112 0.038539 2.490304
C 0.347734 0.336411 1.898677
C 0.096433 0.332345 2.346960
C 0.249137 0.544098 2.634030
C 0.726481 0.379671 2.704067
C 0.703427 0.612948 2.155610
C 0.981031 0.008289 2.113598
C 0.852134 0.561331 2.491899
C 1.706001 0.062250 2.599398
C 1.595220 0.469739 2.044113
C 1.239636 0.212410 2.053985
C 1.349513 0.878812 2.682165
C 1.679137 0.287338 2.728745
C 1.842261 0.771092 2.145964
C 1.991198 0.202114 1.941141
C 1.929299 0.592931 2.367572
C 2.380331 0.140488 2.466480
C 2.311734 0.419806 2.050562
C 2.418979 0.163878 2.206284
C 2.226380 0.824845 2.708455
C 2.639412 0.253052 2.755826
C 2.708135 0.698239 2.233622
C 3.041857 0.075977 1.984561
C 3.107646 0.541843 2.493104
C 3.408319 0.062056 2.359684
C 3.515600 0.353780 2.014685
C 3.315802 0.333859 2.241197
C 3.210973 0.636605 2.799581
C 3.789775 0.266363 2.626050
C 3.729795 0.761388 2.298800
C 3.933563 0.158215 2.009342
C 4.025162 0.499961 2.611002
C 4.514155 0.088063 2.676202
C 4.555034 0.490484 1.873078
C 4.281669 0.367029 2.114550
C 4.156827 0.670739 2.775494
C 4.824529 0.265439 2.567598
C 4.864533 0.896885 2.191374
C 5.173333 0.079404 2.170953
C 5.034664 0.453993 2.680287
C 5.436379 0.122465 2.440015
C 5.417200 0.301310 2.032186
C 5.331543 0.355410 2.318377
C 5.271511 0.678438 2.857717
C 5.723911 0.390973 2.689212
C 5.656222 0.787263 2.100425
C 0.021653 0.874288 1.853986
C 0.078246 1.710262 2.493235
C 0.402577 1.021726 2.487190
C 0.477691 1.496704 2.164116
C 0.160471 1.284732 2.426073
C 0.243974 1.732389 2.886895
C 0.821532 1.199324 2.814716
C 0.726480 1.786451 2.436534
C 0.911346 1.067689 2.128969
C 0.985245 1.641434 2.492434
C 1.657653 1.108934 2.610010
C 1.417939 1.483876 2.105779
C 1.315949 1.077162 2.214039
C 1.109922 1.772538 2.731694
C 1.668586 1.336416 2.770253
C 1.767779 1.925302 2.215481
C 1.952796 1.135139 1.895471
C 1.903047 1.568631 2.413997
C 2.609512 0.945123 2.380586
C 2.555978 1.349083 2.096041
C 2.332748 1.322675 2.382853
C 2.233382 1.974457 2.763200
C 2.889540 1.263556 2.616009
C 2.790344 1.793844 2.088989
C 2.952917 0.905601 2.109709
C 3.159598 1.419039 2.428477
C 3.426232 0.884925 2.432239
C 3.601630 1.375556 2.012704
C 3.309536 1.166171 2.288429
C 3.135489 1.572346 2.673431
C 3.823251 1.256605 2.909974
C 3.797616 1.626460 2.261464
C 3.905131 0.889360 1.931285
C 4.023583 1.578886 2.429190
C 4.579671 1.121243 2.613952
C 4.529391 1.333642 2.114986
C 4.297320 1.185167 2.419788
C 4.259512 1.825773 2.817155
C 4.873423 1.243065 2.606882
C 4.677284 1.924433 2.320335
C 4.931009 0.885593 1.907203
C 5.188822 1.553634 2.368238
C 5.455541 0.826391 2.539379
C 5.461640 1.452718 1.982182
C 5.368506 1.386230 2.233524
C 5.335087 1.600904 2.926919
C 5.719300 1.326895 2.850337
C 5.565019 1.631864 2.282646
C 0.006753 1.807086 2.087927
C 0.054703 2.668874 2.359364
C 0.350752 2.053102 2.585317
C 0.346255 2.453282 1.908874
C 0.198472 2.324833 2.193759
C 0.318990 2.879731 2.842263
C 0.655591 2.091800 2.672914
C 0.846358 2.787123 2.068947
C 0.875269 2.027517 1.918920
C 0.826267 2.394016 2.588296
C 1.340900 1.976002 2.615763
C 1.404453 2.572078 2.043117
C 1.320111 2.236359 2.123218
C 1.286999 2.695261 2.823765
C 1.651325 2.150776 2.771807
C 1.654512 2.817825 2.283343
C 2.054511 2.201971 2.108760
C 2.043551 2.576248 2.454806
C 2.443087 1.865331 2.601404
C 2.583054 2.557068 1.963302
C 2.365898 2.342834 2.338159
C 2.271026 2.674232 2.640007
C 2.727118 2.263817 2.716224
C 2.937960 2.780988 2.225817
C 3.003937 2.034752 2.176601
C 2.895394 2.519931 2.630990
C 3.575900 1.950102 2.489590
C 3.507790 2.539560 2.126403
C 3.177145 2.153214 2.449365
C 3.155040 2.673169 2.645276
C 3.618192 2.358005 2.680159
C 3.865350 2.613080 2.099160
C 4.210444 2.059978 1.945418
C 3.928004 2.458778 2.312691
C 4.435714 1.874353 2.609812
C 4.585306 2.391903 1.844799
C 4.396750 2.280253 2.080632
C 4.381371 2.804214 2.858690
C 4.779264 2.201445 2.767915
C 4.748201 2.834605 2.289147
C 5.162503 1.958453 2.008708
C 4.902708 2.433692 2.479778
C 5.393239 1.948057 2.653344
C 5.586631 2.442449 2.016409
C 5.294022 2.281208 2.300857
C 5.175338 2.901350 2.717729
C 5.655781 2.416451 2.810356
C 5.642290 2.716193 2.174063
C 0.191169 2.952621 2.155908
C 0.033391 3.473372 2.450143
C 0.469424 2.962249 2.563541
C 0.585335 3.465243 1.955970
C 0.101592 3.220891 2.338874
C 0.095712 3.718986 2.703887
C 0.667500 3.120524 2.628954
C 0.652856 3.693116 2.319033
C 0.789092 3.063809 2.049417
C 0.967522 3.569013 2.480930
C 1.292014 2.977505 2.670858
C 1.559678 3.616509 2.026020
C 1.166350 3.223069 2.454167
C 1.158187 3.518347 2.755726
C 1.732540 3.252235 2.834042
C 1.890983 3.757509 2.355436
C 2.029670 2.822454 2.008676
C 2.160295 3.547213 2.391047
C 2.509524 3.074486 2.354890
C 2.726080 3.403471 1.957669
C 2.185688 3.129792 2.181420
C 2.190593 3.773973 2.912303
C 2.647193 3.346965 2.721918
C 2.702006 3.903425 2.154281
C 2.888682 3.159076 2.056732
C 2.991660 3.680982 2.529109
C 3.516999 3.179985 2.473508
C 3.451367 3.448315 1.928384
C 3.305615 3.084072 2.239337
C 3.463696 3.698455 2.760498
C 3.858999 3.356084 2.671007
C 3.868662 3.662163 2.362433
C 3.985706 3.126650 2.023466
C 4.127235 3.545680 2.433553
C 4.394421 2.956629 2.497566
C 4.533360 3.294076 2.021627
C 4.224770 3.259552 2.282525
C 4.381346 3.911596 2.716297
C 4.703054 3.349254 2.665403
C 4.816669 3.775382 2.139468
C 5.042923 2.874497 2.010601
C 4.897697 3.616214 2.462890
C 5.644043 2.847820 2.425965
C 5.409136 3.662267 2.079370
C 5.299878 3.203315 2.319559
C 5.150364 3.785230 2.667465
C 5.731151 3.114447 2.544673
C 5.639662 3.750390 2.218333
C 0.203577 4.041745 1.908658
C 0.122296 4.482525 2.571004
C 0.560248 4.003140 2.340799
C 0.311320 4.433649 2.056479
C 0.418428 4.248231 2.236172
C 0.190593 4.707769 2.754726
C 0.831380 4.231325 2.648052
C 0.714368 4.871756 2.274857
C 1.034834 3.843689 2.022477
C 0.843550 4.589996 2.524121
C 1.401126 3.910882 2.435777
C 1.443929 4.561823 1.906479
C 1.382265 4.257473 2.250821
C 1.136021 4.689884 2.679551
C 1.568801 4.223706 2.751731
C 1.881090 4.813460 2.295319
C 2.038248 3.986481 1.953760
C 1.870071 4.572082 2.537586
C 2.573371 4.021541 2.543024
C 2.495830 4.580943 2.216409
C 2.233335 4.380285 2.348372
C 2.197992 4.703315 2.664237
C 2.576445 4.263436 2.807718
C 2.802958 4.894423 2.254067
C 2.894584 3.987252 1.966361
C 2.956160 4.425625 2.590549
C 3.510008 4.167049 2.601022
C 3.310603 4.407689 2.115054
C 3.367150 4.199476 2.265829
C 3.347588 4.601196 2.771556
C 3.743348 4.403144 2.623477
C 3.736882 4.624171 2.144057
C 3.904860 3.875779 1.974067
C 3.917518 4.687761 2.500403
C 4.427715 4.173364 2.579063
C 4.535951 4.345880 1.899476
C 4.285622 4.384228 2.288880
C 4.235431 4.773296 2.860905
C 4.720487 4.207962 2.670093
C 4.809622 4.748792 2.175604
C 4.920461 4.052831 2.130676
C 4.943529 4.404719 2.422447
C 5.466562 4.115250 2.403005
C 5.655918 4.542032 1.995754
C 5.117246 4.161643 2.266476
C 5.249450 4.695339 2.894520
C 5.716089 4.344988 2.830662
C 5.579016 4.704649 2.186417
C 0.055617 5.129891 1.889830
C 0.028138 5.353429 2.383746
C 0.514823 4.950892 2.608265
C 0.381118 5.372926 2.000836
C 0.123710 5.307721 2.124276
C 0.272314 5.679219 2.685657
C 0.826759 5.331477 2.807802
C 0.811085 5.630840 2.131376
C 1.143510 5.072384 2.030436
C 1.115454 5.533241 2.435162
C 1.444595 5.088139 2.633521
C 1.327162 5.437052 2.089334
C 1.274665 5.322198 2.417659
C 1.130975 5.730505 2.790497
C 1.846615 5.069634 2.787104
C 1.893620 5.665327 2.232899
C 1.839101 5.074899 1.908284
C 2.048788 5.698141 2.442764
C 2.596250 4.826788 2.589765
C 2.572537 5.388486 1.970610
C 2.311129 5.236192 2.100716
C 2.420578 5.736262 2.694656
C 2.746318 5.131344 2.607921
C 2.632276 5.715043 2.311870
C 3.041791 5.000818 1.953970
C 2.926753 5.327117 2.548798
C 3.353489 5.157595 2.506438
C 3.503573 5.633201 2.026903
C 3.243065 5.216599 2.213275
C 3.094774 5.745540 2.638909
C 3.643197 5.265097 2.757582
C 3.929902 5.736205 2.140413
C 3.906958 4.862931 2.064630
C 3.997208 5.569628 2.447662
C 4.583345 4.862330 2.586612
C 4.488452 5.571660 1.867600
C 4.118343 5.327108 2.152597
C 4.358483 5.686885 2.875979
C 4.679820 5.446167 2.760625
C 4.593971 5.707624 2.363226
C 4.887220 5.004807 1.982435
C 5.141927 5.492118 2.545219
C 5.578059 4.982127 2.376997
C 5.303688 5.456176 1.915604
C 5.210581 5.242787 2.165400
C 5.350382 5.709584 2.543543
C 5.701510 5.358409 2.584973
C 5.626790 5.610443 2.112474
C 0.075325 0.153841 3.077225
C 0.099852 0.550735 3.311249
C 0.381632 0.048545 3.340506
C 0.577012 0.386040 2.965257
C 0.312522 0.260879 2.983486
C 0.112125 0.734472 3.651461
C 0.767685 0.137858 3.849391
C 0.719721 0.628455 3.342771
C 0.882158 0.012545 3.009804
C 0.964065 0.538017 3.609942
C 1.583352 0.020755 3.625832
C 1.484585 0.410220 2.860452
C 1.185806 0.244439 3.351181
C 1.182387 0.805277 3.636563
C 1.806138 0.205829 3.871692
C 1.882357 0.732360 3.193501
C 1.882798 0.008693 3.051319
C 1.845801 0.514182 3.625386
C 2.441053 0.113204 3.575510
C 2.497659 0.539194 3.100087
C 2.180921 0.180959 3.101324
C 2.092143 0.682219 3.653868
C 2.737203 0.421930 3.673937
C 2.796566 0.647611 3.315072
C 2.920273 0.074096 2.913743
C 3.099705 0.531165 3.314580
C 3.409415 0.037622 3.276243
C 3.480670 0.699989 3.013626
C 3.197440 0.184027 3.381008
C 3.224586 0.872236 3.806321
C 3.750035 0.045595 3.692235
C 3.706464 0.829325 3.139503
C 4.021872 0.167349 3.020750
C 4.056935 0.358903 3.611902
C 4.545472 0.009495 3.697141
C 4.378008 0.509283 3.008782
C 4.431343 0.103704 3.208333
C 4.370360 0.726748 3.811126
C 4.937127 0.220111 3.690099
C 4.777447 0.690061 3.451325
C 4.825827 0.044880 3.036230
C 5.087699 0.594594 3.396577
C 5.567328 0.193855 3.521416
C 5.515887 0.361096 2.983857
C 5.110104 0.190866 3.167871
C 5.177963 0.806395 3.755232
C 5.688392 0.363918 3.884162
C 5.666048 0.848108 3.283817
C 0.101359 0.912028 2.936772
C 0.163770 1.398422 3.486826
C 0.383932 1.051173 3.378784
C 0.484271 1.525416 3.064019
C 0.338602 1.159102 3.115178
C 0.234725 1.780402 3.924383
C 0.743435 1.299755 3.590497
C 0.671688 1.803167 3.202862
C 1.113226 1.079516 3.073780
C 0.945376 1.600119 3.561922
C 1.655379 1.064682 3.557139
C 1.657593 1.569873 3.100570
C 1.283885 1.447566 3.205298
C 1.354852 1.727975 3.859666
C 1.566328 1.197158 3.831964
C 1.645389 1.852358 3.465156
C 2.110547 0.987796 3.127687
C 1.866933 1.554479 3.458380
C 2.630861 0.913473 3.496067
C 2.450219 1.647585 2.873626
C 2.379218 1.209625 3.124915
C 2.409496 1.874151 3.687706
C 2.816981 1.363677 3.657860
C 2.901200 1.662636 3.253112
C 2.898697 1.040697 3.017673
C 3.180382 1.516351 3.395516
C 3.423491 1.192943 3.507041
C 3.577410 1.415092 2.997586
C 3.268409 1.400717 3.151113
C 3.280450 1.773952 3.858975
C 3.823689 1.337469 3.723490
C 3.843763 1.829458 3.157438
C 4.164466 1.054654 2.937909
C 3.892413 1.672600 3.503841
C 4.457383 1.007099 3.316507
C 4.524498 1.421724 3.133599
C 4.249883 1.221776 3.235024
C 4.160448 1.923673 3.681302
C 4.909365 1.320756 3.654856
C 4.870772 1.716396 3.152988
C 5.118090 0.933997 2.930203
C 5.072834 1.704352 3.465061
C 5.619504 1.101002 3.391411
C 5.618281 1.636646 2.890563
C 5.194900 1.312695 3.271638
C 5.135653 1.756042 3.861040
C 5.689702 1.322577 3.617582
C 5.744251 1.793993 3.407153
C 0.026436 2.196201 3.105422
C 0.036191 2.298762 3.469420
C 0.441112 2.110167 3.524447
C 0.447818 2.415499 3.117757
C 0.314628 2.049116 3.240573
C 0.200605 2.909049 3.738373
C 0.694250 2.222819 3.695430
C 0.859907 2.677654 3.244993
C 1.149370 2.025173 2.842730
C 1.044593 2.402047 3.649639
C 1.495422 2.117024 3.456182
C 1.381105 2.399374 3.057836
C 1.218104 2.163250 3.143176
C 1.177358 2.817720 3.750825
C 1.720433 2.207810 3.625960
C 1.797618 2.876702 3.314425
C 1.848055 2.175825 2.995214
C 2.089801 2.463147 3.441235
C 2.523537 2.091213 3.467953
C 2.364749 2.547634 2.874263
C 2.318782 2.109858 3.302937
C 2.122510 2.916145 3.758663
C 2.842943 2.242996 3.955837
C 2.755136 2.894099 3.184310
C 3.022712 1.942515 3.233244
C 2.988120 2.474440 3.445545
C 3.299525 1.917597 3.431207
C 3.662305 2.611138 2.940495
C 3.122241 2.263351 3.186131
C 3.238557 2.641619 3.786511
C 3.889301 2.228776 3.703600
C 3.684047 2.520473 3.354954
C 4.003639 1.966879 2.847105
C 3.893438 2.476637 3.521772
C 4.625085 1.917804 3.511226
C 4.560741 2.352409 2.914827
C 4.085196 2.162588 3.244156
C 4.103402 2.847530 3.862916
C 4.782885 2.238802 3.692772
C 4.817318 2.662209 3.307134
C 5.038586 1.886982 2.925255
C 4.950966 2.669425 3.664695
C 5.519358 1.963237 3.450604
C 5.370329 2.455296 3.095436
C 5.464720 2.192676 3.204037
C 5.304957 2.888839 3.888559
C 5.697981 2.318958 3.749478
C 5.535126 2.676254 3.216692
C 0.037943 2.847194 2.961040
C 0.019101 3.649171 3.574436
C 0.609669 2.921547 3.522857
C 0.382059 3.435633 2.960557
C 0.291794 3.315393 3.286716
C 0.231873 3.787113 3.907169
C 0.624181 3.209903 3.645485
C 0.704734 3.860302 3.309637
C 1.036425 2.987304 3.202442
C 0.933817 3.673566 3.382884
C 1.656113 3.030661 3.503414
C 1.562811 3.325876 3.060189
C 1.151636 3.262174 3.292075
C 1.200200 3.896110 3.678335
C 1.710888 3.325142 3.898817
C 1.857179 3.854770 3.370404
C 1.927460 3.140600 2.996005
C 2.029767 3.422956 3.473577
C 2.343567 2.874754 3.610345
C 2.376783 3.524471 2.844302
C 2.428019 3.220525 3.269841
C 2.160676 3.718180 3.635485
C 2.867143 3.117155 3.841620
C 2.879822 3.724554 3.267232
C 3.100727 2.927020 3.051954
C 2.960447 3.423838 3.573683
C 3.517440 2.913093 3.662419
C 3.469847 3.337334 3.082435
C 3.223156 3.208354 3.092088
C 3.109391 3.771601 3.728200
C 3.544694 3.284345 3.654435
C 3.691801 3.674144 3.314529
C 4.075897 3.004403 2.941166
C 3.894940 3.580191 3.574791
C 4.656450 3.095832 3.589390
C 4.414724 3.477865 2.884791
C 4.302175 3.105194 3.139714
C 4.463739 3.782942 3.696965
C 4.801251 3.161268 3.866775
C 4.732916 3.663735 3.217321
C 5.045359 3.067437 2.944573
C 5.140548 3.492517 3.502310
C 5.653796 2.943059 3.403474
C 5.463034 3.536902 3.113102
C 5.049820 3.154736 3.294589
C 5.360149 3.771988 3.858986
C 5.594461 3.224509 3.933299
C 5.586500 3.687712 3.335103
C 0.140387 4.006782 2.880894
C 0.061894 4.455812 3.534949
C 0.607604 4.056741 3.451384
C 0.543447 4.618496 3.056404
C 0.166100 4.225590 3.392337
C 0.361339 4.903285 3.871389
C 0.718824 4.284989 3.652810
C 0.810015 4.701386 3.075724
C 1.008594 3.831301 2.972735
C 0.937739 4.506503 3.507972
C 1.461199 4.111267 3.536388
C 1.547341 4.334947 3.029031
C 1.364253 4.324193 3.291319
C 1.219516 4.916424 3.731596
C 1.598356 4.249928 3.732789
C 1.577362 4.721349 3.168793
C 2.065506 4.026536 3.073430
C 2.022126 4.412698 3.363058
C 2.387233 3.878352 3.344689
C 2.500570 4.336686 3.102489
C 2.238894 4.222534 3.440351
C 2.318242 4.670147 3.840208
C 2.663334 4.076247 3.680157
C 2.801155 4.759423 3.409091
C 2.976348 4.019815 2.975710
C 2.961973 4.501577 3.422971
C 3.331957 4.001610 3.623086
C 3.534503 4.371719 2.920786
C 3.171786 4.054438 3.314304
C 3.209567 4.663587 3.734194
C 3.835204 4.305063 3.766766
C 3.631608 4.793906 3.439516
C 4.132168 4.019820 3.125887
C 3.903741 4.576738 3.568694
C 4.561177 3.868835 3.445957
C 4.555091 4.638360 2.862560
C 4.269523 4.303733 3.414678
C 4.143312 4.692924 3.660113
C 4.823783 4.105468 3.830004
C 4.664493 4.850615 3.203499
C 5.149936 4.037296 2.902799
C 4.941595 4.614069 3.345786
C 5.633740 4.002529 3.358104
C 5.428510 4.570074 3.091627
C 5.155482 4.326577 3.128700
C 5.173067 4.648799 3.780371
C 5.711737 4.286787 3.837489
C 5.727889 4.694389 3.176004
C 0.007282 5.125965 2.870708
C 0.151071 5.609172 3.403339
C 0.350279 5.080269 3.670016
C 0.494669 5.578643 3.084663
C 0.335503 5.340118 3.203379
C 0.329788 5.555237 3.641504
C 0.795214 5.092756 3.718918
C 0.811397 5.518458 3.283895
C 0.953634 5.132851 3.053904
C 0.913821 5.376677 3.618926
C 1.431173 5.041696 3.398492
C 1.423510 5.600077 2.891869
C 1.196524 5.257226 3.075506
C 1.229607 5.641082 3.845294
C 1.846137 5.260912 3.801465
C 1.767414 5.720016 3.107630
C 2.079350 5.201566 2.929895
C 2.052400 5.670182 3.542699
C 2.710628 5.006225 3.474002
C 2.400419 5.464572 2.810730
C 2.337134 5.371629 3.268885
C 2.216811 5.665629 3.870509
C 2.714485 5.378230 3.827744
C 2.718277 5.649909 3.125297
C 3.169799 4.921376 3.038253
C 3.113916 5.438483 3.364566
C 3.544704 5.209789 3.569366
C 3.416694 5.720797 2.990496
C 3.250810 5.379202 3.097633
C 3.207785 5.665698 3.577760
C 3.764256 5.204263 3.872961
C 3.829174 5.733384 3.409859
C 3.975967 4.946578 3.003987
C 3.936439 5.401238 3.449020
C 4.518812 5.035684 3.360863
C 4.306730 5.426776 2.932417
C 4.057060 5.316720 3.227442
C 4.210363 5.611467 3.801209
C 4.708928 5.367588 3.728124
C 4.813739 5.611951 3.342776
C 4.941896 5.028467 2.891956
C 4.915667 5.414407 3.515336
C 5.520482 4.988793 3.546589
C 5.367574 5.519012 3.003212
C 5.177221 5.359296 3.162112
C 5.306606 5.748972 3.723039
C 5.702333 5.198180 3.714708
C 5.647769 5.681262 3.043528
C 0.121632 0.254291 3.851832
C 0.035513 0.642855 4.286960
C 0.369465 0.164676 4.356108
C 0.632366 0.569097 3.931515
C 0.285581 0.263206 4.095093
C 0.239499 0.605298 4.625548
C 0.825880 0.128168 4.824408
C 0.679631 0.884075 4.195381
C 1.059586 0.117639 3.828844
C 0.986663 0.625762 4.597930
C 1.524290 0.186869 4.684124
C 1.694524 0.479013 3.859334
C 1.177147 0.156404 4.182954
C 1.290999 0.736922 4.838695
C 1.862805 0.296898 4.596603
C 1.847559 0.751034 4.180604
C 2.089129 0.137034 3.835128
C 2.087469 0.498673 4.587594
C 2.408229 0.124176 4.429678
C 2.533508 0.370778 3.880492
C 2.252972 0.229749 4.092731
C 2.218569 0.813542 4.662004
C 2.810729 0.472828 4.734644
C 2.734620 0.660181 4.435783
C 2.961784 0.109866 3.835604
C 2.867822 0.429422 4.445544
C 3.599028 0.093677 4.514149
C 3.411204 0.479395 3.885163
C 3.283636 0.262436 4.430775
C 3.257625 0.743686 4.614619
C 3.808841 0.183119 4.814213
C 3.820221 0.885934 4.146346
C 3.963318 0.178512 4.033838
C 3.879853 0.460391 4.591460
C 4.367002 0.137921 4.471682
C 4.573180 0.638872 4.096654
C 4.327031 0.315482 4.217636
C 4.262258 0.795330 4.927722
C 4.916826 0.246574 4.776883
C 4.737917 0.706322 4.369499
C 4.927736 0.068543 4.220333
C 4.823676 0.465678 4.467080
C 5.662351 0.111571 4.593250
C 5.415642 0.432665 3.973809
C 5.102124 0.248447 4.134239
C 5.371340 0.668913 4.641594
C 5.722992 0.047769 4.846058
C 5.579414 0.849510 4.306137
C 0.065895 1.028532 4.076020
C 0.111711 1.714987 4.383688
C 0.540544 1.024782 4.473868
C 0.606615 1.516553 3.927873
C 0.346743 1.243876 4.097148
C 0.243505 1.766092 4.659320
C 0.754001 1.154876 4.725067
C 0.833141 1.933335 4.133859
C 0.977450 1.084467 3.957122
C 1.129631 1.435820 4.550929
C 1.536327 1.019914 4.416987
C 1.416351 1.587647 4.158859
C 1.142793 1.128817 4.159576
C 1.288428 1.690816 4.886105
C 1.810795 1.272637 4.596667
C 1.736279 1.893251 4.340159
C 2.055590 0.986946 4.220142
C 2.083101 1.670455 4.574054
C 2.417098 0.941568 4.479107
C 2.382606 1.580739 3.941584
C 2.262888 1.137065 4.293459
C 2.313620 1.725554 4.723107
C 2.852001 1.438016 4.666503
C 2.629598 1.697167 4.137047
C 2.903546 1.147849 4.042567
C 3.136452 1.313742 4.522268
C 3.571033 0.926094 4.505355
C 3.526781 1.636253 4.146167
C 3.333310 1.143338 4.382294
C 3.148698 1.707858 4.801508
C 3.933076 1.292014 4.791363
C 3.703526 1.586461 4.342550
C 4.031609 1.166810 4.006129
C 4.124678 1.432630 4.556348
C 4.592346 0.861203 4.525602
C 4.603240 1.420575 3.888936
C 4.248987 1.302661 4.207116
C 4.294139 1.597515 4.807062
C 4.684477 1.340441 4.537900
C 4.727365 1.635046 4.322552
C 5.145321 1.042150 4.066173
C 5.079670 1.438342 4.494167
C 5.654672 1.141251 4.435603
C 5.415866 1.671078 4.057370
C 5.241150 1.172428 4.452553
C 5.321190 1.854070 4.804996
C 5.596978 1.187817 4.787271
C 5.621454 1.816108 4.284090
C 0.021408 2.088945 3.999735
C 0.117796 2.496271 4.387065
C 0.591739 2.037095 4.437065
C 0.467924 2.449766 3.868154
C 0.243815 2.124030 4.187360
C 0.297358 2.623023 4.660992
C 0.733998 2.254586 4.933074
C 0.958830 2.790033 4.198459
C 1.099381 1.949741 4.199517
C 1.048636 2.598414 4.534634
C 1.467206 2.021679 4.479467
C 1.672696 2.316350 4.093271
C 1.252995 2.444066 4.159506
C 1.378931 2.666476 4.671220
C 1.835833 2.162046 4.900020
C 1.762477 2.622031 4.344105
C 2.032631 2.035602 3.985897
C 2.040695 2.591765 4.545613
C 2.423911 1.846463 4.498984
C 2.427949 2.554376 4.073490
C 2.325750 2.310201 4.255182
C 2.306905 2.757341 4.660429
C 2.757463 2.225538 4.881901
C 2.833976 2.724016 4.104887
C 2.879590 1.991017 4.092961
C 3.022420 2.603055 4.440386
C 3.639503 1.985009 4.410347
C 3.473554 2.537462 3.895870
C 3.077614 2.226589 4.277285
C 3.265373 2.762584 4.748799
C 3.731223 2.427847 4.823348
C 3.899997 2.774714 4.272682
C 3.787598 1.999794 3.972149
C 3.994649 2.655703 4.520302
C 4.464673 1.884775 4.573261
C 4.445564 2.466867 4.004157
C 4.453785 2.331860 4.268400
C 4.206698 2.766955 4.742289
C 4.789037 2.343452 4.854872
C 4.629277 2.640562 4.119421
C 4.996081 2.092508 3.908382
C 5.050261 2.339767 4.526106
C 5.504681 2.148711 4.594170
C 5.559116 2.359029 4.015392
C 5.184290 2.265647 4.295892
C 5.360618 2.876664 4.770365
C 5.610658 2.353244 4.759727
C 5.611919 2.636645 4.299760
C 0.207712 2.858016 4.077261
C 0.060697 3.485378 4.309072
C 0.386129 3.108173 4.360075
C 0.448940 3.602077 4.108058
C 0.159565 3.141250 4.106096
C 0.300136 3.652202 4.818996
C 0.768009 3.269298 4.863713
C 0.648642 3.867239 4.191726
C 1.174876 3.105959 3.935820
C 0.957326 3.598590 4.357870
C 1.396335 2.990839 4.421934
C 1.358196 3.552804 3.973748
C 1.075761 3.167178 4.325348
C 1.187577 3.676405 4.822481
C 1.643299 3.222951 4.862821
C 1.904930 3.836279 4.243673
C 2.162301 3.029379 4.019371
C 1.996744 3.565109 4.366161
C 2.382963 3.037367 4.562304
C 2.473963 3.421666 3.873140
C 2.357347 3.343263 4.261463
C 2.215821 3.650905 4.858702
C 2.774067 3.365753 4.881829
C 2.633946 3.885699 4.238910
C 3.144432 2.852076 3.928935
C 3.023839 3.532369 4.528789
C 3.691906 2.948075 4.491940
C 3.443342 3.528225 3.810094
C 3.118223 3.182959 4.271336
C 3.249730 3.791695 4.609205
C 3.664968 3.133307 4.783513
C 3.546825 3.800608 4.238453
C 4.045316 3.081189 4.082455
C 4.183143 3.542962 4.534114
C 4.649242 3.040972 4.425573
C 4.489262 3.481396 3.860055
C 4.274693 3.103473 4.263898
C 4.358247 3.796336 4.645707
C 4.849691 3.390260 4.689451
C 4.789572 3.693673 4.187063
C 5.041370 2.807613 4.101231
C 5.097259 3.410372 4.612530
C 5.504059 2.924939 4.400169
C 5.448659 3.460269 3.908177
C 5.122110 3.089203 4.175693
C 5.201719 3.800495 4.882767
C 5.647472 3.278011 4.729611
C 5.737616 3.634480 4.461517
C 0.148096 4.208033 3.904582
C 0.094027 4.581145 4.682291
C 0.442835 4.084208 4.338571
C 0.528151 4.656267 3.984460
C 0.234545 4.201374 4.227123
C 0.281731 4.837445 4.645707
C 0.704821 4.182238 4.887869
C 0.678347 4.884233 4.155457
C 0.917282 4.052319 3.961918
C 0.976418 4.407693 4.388641
C 1.295555 3.933640 4.489295
C 1.402361 4.425891 4.121182
C 1.278971 4.146416 4.326195
C 1.227988 4.915000 4.737971
C 1.719350 4.164773 4.639173
C 1.718433 4.916680 4.274758
C 2.097535 4.174811 4.098459
C 2.104763 4.634862 4.501253
C 2.447408 4.154845 4.387931
C 2.342888 4.402460 4.025219
C 2.245639 4.340309 4.275045
C 2.235711 4.607509 4.800461
C 2.609995 4.364020 4.849380
C 2.874391 4.669926 4.265251
C 3.098436 3.999721 4.054008
C 3.007964 4.481204 4.415273
C 3.440649 3.995908 4.663478
C 3.455618 4.448254 3.902808
C 3.298214 4.502387 4.194832
C 3.322957 4.930679 4.867276
C 3.707047 4.181455 4.744601
C 3.613318 4.859574 4.347235
C 4.009493 4.055279 3.865225
C 4.119650 4.604569 4.540499
C 4.399344 4.188505 4.513031
C 4.391035 4.614350 3.978937
C 4.190338 4.275384 4.323557
C 4.370457 4.671829 4.710616
C 4.856768 4.133619 4.840173
C 4.636888 4.776199 4.292585
C 5.170647 3.972854 3.885170
C 4.878912 4.375744 4.461871
C 5.308681 4.036704 4.458218
C 5.420244 4.519288 4.050979
C 5.261169 4.255788 4.222683
C 5.256417 4.671320 4.883349
C 5.703310 4.165173 4.960263
C 5.577849 4.912268 4.215925
C 0.143700 5.040566 4.074767
C 0.082414 5.588356 4.457654
C 0.551439 4.943036 4.632826
C 0.557096 5.629567 3.930055
C 0.306004 5.119331 4.299392
C 0.111604 5.524260 4.750568
C 0.662806 5.098408 4.883220
C 0.896365 5.715318 4.207155
C 0.984545 4.956634 3.916263
C 1.007044 5.658388 4.467942
C 1.360414 5.071671 4.491450
C 1.606357 5.427026 4.060073
C 1.186081 5.346012 4.214318
C 1.101054 5.657676 4.852473
C 1.675445 5.237900 4.912957
C 1.777924 5.742216 4.288856
C 1.912218 5.049285 3.950410
C 2.081939 5.467418 4.475547
C 2.552502 4.783432 4.497753
C 2.538947 5.547130 4.083156
C 2.271902 5.196336 4.159292
C 2.163851 5.733532 4.618952
C 2.872111 5.196920 4.738775
C 2.612000 5.729785 4.258171
C 2.857290 4.916320 4.071977
C 3.017626 5.522976 4.435816
C 3.395273 5.008619 4.469247
C 3.604391 5.514494 3.843696
C 3.321188 5.202836 4.062247
C 3.115353 5.745332 4.660664
C 3.943082 5.212895 4.746834
C 3.729218 5.646694 4.433275
C 4.001846 4.987102 4.166222
C 3.999169 5.473111 4.541832
C 4.541002 5.030979 4.615965
C 4.412812 5.456972 3.999203
C 4.101285 5.235393 4.137384
C 4.163805 5.720587 4.633192
C 4.778799 5.179655 4.821131
C 4.555195 5.738695 4.126838
C 4.944290 4.847769 4.087348
C 4.962866 5.588538 4.366069
C 5.411970 5.092251 4.517911
C 5.618601 5.495087 3.978936
C 5.241567 5.145947 4.277112
C 5.037305 5.734799 4.735804
C 5.708601 5.298992 4.603908
C 5.508348 5.729187 4.042928
C 0.013959 0.025215 4.863245
C 0.014184 0.401264 5.617678
C 0.521406 0.061671 5.530973
C 0.572100 0.338549 4.991195
C 0.166825 0.299029 5.197929
C 0.216556 0.751511 5.738872
C 0.805085 0.089369 5.511509
C 0.595803 0.808424 5.283135
C 0.952412 0.069303 5.048760
C 1.137574 0.398320 5.458716
C 1.477488 0.022754 5.517123
C 1.555119 0.518677 4.881200
C 1.281226 0.193006 5.066746
C 1.179410 0.611559 5.640723
C 1.941398 0.116709 5.703271
C 1.642601 0.875526 5.273767
C 2.114157 0.103966 4.968227
C 2.098325 0.635295 5.582531
C 2.331542 0.020286 5.546742
C 2.475183 0.554829 5.063521
C 2.353166 0.286013 5.222664
C 2.234869 0.907985 5.653436
C 2.788475 0.357276 5.747780
C 2.716633 0.513387 5.276023
C 3.206993 0.017926 5.005909
C 3.035321 0.476099 5.464772
C 3.434132 0.056739 5.630228
C 3.446603 0.562613 5.219831
C 3.184897 0.368286 5.245810
C 3.209605 0.666285 5.613961
C 3.778759 0.228101 5.675451
C 3.656613 0.767251 5.210577
C 4.085334 0.159889 5.051600
C 3.954570 0.567899 5.553636
C 4.318887 0.130985 5.477967
C 4.655798 0.644808 4.979288
C 4.048574 0.366316 5.338997
C 4.135950 0.733577 5.712920
C 4.700541 0.156956 5.674662
C 4.823674 0.894076 5.267957
C 5.129343 0.070214 4.966880
C 4.899297 0.387249 5.498364
C 5.678094 0.148174 5.415327
C 5.600925 0.511399 4.839947
C 5.282083 0.178772 5.413001
C 5.410535 0.850582 5.630862
C 5.711846 0.036552 5.719937
C 5.677081 0.751393 5.440936
C 0.125522 1.084400 5.067351
C 0.051513 1.616867 5.558260
C 0.607091 0.943405 5.506107
C 0.443947 1.624733 5.016384
C 0.188320 1.183393 5.334618
C 0.272862 1.458289 5.708551
C 0.864245 1.108054 5.722853
C 0.651550 1.861263 5.219466
C 1.098507 0.970420 5.027139
C 1.086913 1.385362 5.579791
C 1.481150 1.112851 5.488312
C 1.563991 1.497907 4.968168
C 1.129885 1.128607 5.324701
C 1.406661 1.726895 5.602915
C 1.641261 1.202455 5.689261
C 1.748425 1.725198 5.079980
C 2.143866 0.883691 5.042266
C 1.865614 1.441443 5.505070
C 2.392668 1.075350 5.523508
C 2.494107 1.507691 4.857324
C 2.291335 1.243914 5.311966
C 2.362799 1.803876 5.731614
C 2.645016 1.021986 5.651556
C 2.654117 1.618344 5.089791
C 2.932811 0.992520 4.914548
C 2.911264 1.431045 5.418671
C 3.670694 0.986325 5.575397
C 3.286782 1.420411 4.885705
C 3.316276 1.338934 5.216422
C 3.416420 1.724930 5.721092
C 3.606355 1.271186 5.565523
C 3.813267 1.819461 5.328404
C 3.889211 0.951777 4.984964
C 3.809729 1.447654 5.384017
C 4.581244 0.965589 5.372276
C 4.585912 1.527313 5.130005
C 4.287317 1.239845 5.341148
C 4.478738 1.662048 5.583757
C 4.515779 1.206068 5.699367
C 4.820644 1.825060 5.389823
C 5.022850 1.013609 5.104567
C 5.069140 1.408746 5.621979
C 5.581746 1.063748 5.665990
C 5.433272 1.536710 4.999836
C 5.240326 1.342100 5.117507
C 5.077111 1.789209 5.680462
C 5.713251 1.444134 5.654388
C 5.690020 1.628546 5.342255
C 0.089670 1.772185 5.030343
C 0.094352 2.537926 5.331032
C 0.503011 1.984833 5.579199
C 0.591175 2.531596 4.942218
C 0.162859 2.176163 5.261823
C 0.224946 2.685347 5.628591
C 0.699056 2.251158 5.544935
C 0.709446 2.763503 5.367267
C 1.116328 1.996048 4.851631
C 0.870167 2.590907 5.567673
C 1.436731 1.879641 5.329132
C 1.562088 2.538456 5.114277
C 1.246050 2.240215 5.181465
C 1.277356 2.516534 5.624781
C 1.825367 2.378312 5.649747
C 1.703734 2.740282 5.434617
C 2.146056 1.850118 5.034535
C 2.078866 2.516329 5.476719
C 2.746459 1.975548 5.422271
C 2.427690 2.528884 4.960962
C 2.305748 2.266629 5.329266
C 2.228301 2.850666 5.747521
C 2.746159 2.131841 5.646609
C 2.666201 2.738583 5.380493
C 2.916997 1.825017 4.971708
C 2.994852 2.384505 5.509124
C 3.615380 1.999290 5.490027
C 3.445619 2.616289 4.974498
C 3.242577 2.181416 5.384894
C 3.196971 2.696716 5.482107
C 3.656591 2.058759 5.746449
C 3.707452 2.793996 5.248233
C 4.019761 1.868932 4.888014
C 4.149278 2.435537 5.546401
C 4.436685 1.935304 5.591190
C 4.572742 2.410767 4.993561
C 4.165220 2.120763 5.273389
C 4.115932 2.823347 5.645363
C 4.766292 2.039659 5.693722
C 4.667329 2.763495 5.420543
C 4.916306 2.009775 4.857486
C 5.021518 2.613831 5.531748
C 5.475004 1.895032 5.382556
C 5.422606 2.618588 5.068304
C 5.108306 2.331214 5.344460
C 5.247287 2.819403 5.693658
C 5.580419 2.151704 5.500418
C 5.656011 2.776732 5.053721
C 0.071061 3.039082 5.153612
C 0.072724 3.522987 5.465152
C 0.455238 3.033527 5.722674
C 0.413855 3.415414 5.166105
C 0.318121 3.166238 5.159812
C 0.141459 3.790092 5.589701
C 0.704004 3.258981 5.594597
C 0.886276 3.640983 5.369317
C 1.025766 2.999706 4.846643
C 1.109837 3.373870 5.447481
C 1.627908 2.985972 5.620948
C 1.487144 3.436322 4.946389
C 1.090170 3.397359 5.156752
C 1.089212 3.735621 5.523179
C 1.843760 3.310791 5.731874
C 1.741130 3.578286 5.272378
C 1.906568 2.843243 4.946369
C 2.143777 3.616775 5.529483
C 2.454003 2.986613 5.617200
C 2.448196 3.435531 4.856729
C 2.150796 3.209515 5.227138
C 2.246857 4.002007 5.676254
C 2.775959 3.275785 5.717403
C 2.660961 3.631887 5.108650
C 3.111490 2.986781 4.962186
C 3.081067 3.444072 5.607840
C 3.470567 2.803610 5.595324
C 3.433954 3.526981 4.936331
C 3.158587 3.294733 5.182410
C 3.269463 3.652602 5.733178
C 3.709902 3.254893 5.713589
C 3.642609 3.733301 5.172286
C 3.888631 3.066910 4.986363
C 3.881034 3.421357 5.516274
C 4.668601 2.966368 5.646142
C 4.429361 3.627815 4.915002
C 4.086074 3.225436 5.283710
C 4.198470 3.620514 5.715852
C 4.542288 3.235526 5.715857
C 4.634353 3.902070 5.140919
C 4.936433 3.031517 4.886739
C 4.894881 3.456758 5.556677
C 5.411996 2.961603 5.540312
C 5.403671 3.361013 4.938585
C 5.163223 3.328953 5.150765
C 5.262320 3.609734 5.748258
C 5.612050 3.088916 5.719752
C 5.744257 3.902661 5.264541
C 0.114181 4.000563 4.886095
C 0.003944 4.416524 5.666638
C 0.456206 4.083069 5.501836
C 0.391789 4.439858 5.125581
C 0.267498 4.228358 5.327933
C 0.236141 4.853335 5.595245
C 0.587297 4.105991 5.743085
C 0.706988 4.846816 5.151340
C 1.164312 3.939683 4.965147
C 0.851831 4.495647 5.575445
C 1.459585 3.878306 5.400070
C 1.371451 4.465302 5.149179
C 1.071999 4.211995 5.371144
C 1.065299 4.753813 5.717793
C 1.840203 4.344691 5.699038
C 1.806886 4.648626 5.346884
C 2.050038 4.001799 5.122246
C 2.046532 4.661978 5.637425
C 2.377830 3.857587 5.465651
C 2.496297 4.481179 5.097815
C 2.364914 4.116842 5.319342
C 2.427813 4.665112 5.747718
C 2.757533 4.273843 5.564391
C 2.636428 4.768709 5.147072
C 3.182559 3.971043 4.902513
C 2.940141 4.510270 5.440395
C 3.467944 4.002643 5.360916
C 3.416111 4.558996 4.974633
C 3.356138 4.374950 5.319176
C 3.184025 4.618292 5.649009
C 3.816697 4.076222 5.676148
C 3.619866 4.951305 5.244345
C 4.011791 3.971075 4.786609
C 3.944321 4.604197 5.569763
C 4.487943 4.088538 5.583943
C 4.453687 4.566053 5.174869
C 4.187847 4.120875 5.150816
C 4.163947 4.787225 5.644834
C 4.595327 4.333669 5.687161
C 4.710578 4.638233 5.218155
C 5.057477 3.920689 5.125847
C 5.048192 4.594576 5.504338
C 5.552542 4.024225 5.516402
C 5.651344 4.514057 5.163843
C 5.142965 4.392669 5.328957
C 5.083649 4.899635 5.733026
C 5.669269 4.198243 5.725530
C 5.659304 4.787836 4.992864
C 0.054397 4.936080 5.081824
C 0.168995 5.485211 5.717005
C 0.494221 4.978673 5.424707
C 0.583743 5.349421 5.019825
C 0.079714 5.177074 5.373586
C 0.444200 5.674042 5.713968
C 0.886570 5.226465 5.671404
C 0.787520 5.722626 5.024567
C 0.922876 4.948297 4.989316
C 1.127223 5.466408 5.636077
C 1.499035 4.855828 5.448671
C 1.607153 5.566337 5.002114
C 1.257391 5.358165 5.418100
C 1.049471 5.722927 5.513281
C 1.889696 5.309221 5.705713
C 1.860486 5.674105 5.035285
C 1.835483 5.012685 5.010797
C 2.138713 5.491491 5.515496
C 2.418177 4.881837 5.577359
C 2.539562 5.484434 4.908475
C 2.228549 5.231404 5.192633
C 2.488738 5.581554 5.600252
C 2.612789 5.349517 5.666941
C 2.892635 5.733827 5.093908
C 2.973311 5.132950 5.068410
C 3.035613 5.644117 5.505916
C 3.410999 4.981175 5.592355
C 3.307742 5.649291 4.946384
C 3.146872 5.186608 5.267445
C 3.311925 5.665237 5.725765
C 3.680102 5.149572 5.738225
C 3.718019 5.522313 5.200624
C 4.082213 4.988018 5.174629
C 4.011094 5.376362 5.409005
C 4.388823 5.086100 5.501268
C 4.481586 5.570593 4.928728
C 4.217362 5.292641 5.228875
C 4.165840 5.530699 5.626125
C 4.681386 5.124038 5.717091
C 4.679953 5.583623 5.231235
C 5.088994 4.985980 5.120970
C 5.118349 5.469151 5.322543
C 5.319045 4.928345 5.567228
C 5.374728 5.357488 4.957009
C 5.431587 5.188151 5.260937
C 5.279115 5.628403 5.654541
C 5.620527 5.439575 5.692132
C 5.602349 5.541286 5.208480
