2160
Frame 1/10
C 0.000000 0.000000 0.000000
C 0.500000 0.866025 0.000000
C 0.500000 1.443380 0.816497
C 0.000000 0.577350 0.816497
C 1.000000 0.000000 0.000000
C 1.500000 0.866025 0.000000
C 1.500000 1.443380 0.816497
C 1.000000 0.577350 0.816497
C 2.000000 0.000000 0.000000
C 2.500000 0.866025 0.000000
C 2.500000 1.443380 0.816497
C 2.000000 0.577350 0.816497
C 3.000000 0.000000 0.000000
C 3.500000 0.866025 0.000000
C 3.500000 1.443380 0.816497
C 3.000000 0.577350 0.816497
C 4.000000 0.000000 0.000000
C 4.500000 0.866025 0.000000
C 4.500000 1.443380 0.816497
C 4.000000 0.577350 0.816497
C 5.000000 0.000000 0.000000
C 5.500000 0.866025 0.000000
C 5.500000 1.443380 0.816497
C 5.000000 0.577350 0.816497
C 6.000000 0.000000 0.000000
C 6.500000 0.866025 0.000000
C 6.500000 1.443380 0.816497
C 6.000000 0.577350 0.816497
C 7.000000 0.000000 0.000000
C 7.500000 0.866025 0.000000
C 7.500000 1.443380 0.816497
C 7.000000 0.577350 0.816497
C 8.000000 0.000000 0.000000
C 8.500000 0.866025 0.000000
C 8.500000 1.443380 0.816497
C 8.000000 0.577350 0.816497
C 0.000000 1.732050 0.000000
C 0.500000 2.598080 0.000000
C 0.500000 3.175430 0.816497
C 0.000000 2.309400 0.816497
C 1.000000 1.732050 0.000000
C 1.500000 2.598080 0.000000
C 1.500000 3.175430 0.816497
C 1.000000 2.309400 0.816497
C 2.000000 1.732050 0.000000
C 2.500000 2.598080 0.000000
C 2.500000 3.175430 0.816497
C 2.000000 2.309400 0.816497
C 3.000000 1.732050 0.000000
C 3.500000 2.598080 0.000000
C 3.500000 3.175430 0.816497
C 3.000000 2.309400 0.816497
C 4.000000 1.732050 0.000000
C 4.500000 2.598080 0.000000
C 4.500000 3.175430 0.816497
C 4.000000 2.309400 0.816497
C 5.000000 1.732050 0.000000
C 5.500000 2.598080 0.000000
C 5.500000 3.175430 0.816497
C 5.000000 2.309400 0.816497
C 6.000000 1.732050 0.000000
C 6.500000 2.598080 0.000000
C 6.500000 3.175430 0.816497
C 6.000000 2.309400 0.816497
C 7.000000 1.732050 0.000000
C 7.500000 2.598080 0.000000
C 7.500000 3.175430 0.816497
C 7.000000 2.309400 0.816497
C 8.000000 1.732050 0.000000
C 8.500000 2.598080 0.000000
C 8.500000 3.175430 0.816497
C 8.000000 2.309400 0.816497
C 0.000000 3.464100 0.000000
C 0.500000 4.330130 0.000000
C 0.500000 4.907480 0.816497
C 0.000000 4.041450 0.816497
C 1.000000 3.464100 0.000000
C 1.500000 4.330130 0.000000
C 1.500000 4.907480 0.816497
C 1.000000 4.041450 0.816497
C 2.000000 3.464100 0.000000
C 2.500000 4.330130 0.000000
C 2.500000 4.907480 0.816497
C 2.000000 4.041450 0.816497
C 3.000000 3.464100 0.000000
C 3.500000 4.330130 0.000000
C 3.500000 4.907480 0.816497
C 3.000000 4.041450 0.816497
C 4.000000 3.464100 0.000000
C 4.500000 4.330130 0.000000
C 4.500000 4.907480 0.816497
C 4.000000 4.041450 0.816497
C 5.000000 3.464100 0.000000
C 5.500000 4.330130 0.000000
C 5.500000 4.907480 0.816497
C 5.000000 4.041450 0.816497
C 6.000000 3.464100 0.000000
C 6.500000 4.330130 0.000000
C 6.500000 4.907480 0.816497
C 6.000000 4.041450 0.816497
C 7.000000 3.464100 0.000000
C 7.500000 4.330130 0.000000
C 7.500000 4.907480 0.816497
C 7.000000 4.041450 0.816497
C 8.000000 3.464100 0.000000
C 8.500000 4.330130 0.000000
C 8.500000 4.907480 0.816497
C 8.000000 4.041450 0.816497
C 0.000000 5.196150 0.000000
C 0.500000 6.062180 0.000000
C 0.500000 6.639530 0.816497
C 0.000000 5.773500 0.816497
C 1.000000 5.196150 0.000000
C 1.500000 6.062180 0.000000
C 1.500000 6.639530 0.816497
C 1.000000 5.773500 0.816497
C 2.000000 5.196150 0.000000
C 2.500000 6.062180 0.000000
C 2.500000 6.639530 0.816497
C 2.000000 5.773500 0.816497
C 3.000000 5.196150 0.000000
C 3.500000 6.062180 0.000000
C 3.500000 6.639530 0.816497
C 3.000000 5.773500 0.816497
C 4.000000 5.196150 0.000000
C 4.500000 6.062180 0.000000
C 4.500000 6.639530 0.816497
C 4.000000 5.773500 0.816497
C 5.000000 5.196150 0.000000
C 5.500000 6.062180 0.000000
C 5.500000 6.639530 0.816497
C 5.000000 5.773500 0.816497
C 6.000000 5.196150 0.000000
C 6.500000 6.062180 0.000000
C 6.500000 6.639530 0.816497
C 6.000000 5.773500 0.816497
C 7.000000 5.196150 0.000000
C 7.500000 6.062180 0.000000
C 7.500000 6.639530 0.816497
C 7.000000 5.773500 0.816497
C 8.000000 5.196150 0.000000
C 8.500000 6.062180 0.000000
C 8.500000 6.639530 0.816497
C 8.000000 5.773500 0.816497
C 0.000000 6.928200 0.000000
C 0.500000 7.794230 0.000000
C 0.500000 8.371580 0.816497
C 0.000000 7.505550 0.816497
C 1.000000 6.928200 0.000000
C 1.500000 7.794230 0.000000
C 1.500000 8.371580 0.816497
C 1.000000 7.505550 0.816497
C 2.000000 6.928200 0.000000
C 2.500000 7.794230 0.000000
C 2.500000 8.371580 0.816497
C 2.000000 7.505550 0.816497
C 3.000000 6.928200 0.000000
C 3.500000 7.794230 0.000000
C 3.500000 8.371580 0.816497
C 3.000000 7.505550 0.816497
C 4.000000 6.928200 0.000000
C 4.500000 7.794230 0.000000
C 4.500000 8.371580 0.816497
C 4.000000 7.505550 0.816497
C 5.000000 6.928200 0.000000
C 5.500000 7.794230 0.000000
C 5.500000 8.371580 0.816497
C 5.000000 7.505550 0.816497
C 6.000000 6.928200 0.000000
C 6.500000 7.794230 0.000000
C 6.500000 8.371580 0.816497
C 6.000000 7.505550 0.816497
C 7.000000 6.928200 0.000000
C 7.500000 7.794230 0.000000
C 7.500000 8.371580 0.816497
C 7.000000 7.505550 0.816497
C 8.000000 6.928200 0.000000
C 8.500000 7.794230 0.000000
C 8.500000 8.371580 0.816497
C 8.000000 7.505550 0.816497
C 0.000000 0.000000 1.632990
C 0.500000 0.866025 1.632990
C 0.500000 1.443380 2.449490
C 0.000000 0.577350 2.449490
C 1.000000 0.000000 1.632990
C 1.500000 0.866025 1.632990
C 1.500000 1.443380 2.449490
C 1.000000 0.577350 2.449490
C 2.000000 0.000000 1.632990
C 2.500000 0.866025 1.632990
C 2.500000 1.443380 2.449490
C 2.000000 0.577350 2.449490
C 3.000000 0.000000 1.632990
C 3.500000 0.866025 1.632990
C 3.500000 1.443380 2.449490
C 3.000000 0.577350 2.449490
C 4.000000 0.000000 1.632990
C 4.500000 0.866025 1.632990
C 4.500000 1.443380 2.449490
C 4.000000 0.577350 2.449490
C 5.000000 0.000000 1.632990
C 5.500000 0.866025 1.632990
C 5.500000 1.443380 2.449490
C 5.000000 0.577350 2.449490
C 6.000000 0.000000 1.632990
C 6.500000 0.866025 1.632990
C 6.500000 1.443380 2.449490
C 6.000000 0.577350 2.449490
C 7.000000 0.000000 1.632990
C 7.500000 0.866025 1.632990
C 7.500000 1.443380 2.449490
C 7.000000 0.577350 2.449490
C 8.000000 0.000000 1.632990
C 8.500000 0.866025 1.632990
C 8.500000 1.443380 2.449490
C 8.000000 0.577350 2.449490
C 0.000000 1.732050 1.632990
C 0.500000 2.598080 1.632990
C 0.500000 3.175430 2.449490
C 0.000000 2.309400 2.449490
C 1.000000 1.732050 1.632990
C 1.500000 2.598080 1.632990
C 1.500000 3.175430 2.449490
C 1.000000 2.309400 2.449490
C 2.000000 1.732050 1.632990
C 2.500000 2.598080 1.632990
C 2.500000 3.175430 2.449490
C 2.000000 2.309400 2.449490
C 3.000000 1.732050 1.632990
C 3.500000 2.598080 1.632990
C 3.500000 3.175430 2.449490
C 3.000000 2.309400 2.449490
C 4.000000 1.732050 1.632990
C 4.500000 2.598080 1.632990
C 4.500000 3.175430 2.449490
C 4.000000 2.309400 2.449490
C 5.000000 1.732050 1.632990
C 5.500000 2.598080 1.632990
C 5.500000 3.175430 2.449490
C 5.000000 2.309400 2.449490
C 6.000000 1.732050 1.632990
C 6.500000 2.598080 1.632990
C 6.500000 3.175430 2.449490
C 6.000000 2.309400 2.449490
C 7.000000 1.732050 1.632990
C 7.500000 2.598080 1.632990
C 7.500000 3.175430 2.449490
C 7.000000 2.309400 2.449490
C 8.000000 1.732050 1.632990
C 8.500000 2.598080 1.632990
C 8.500000 3.175430 2.449490
C 8.000000 2.309400 2.449490
C 0.000000 3.464100 1.632990
C 0.500000 4.330130 1.632990
C 0.500000 4.907480 2.449490
C 0.000000 4.041450 2.449490
C 1.000000 3.464100 1.632990
C 1.500000 4.330130 1.632990
C 1.500000 4.907480 2.449490
C 1.000000 4.041450 2.449490
C 2.000000 3.464100 1.632990
C 2.500000 4.330130 1.632990
C 2.500000 4.907480 2.449490
C 2.000000 4.041450 2.449490
C 3.000000 3.464100 1.632990
C 3.500000 4.330130 1.632990
C 3.500000 4.907480 2.449490
C 3.000000 4.041450 2.449490
C 4.000000 3.464100 1.632990
C 4.500000 4.330130 1.632990
C 4.500000 4.907480 2.449490
C 4.000000 4.041450 2.449490
C 5.000000 3.464100 1.632990
C 5.500000 4.330130 1.632990
C 5.500000 4.907480 2.449490
C 5.000000 4.041450 2.449490
C 6.000000 3.464100 1.632990
C 6.500000 4.330130 1.632990
C 6.500000 4.907480 2.449490
C 6.000000 4.041450 2.449490
C 7.000000 3.464100 1.632990
C 7.500000 4.330130 1.632990
C 7.500000 4.907480 2.449490
C 7.000000 4.041450 2.449490
C 8.000000 3.464100 1.632990
C 8.500000 4.330130 1.632990
C 8.500000 4.907480 2.449490
C 8.000000 4.041450 2.449490
C 0.000000 5.196150 1.632990
C 0.500000 6.062180 1.632990
C 0.500000 6.639530 2.449490
C 0.000000 5.773500 2.449490
C 1.000000 5.196150 1.632990
C 1.500000 6.062180 1.632990
C 1.500000 6.639530 2.449490
C 1.000000 5.773500 2.449490
C 2.000000 5.196150 1.632990
C 2.500000 6.062180 1.632990
C 2.500000 6.639530 2.449490
C 2.000000 5.773500 2.449490
C 3.000000 5.196150 1.632990
C 3.500000 6.062180 1.632990
C 3.500000 6.639530 2.449490
C 3.000000 5.773500 2.449490
C 4.000000 5.196150 1.632990
C 4.500000 6.062180 1.632990
C 4.500000 6.639530 2.449490
C 4.000000 5.773500 2.449490
C 5.000000 5.196150 1.632990
C 5.500000 6.062180 1.632990
C 5.500000 6.639530 2.449490
C 5.000000 5.773500 2.449490
C 6.000000 5.196150 1.632990
C 6.500000 6.062180 1.632990
C 6.500000 6.639530 2.449490
C 6.000000 5.773500 2.449490
C 7.000000 5.196150 1.632990
C 7.500000 6.062180 1.632990
C 7.500000 6.639530 2.449490
C 7.000000 5.773500 2.449490
C 8.000000 5.196150 1.632990
C 8.500000 6.062180 1.632990
C 8.500000 6.639530 2.449490
C 8.000000 5.773500 2.449490
C 0.000000 6.928200 1.632990
C 0.500000 7.794230 1.632990
C 0.500000 8.371580 2.449490
C 0.000000 7.505550 2.449490
C 1.000000 6.928200 1.632990
C 1.500000 7.794230 1.632990
C 1.500000 8.371580 2.449490
C 1.000000 7.505550 2.449490
C 2.000000 6.928200 1.632990
C 2.500000 7.794230 1.632990
C 2.500000 8.371580 2.449490
C 2.000000 7.505550 2.449490
C 3.000000 6.928200 1.632990
C 3.500000 7.794230 1.632990
C 3.500000 8.371580 2.449490
C 3.000000 7.505550 2.449490
C 4.000000 6.928200 1.632990
C 4.500000 7.794230 1.632990
C 4.500000 8.371580 2.449490
C 4.000000 7.505550 2.449490
C 5.000000 6.928200 1.632990
C 5.500000 7.794230 1.632990
C 5.500000 8.371580 2.449490
C 5.000000 7.505550 2.449490
C 6.000000 6.928200 1.632990
C 6.500000 7.794230 1.632990
C 6.500000 8.371580 2.449490
C 6.000000 7.505550 2.449490
C 7.000000 6.928200 1.632990
C 7.500000 7.794230 1.632990
C 7.500000 8.371580 2.449490
C 7.000000 7.505550 2.449490
C 8.000000 6.928200 1.632990
C 8.500000 7.794230 1.632990
C 8.500000 8.371580 2.449490
C 8.000000 7.505550 2.449490
C 0.000000 0.000000 3.265990
C 0.500000 0.866025 3.265990
C 0.500000 1.443380 4.082480
C 0.000000 0.577350 4.082480
C 1.000000 0.000000 3.265990
C 1.500000 0.866025 3.265990
C 1.500000 1.443380 4.082480
C 1.000000 0.577350 4.082480
C 2.000000 0.000000 3.265990
C 2.500000 0.866025 3.265990
C 2.500000 1.443380 4.082480
C 2.000000 0.577350 4.082480
C 3.000000 0.000000 3.265990
C 3.500000 0.866025 3.265990
C 3.500000 1.443380 4.082480
C 3.000000 0.577350 4.082480
C 4.000000 0.000000 3.265990
C 4.500000 0.866025 3.265990
C 4.500000 1.443380 4.082480
C 4.000000 0.577350 4.082480
C 5.000000 0.000000 3.265990
C 5.500000 0.866025 3.265990
C 5.500000 1.443380 4.082480
C 5.000000 0.577350 4.082480
C 6.000000 0.000000 3.265990
C 6.500000 0.866025 3.265990
C 6.500000 1.443380 4.082480
C 6.000000 0.577350 4.082480
C 7.000000 0.000000 3.265990
C 7.500000 0.866025 3.265990
C 7.500000 1.443380 4.082480
C 7.000000 0.577350 4.082480
C 8.000000 0.000000 3.265990
C 8.500000 0.866025 3.265990
C 8.500000 1.443380 4.082480
C 8.000000 0.577350 4.082480
C 0.000000 1.732050 3.265990
C 0.500000 2.598080 3.265990
C 0.500000 3.175430 4.082480
C 0.000000 2.309400 4.082480
C 1.000000 1.732050 3.265990
C 1.500000 2.598080 3.265990
C 1.500000 3.175430 4.082480
C 1.000000 2.309400 4.082480
C 2.000000 1.732050 3.265990
C 2.500000 2.598080 3.265990
C 2.500000 3.175430 4.082480
C 2.000000 2.309400 4.082480
C 3.000000 1.732050 3.265990
C 3.500000 2.598080 3.265990
C 3.500000 3.175430 4.082480
C 3.000000 2.309400 4.082480
C 4.000000 1.732050 3.265990
C 4.500000 2.598080 3.265990
C 4.500000 3.175430 4.082480
C 4.000000 2.309400 4.082480
C 5.000000 1.732050 3.265990
C 5.500000 2.598080 3.265990
C 5.500000 3.175430 4.082480
C 5.000000 2.309400 4.082480
C 6.000000 1.732050 3.265990
C 6.500000 2.598080 3.265990
C 6.500000 3.175430 4.082480
C 6.000000 2.309400 4.082480
C 7.000000 1.732050 3.265990
C 7.500000 2.598080 3.265990
C 7.500000 3.175430 4.082480
C 7.000000 2.309400 4.082480
C 8.000000 1.732050 3.265990
C 8.500000 2.598080 3.265990
C 8.500000 3.175430 4.082480
C 8.000000 2.309400 4.082480
C 0.000000 3.464100 3.265990
C 0.500000 4.330130 3.265990
C 0.500000 4.907480 4.082480
C 0.000000 4.041450 4.082480
C 1.000000 3.464100 3.265990
C 1.500000 4.330130 3.265990
C 1.500000 4.907480 4.082480
C 1.000000 4.041450 4.082480
C 2.000000 3.464100 3.265990
C 2.500000 4.330130 3.265990
C 2.500000 4.907480 4.082480
C 2.000000 4.041450 4.082480
C 3.000000 3.464100 3.265990
C 3.500000 4.330130 3.265990
C 3.500000 4.907480 4.082480
C 3.000000 4.041450 4.082480
C 4.000000 3.464100 3.265990
C 4.500000 4.330130 3.265990
C 4.500000 4.907480 4.082480
C 4.000000 4.041450 4.082480
C 5.000000 3.464100 3.265990
C 5.500000 4.330130 3.265990
C 5.500000 4.907480 4.082480
C 5.000000 4.041450 4.082480
C 6.000000 3.464100 3.265990
C 6.500000 4.330130 3.265990
C 6.500000 4.907480 4.082480
C 6.000000 4.041450 4.082480
C 7.000000 3.464100 3.265990
C 7.500000 4.330130 3.265990
C 7.500000 4.907480 4.082480
C 7.000000 4.041450 4.082480
C 8.000000 3.464100 3.265990
C 8.500000 4.330130 3.265990
C 8.500000 4.907480 4.082480
C 8.000000 4.041450 4.082480
C 0.000000 5.196150 3.265990
C 0.500000 6.062180 3.265990
C 0.500000 6.639530 4.082480
C 0.000000 5.773500 4.082480
C 1.000000 5.196150 3.265990
C 1.500000 6.062180 3.265990
C 1.500000 6.639530 4.082480
C 1.000000 5.773500 4.082480
C 2.000000 5.196150 3.265990
C 2.500000 6.062180 3.265990
C 2.500000 6.639530 4.082480
C 2.000000 5.773500 4.082480
C 3.000000 5.196150 3.265990
C 3.500000 6.062180 3.265990
C 3.500000 6.639530 4.082480
C 3.000000 5.773500 4.082480
C 4.000000 5.196150 3.265990
C 4.500000 6.062180 3.265990
C 4.500000 6.639530 4.082480
C 4.000000 5.773500 4.082480
C 5.000000 5.196150 3.265990
C 5.500000 6.062180 3.265990
C 5.500000 6.639530 4.082480
C 5.000000 5.773500 4.082480
C 6.000000 5.196150 3.265990
C 6.500000 6.062180 3.265990
C 6.500000 6.639530 4.082480
C 6.000000 5.773500 4.082480
C 7.000000 5.196150 3.265990
C 7.500000 6.062180 3.265990
C 7.500000 6.639530 4.082480
C 7.000000 5.773500 4.082480
C 8.000000 5.196150 3.265990
C 8.500000 6.062180 3.265990
C 8.500000 6.639530 4.082480
C 8.000000 5.773500 4.082480
C 0.000000 6.928200 3.265990
C 0.500000 7.794230 3.265990
C 0.500000 8.371580 4.082480
C 0.000000 7.505550 4.082480
C 1.000000 6.928200 3.265990
C 1.500000 7.794230 3.265990
C 1.500000 8.371580 4.082480
C 1.000000 7.505550 4.082480
C 2.000000 6.928200 3.265990
C 2.500000 7.794230 3.265990
C 2.500000 8.371580 4.082480
C 2.000000 7.505550 4.082480
C 3.000000 6.928200 3.265990
C 3.500000 7.794230 3.265990
C 3.500000 8.371580 4.082480
C 3.000000 7.505550 4.082480
C 4.000000 6.928200 3.265990
C 4.500000 7.794230 3.265990
C 4.500000 8.371580 4.082480
C 4.000000 7.505550 4.082480
C 5.000000 6.928200 3.265990
C 5.500000 7.794230 3.265990
C 5.500000 8.371580 4.082480
C 5.000000 7.505550 4.082480
C 6.000000 6.928200 3.265990
C 6.500000 7.794230 3.265990
C 6.500000 8.371580 4.082480
C 6.000000 7.505550 4.082480
C 7.000000 6.928200 3.265990
C 7.500000 7.794230 3.265990
C 7.500000 8.371580 4.082480
C 7.000000 7.505550 4.082480
C 8.000000 6.928200 3.265990
C 8.500000 7.794230 3.265990
C 8.500000 8.371580 4.082480
C 8.000000 7.505550 4.082480
C 0.000000 0.000000 4.898980
C 0.500000 0.866025 4.898980
C 0.500000 1.443380 5.715480
C 0.000000 0.577350 5.715480
C 1.000000 0.000000 4.898980
C 1.500000 0.866025 4.898980
C 1.500000 1.443380 5.715480
C 1.000000 0.577350 5.715480
C 2.000000 0.000000 4.898980
C 2.500000 0.866025 4.898980
C 2.500000 1.443380 5.715480
C 2.000000 0.577350 5.715480
C 3.000000 0.000000 4.898980
C 3.500000 0.866025 4.898980
C 3.500000 1.443380 5.715480
C 3.000000 0.577350 5.715480
C 4.000000 0.000000 4.898980
C 4.500000 0.866025 4.898980
C 4.500000 1.443380 5.715480
C 4.000000 0.577350 5.715480
C 5.000000 0.000000 4.898980
C 5.500000 0.866025 4.898980
C 5.500000 1.443380 5.715480
C 5.000000 0.577350 5.715480
C 6.000000 0.000000 4.898980
C 6.500000 0.866025 4.898980
C 6.500000 1.443380 5.715480
C 6.000000 0.577350 5.715480
C 7.000000 0.000000 4.898980
C 7.500000 0.866025 4.898980
C 7.500000 1.443380 5.715480
C 7.000000 0.577350 5.715480
C 8.000000 0.000000 4.898980
C 8.500000 0.866025 4.898980
C 8.500000 1.443380 5.715480
C 8.000000 0.577350 5.715480
C 0.000000 1.732050 4.898980
C 0.500000 2.598080 4.898980
C 0.500000 3.175430 5.715480
C 0.000000 2.309400 5.715480
C 1.000000 1.732050 4.898980
C 1.500000 2.598080 4.898980
C 1.500000 3.175430 5.715480
C 1.000000 2.309400 5.715480
C 2.000000 1.732050 4.898980
C 2.500000 2.598080 4.898980
C 2.500000 3.175430 5.715480
C 2.000000 2.309400 5.715480
C 3.000000 1.732050 4.898980
C 3.500000 2.598080 4.898980
C 3.500000 3.175430 5.715480
C 3.000000 2.309400 5.715480
C 4.000000 1.732050 4.898980
C 4.500000 2.598080 4.898980
C 4.500000 3.175430 5.715480
C 4.000000 2.309400 5.715480
C 5.000000 1.732050 4.898980
C 5.500000 2.598080 4.898980
C 5.500000 3.175430 5.715480
C 5.000000 2.309400 5.715480
C 6.000000 1.732050 4.898980
C 6.500000 2.598080 4.898980
C 6.500000 3.175430 5.715480
C 6.000000 2.309400 5.715480
C 7.000000 1.732050 4.898980
C 7.500000 2.598080 4.898980
C 7.500000 3.175430 5.715480
C 7.000000 2.309400 5.715480
C 8.000000 1.732050 4.898980
C 8.500000 2.598080 4.898980
C 8.500000 3.175430 5.715480
C 8.000000 2.309400 5.715480
C 0.000000 3.464100 4.898980
C 0.500000 4.330130 4.898980
C 0.500000 4.907480 5.715480
C 0.000000 4.041450 5.715480
C 1.000000 3.464100 4.898980
C 1.500000 4.330130 4.898980
C 1.500000 4.907480 5.715480
C 1.000000 4.041450 5.715480
C 2.000000 3.464100 4.898980
C 2.500000 4.330130 4.898980
C 2.500000 4.907480 5.715480
C 2.000000 4.041450 5.715480
C 3.000000 3.464100 4.898980
C 3.500000 4.330130 4.898980
C 3.500000 4.907480 5.715480
C 3.000000 4.041450 5.715480
C 4.000000 3.464100 4.898980
C 4.500000 4.330130 4.898980
C 4.500000 4.907480 5.715480
C 4.000000 4.041450 5.715480
C 5.000000 3.464100 4.898980
C 5.500000 4.330130 4.898980
C 5.500000 4.907480 5.715480
C 5.000000 4.041450 5.715480
C 6.000000 3.464100 4.898980
C 6.500000 4.330130 4.898980
C 6.500000 4.907480 5.715480
C 6.000000 4.041450 5.715480
C 7.000000 3.464100 4.898980
C 7.500000 4.330130 4.898980
C 7.500000 4.907480 5.715480
C 7.000000 4.041450 5.715480
C 8.000000 3.464100 4.898980
C 8.500000 4.330130 4.898980
C 8.500000 4.907480 5.715480
C 8.000000 4.041450 5.715480
C 0.000000 5.196150 4.898980
C 0.500000 6.062180 4.898980
C 0.500000 6.639530 5.715480
C 0.000000 5.773500 5.715480
C 1.000000 5.196150 4.898980
C 1.500000 6.062180 4.898980
C 1.500000 6.639530 5.715480
C 1.000000 5.773500 5.715480
C 2.000000 5.196150 4.898980
C 2.500000 6.062180 4.898980
C 2.500000 6.639530 5.715480
C 2.000000 5.773500 5.715480
C 3.000000 5.196150 4.898980
C 3.500000 6.062180 4.898980
C 3.500000 6.639530 5.715480
C 3.000000 5.773500 5.715480
C 4.000000 5.196150 4.898980
C 4.500000 6.062180 4.898980
C 4.500000 6.639530 5.715480
C 4.000000 5.773500 5.715480
C 5.000000 5.196150 4.898980
C 5.500000 6.062180 4.898980
C 5.500000 6.639530 5.715480
C 5.000000 5.773500 5.715480
C 6.000000 5.196150 4.898980
C 6.500000 6.062180 4.898980
C 6.500000 6.639530 5.715480
C 6.000000 5.773500 5.715480
C 7.000000 5.196150 4.898980
C 7.500000 6.062180 4.898980
C 7.500000 6.639530 5.715480
C 7.000000 5.773500 5.715480
C 8.000000 5.196150 4.898980
C 8.500000 6.062180 4.898980
C 8.500000 6.639530 5.715480
C 8.000000 5.773500 5.715480
C 0.000000 6.928200 4.898980
C 0.500000 7.794230 4.898980
C 0.500000 8.371580 5.715480
C 0.000000 7.505550 5.715480
C 1.000000 6.928200 4.898980
C 1.500000 7.794230 4.898980
C 1.500000 8.371580 5.715480
C 1.000000 7.505550 5.715480
C 2.000000 6.928200 4.898980
C 2.500000 7.794230 4.898980
C 2.500000 8.371580 5.715480
C 2.000000 7.505550 5.715480
C 3.000000 6.928200 4.898980
C 3.500000 7.794230 4.898980
C 3.500000 8.371580 5.715480
C 3.000000 7.505550 5.715480
C 4.000000 6.928200 4.898980
C 4.500000 7.794230 4.898980
C 4.500000 8.371580 5.715480
C 4.000000 7.505550 5.715480
C 5.000000 6.928200 4.898980
C 5.500000 7.794230 4.898980
C 5.500000 8.371580 5.715480
C 5.000000 7.505550 5.715480
C 6.000000 6.928200 4.898980
C 6.500000 7.794230 4.898980
C 6.500000 8.371580 5.715480
C 6.000000 7.505550 5.715480
C 7.000000 6.928200 4.898980
C 7.500000 7.794230 4.898980
C 7.500000 8.371580 5.715480
C 7.000000 7.505550 5.715480
C 8.000000 6.928200 4.898980
C 8.500000 7.794230 4.898980
C 8.500000 8.371580 5.715480
C 8.000000 7.505550 5.715480
C 0.000000 0.000000 6.531970
C 0.500000 0.866025 6.531970
C 0.500000 1.443380 7.348470
C 0.000000 0.577350 7.348470
C 1.000000 0.000000 6.531970
C 1.500000 0.866025 6.531970
C 1.500000 1.443380 7.348470
C 1.000000 0.577350 7.348470
C 2.000000 0.000000 6.531970
C 2.500000 0.866025 6.531970
C 2.500000 1.443380 7.348470
C 2.000000 0.577350 7.348470
C 3.000000 0.000000 6.531970
C 3.500000 0.866025 6.531970
C 3.500000 1.443380 7.348470
C 3.000000 0.577350 7.348470
C 4.000000 0.000000 6.531970
C 4.500000 0.866025 6.531970
C 4.500000 1.443380 7.348470
C 4.000000 0.577350 7.348470
C 5.000000 0.000000 6.531970
C 5.500000 0.866025 6.531970
C 5.500000 1.443380 7.348470
C 5.000000 0.577350 7.348470
C 6.000000 0.000000 6.531970
C 6.500000 0.866025 6.531970
C 6.500000 1.443380 7.348470
C 6.000000 0.577350 7.348470
C 7.000000 0.000000 6.531970
C 7.500000 0.866025 6.531970
C 7.500000 1.443380 7.348470
C 7.000000 0.577350 7.348470
C 8.000000 0.000000 6.531970
C 8.500000 0.866025 6.531970
C 8.500000 1.443380 7.348470
C 8.000000 0.577350 7.348470
C 0.000000 1.732050 6.531970
C 0.500000 2.598080 6.531970
C 0.500000 3.175430 7.348470
C 0.000000 2.309400 7.348470
C 1.000000 1.732050 6.531970
C 1.500000 2.598080 6.531970
C 1.500000 3.175430 7.348470
C 1.000000 2.309400 7.348470
C 2.000000 1.732050 6.531970
C 2.500000 2.598080 6.531970
C 2.500000 3.175430 7.348470
C 2.000000 2.309400 7.348470
C 3.000000 1.732050 6.531970
C 3.500000 2.598080 6.531970
C 3.500000 3.175430 7.348470
C 3.000000 2.309400 7.348470
C 4.000000 1.732050 6.531970
C 4.500000 2.598080 6.531970
C 4.500000 3.175430 7.348470
C 4.000000 2.309400 7.348470
C 5.000000 1.732050 6.531970
C 5.500000 2.598080 6.531970
C 5.500000 3.175430 7.348470
C 5.000000 2.309400 7.348470
C 6.000000 1.732050 6.531970
C 6.500000 2.598080 6.531970
C 6.500000 3.175430 7.348470
C 6.000000 2.309400 7.348470
C 7.000000 1.732050 6.531970
C 7.500000 2.598080 6.531970
C 7.500000 3.175430 7.348470
C 7.000000 2.309400 7.348470
C 8.000000 1.732050 6.531970
C 8.500000 2.598080 6.531970
C 8.500000 3.175430 7.348470
C 8.000000 2.309400 7.348470
C 0.000000 3.464100 6.531970
C 0.500000 4.330130 6.531970
C 0.500000 4.907480 7.348470
C 0.000000 4.041450 7.348470
C 1.000000 3.464100 6.531970
C 1.500000 4.330130 6.531970
C 1.500000 4.907480 7.348470
C 1.000000 4.041450 7.348470
C 2.000000 3.464100 6.531970
C 2.500000 4.330130 6.531970
C 2.500000 4.907480 7.348470
C 2.000000 4.041450 7.348470
C 3.000000 3.464100 6.531970
C 3.500000 4.330130 6.531970
C 3.500000 4.907480 7.348470
C 3.000000 4.041450 7.348470
C 4.000000 3.464100 6.531970
C 4.500000 4.330130 6.531970
C 4.500000 4.907480 7.348470
C 4.000000 4.041450 7.348470
C 5.000000 3.464100 6.531970
C 5.500000 4.330130 6.531970
C 5.500000 4.907480 7.348470
C 5.000000 4.041450 7.348470
C 6.000000 3.464100 6.531970
C 6.500000 4.330130 6.531970
C 6.500000 4.907480 7.348470
C 6.000000 4.041450 7.348470
C 7.000000 3.464100 6.531970
C 7.500000 4.330130 6.531970
C 7.500000 4.907480 7.348470
C 7.000000 4.041450 7.348470
C 8.000000 3.464100 6.531970
C 8.500000 4.330130 6.531970
C 8.500000 4.907480 7.348470
C 8.000000 4.041450 7.348470
C 0.000000 5.196150 6.531970
C 0.500000 6.062180 6.531970
C 0.500000 6.639530 7.348470
C 0.000000 5.773500 7.348470
C 1.000000 5.196150 6.531970
C 1.500000 6.062180 6.531970
C 1.500000 6.639530 7.348470
C 1.000000 5.773500 7.348470
C 2.000000 5.196150 6.531970
C 2.500000 6.062180 6.531970
C 2.500000 6.639530 7.348470
C 2.000000 5.773500 7.348470
C 3.000000 5.196150 6.531970
C 3.500000 6.062180 6.531970
C 3.500000 6.639530 7.348470
C 3.000000 5.773500 7.348470
C 4.000000 5.196150 6.531970
C 4.500000 6.062180 6.531970
C 4.500000 6.639530 7.348470
C 4.000000 5.773500 7.348470
C 5.000000 5.196150 6.531970
C 5.500000 6.062180 6.531970
C 5.500000 6.639530 7.348470
C 5.000000 5.773500 7.348470
C 6.000000 5.196150 6.531970
C 6.500000 6.062180 6.531970
C 6.500000 6.639530 7.348470
C 6.000000 5.773500 7.348470
C 7.000000 5.196150 6.531970
C 7.500000 6.062180 6.531970
C 7.500000 6.639530 7.348470
C 7.000000 5.773500 7.348470
C 8.000000 5.196150 6.531970
C 8.500000 6.062180 6.531970
C 8.500000 6.639530 7.348470
C 8.000000 5.773500 7.348470
C 0.000000 6.928200 6.531970
C 0.500000 7.794230 6.531970
C 0.500000 8.371580 7.348470
C 0.000000 7.505550 7.348470
C 1.000000 6.928200 6.531970
C 1.500000 7.794230 6.531970
C 1.500000 8.371580 7.348470
C 1.000000 7.505550 7.348470
C 2.000000 6.928200 6.531970
C 2.500000 7.794230 6.531970
C 2.500000 8.371580 7.348470
C 2.000000 7.505550 7.348470
C 3.000000 6.928200 6.531970
C 3.500000 7.794230 6.531970
C 3.500000 8.371580 7.348470
C 3.000000 7.505550 7.348470
C 4.000000 6.928200 6.531970
C 4.500000 7.794230 6.531970
C 4.500000 8.371580 7.348470
C 4.000000 7.505550 7.348470
C 5.000000 6.928200 6.531970
C 5.500000 7.794230 6.531970
C 5.500000 8.371580 7.348470
C 5.000000 7.505550 7.348470
C 6.000000 6.928200 6.531970
C 6.500000 7.794230 6.531970
C 6.500000 8.371580 7.348470
C 6.000000 7.505550 7.348470
C 7.000000 6.928200 6.531970
C 7.500000 7.794230 6.531970
C 7.500000 8.371580 7.348470
C 7.000000 7.505550 7.348470
C 8.000000 6.928200 6.531970
C 8.500000 7.794230 6.531970
C 8.500000 8.371580 7.348470
C 8.000000 7.505550 7.348470
C 0.000000 0.000000 8.164970
C 0.500000 0.866025 8.164970
C 0.500000 1.443380 8.981460
C 0.000000 0.577350 8.981460
C 1.000000 0.000000 8.164970
C 1.500000 0.866025 8.164970
C 1.500000 1.443380 8.981460
C 1.000000 0.577350 8.981460
C 2.000000 0.000000 8.164970
C 2.500000 0.866025 8.164970
C 2.500000 1.443380 8.981460
C 2.000000 0.577350 8.981460
C 3.000000 0.000000 8.164970
C 3.500000 0.866025 8.164970
C 3.500000 1.443380 8.981460
C 3.000000 0.577350 8.981460
C 4.000000 0.000000 8.164970
C 4.500000 0.866025 8.164970
C 4.500000 1.443380 8.981460
C 4.000000 0.577350 8.981460
C 5.000000 0.000000 8.164970
C 5.500000 0.866025 8.164970
C 5.500000 1.443380 8.981460
C 5.000000 0.577350 8.981460
C 6.000000 0.000000 8.164970
C 6.500000 0.866025 8.164970
C 6.500000 1.443380 8.981460
C 6.000000 0.577350 8.981460
C 7.000000 0.000000 8.164970
C 7.500000 0.866025 8.164970
C 7.500000 1.443380 8.981460
C 7.000000 0.577350 8.981460
C 8.000000 0.000000 8.164970
C 8.500000 0.866025 8.164970
C 8.500000 1.443380 8.981460
C 8.000000 0.577350 8.981460
C 0.000000 1.732050 8.164970
C 0.500000 2.598080 8.164970
C 0.500000 3.175430 8.981460
C 0.000000 2.309400 8.981460
C 1.000000 1.732050 8.164970
C 1.500000 2.598080 8.164970
C 1.500000 3.175430 8.981460
C 1.000000 2.309400 8.981460
C 2.000000 1.732050 8.164970
C 2.500000 2.598080 8.164970
C 2.500000 3.175430 8.981460
C 2.000000 2.309400 8.981460
C 3.000000 1.732050 8.164970
C 3.500000 2.598080 8.164970
C 3.500000 3.175430 8.981460
C 3.000000 2.309400 8.981460
C 4.000000 1.732050 8.164970
C 4.500000 2.598080 8.164970
C 4.500000 3.175430 8.981460
C 4.000000 2.309400 8.981460
C 5.000000 1.732050 8.164970
C 5.500000 2.598080 8.164970
C 5.500000 3.175430 8.981460
C 5.000000 2.309400 8.981460
C 6.000000 1.732050 8.164970
C 6.500000 2.598080 8.164970
C 6.500000 3.175430 8.981460
C 6.000000 2.309400 8.981460
C 7.000000 1.732050 8.164970
C 7.500000 2.598080 8.164970
C 7.500000 3.175430 8.981460
C 7.000000 2.309400 8.981460
C 8.000000 1.732050 8.164970
C 8.500000 2.598080 8.164970
C 8.500000 3.175430 8.981460
C 8.000000 2.309400 8.981460
C 0.000000 3.464100 8.164970
C 0.500000 4.330130 8.164970
C 0.500000 4.907480 8.981460
C 0.000000 4.041450 8.981460
C 1.000000 3.464100 8.164970
C 1.500000 4.330130 8.164970
C 1.500000 4.907480 8.981460
C 1.000000 4.041450 8.981460
C 2.000000 3.464100 8.164970
C 2.500000 4.330130 8.164970
C 2.500000 4.907480 8.981460
C 2.000000 4.041450 8.981460
C 3.000000 3.464100 8.164970
C 3.500000 4.330130 8.164970
C 3.500000 4.907480 8.981460
C 3.000000 4.041450 8.981460
C 4.000000 3.464100 8.164970
C 4.500000 4.330130 8.164970
C 4.500000 4.907480 8.981460
C 4.000000 4.041450 8.981460
C 5.000000 3.464100 8.164970
C 5.500000 4.330130 8.164970
C 5.500000 4.907480 8.981460
C 5.000000 4.041450 8.981460
C 6.000000 3.464100 8.164970
C 6.500000 4.330130 8.164970
C 6.500000 4.907480 8.981460
C 6.000000 4.041450 8.981460
C 7.000000 3.464100 8.164970
C 7.500000 4.330130 8.164970
C 7.500000 4.907480 8.981460
C 7.000000 4.041450 8.981460
C 8.000000 3.464100 8.164970
C 8.500000 4.330130 8.164970
C 8.500000 4.907480 8.981460
C 8.000000 4.041450 8.981460
C 0.000000 5.196150 8.164970
C 0.500000 6.062180 8.164970
C 0.500000 6.639530 8.981460
C 0.000000 5.773500 8.981460
C 1.000000 5.196150 8.164970
C 1.500000 6.062180 8.164970
C 1.500000 6.639530 8.981460
C 1.000000 5.773500 8.981460
C 2.000000 5.196150 8.164970
C 2.500000 6.062180 8.164970
C 2.500000 6.639530 8.981460
C 2.000000 5.773500 8.981460
C 3.000000 5.196150 8.164970
C 3.500000 6.062180 8.164970
C 3.500000 6.639530 8.981460
C 3.000000 5.773500 8.981460
C 4.000000 5.196150 8.164970
C 4.500000 6.062180 8.164970
C 4.500000 6.639530 8.981460
C 4.000000 5.773500 8.981460
C 5.000000 5.196150 8.164970
C 5.500000 6.062180 8.164970
C 5.500000 6.639530 8.981460
C 5.000000 5.773500 8.981460
C 6.000000 5.196150 8.164970
C 6.500000 6.062180 8.164970
C 6.500000 6.639530 8.981460
C 6.000000 5.773500 8.981460
C 7.000000 5.196150 8.164970
C 7.500000 6.062180 8.164970
C 7.500000 6.639530 8.981460
C 7.000000 5.773500 8.981460
C 8.000000 5.196150 8.164970
C 8.500000 6.062180 8.164970
C 8.500000 6.639530 8.981460
C 8.000000 5.773500 8.981460
C 0.000000 6.928200 8.164970
C 0.500000 7.794230 8.164970
C 0.500000 8.371580 8.981460
C 0.000000 7.505550 8.981460
C 1.000000 6.928200 8.164970
C 1.500000 7.794230 8.164970
C 1.500000 8.371580 8.981460
C 1.000000 7.505550 8.981460
C 2.000000 6.928200 8.164970
C 2.500000 7.794230 8.164970
C 2.500000 8.371580 8.981460
C 2.000000 7.505550 8.981460
C 3.000000 6.928200 8.164970
C 3.500000 7.794230 8.164970
C 3.500000 8.371580 8.981460
C 3.000000 7.505550 8.981460
C 4.000000 6.928200 8.164970
C 4.500000 7.794230 8.164970
C 4.500000 8.371580 8.981460
C 4.000000 7.505550 8.981460
C 5.000000 6.928200 8.164970
C 5.500000 7.794230 8.164970
C 5.500000 8.371580 8.981460
C 5.000000 7.505550 8.981460
C 6.000000 6.928200 8.164970
C 6.500000 7.794230 8.164970
C 6.500000 8.371580 8.981460
C 6.000000 7.505550 8.981460
C 7.000000 6.928200 8.164970
C 7.500000 7.794230 8.164970
C 7.500000 8.371580 8.981460
C 7.000000 7.505550 8.981460
C 8.000000 6.928200 8.164970
C 8.500000 7.794230 8.164970
C 8.500000 8.371580 8.981460
C 8.000000 7.505550 8.981460
C 0.000000 0.000000 0.612372
C 0.500000 0.866025 0.612372
C 0.500000 1.443380 1.428870
C 0.000000 0.577350 1.428870
C 1.000000 0.000000 0.612372
C 1.500000 0.866025 0.612372
C 1.500000 1.443380 1.428870
C 1.000000 0.577350 1.428870
C 2.000000 0.000000 0.612372
C 2.500000 0.866025 0.612372
C 2.500000 1.443380 1.428870
C 2.000000 0.577350 1.428870
C 3.000000 0.000000 0.612372
C 3.500000 0.866025 0.612372
C 3.500000 1.443380 1.428870
C 3.000000 0.577350 1.428870
C 4.000000 0.000000 0.612372
C 4.500000 0.866025 0.612372
C 4.500000 1.443380 1.428870
C 4.000000 0.577350 1.428870
C 5.000000 0.000000 0.612372
C 5.500000 0.866025 0.612372
C 5.500000 1.443380 1.428870
C 5.000000 0.577350 1.428870
C 6.000000 0.000000 0.612372
C 6.500000 0.866025 0.612372
C 6.500000 1.443380 1.428870
C 6.000000 0.577350 1.428870
C 7.000000 0.000000 0.612372
C 7.500000 0.866025 0.612372
C 7.500000 1.443380 1.428870
C 7.000000 0.577350 1.428870
C 8.000000 0.000000 0.612372
C 8.500000 0.866025 0.612372
C 8.500000 1.443380 1.428870
C 8.000000 0.577350 1.428870
C 0.000000 1.732050 0.612372
C 0.500000 2.598080 0.612372
C 0.500000 3.175430 1.428870
C 0.000000 2.309400 1.428870
C 1.000000 1.732050 0.612372
C 1.500000 2.598080 0.612372
C 1.500000 3.175430 1.428870
C 1.000000 2.309400 1.428870
C 2.000000 1.732050 0.612372
C 2.500000 2.598080 0.612372
C 2.500000 3.175430 1.428870
C 2.000000 2.309400 1.428870
C 3.000000 1.732050 0.612372
C 3.500000 2.598080 0.612372
C 3.500000 3.175430 1.428870
C 3.000000 2.309400 1.428870
C 4.000000 1.732050 0.612372
C 4.500000 2.598080 0.612372
C 4.500000 3.175430 1.428870
C 4.000000 2.309400 1.428870
C 5.000000 1.732050 0.612372
C 5.500000 2.598080 0.612372
C 5.500000 3.175430 1.428870
C 5.000000 2.309400 1.428870
C 6.000000 1.732050 0.612372
C 6.500000 2.598080 0.612372
C 6.500000 3.175430 1.428870
C 6.000000 2.309400 1.428870
C 7.000000 1.732050 0.612372
C 7.500000 2.598080 0.612372
C 7.500000 3.175430 1.428870
C 7.000000 2.309400 1.428870
C 8.000000 1.732050 0.612372
C 8.500000 2.598080 0.612372
C 8.500000 3.175430 1.428870
C 8.000000 2.309400 1.428870
C 0.000000 3.464100 0.612372
C 0.500000 4.330130 0.612372
C 0.500000 4.907480 1.428870
C 0.000000 4.041450 1.428870
C 1.000000 3.464100 0.612372
C 1.500000 4.330130 0.612372
C 1.500000 4.907480 1.428870
C 1.000000 4.041450 1.428870
C 2.000000 3.464100 0.612372
C 2.500000 4.330130 0.612372
C 2.500000 4.907480 1.428870
C 2.000000 4.041450 1.428870
C 3.000000 3.464100 0.612372
C 3.500000 4.330130 0.612372
C 3.500000 4.907480 1.428870
C 3.000000 4.041450 1.428870
C 4.000000 3.464100 0.612372
C 4.500000 4.330130 0.612372
C 4.500000 4.907480 1.428870
C 4.000000 4.041450 1.428870
C 5.000000 3.464100 0.612372
C 5.500000 4.330130 0.612372
C 5.500000 4.907480 1.428870
C 5.000000 4.041450 1.428870
C 6.000000 3.464100 0.612372
C 6.500000 4.330130 0.612372
C 6.500000 4.907480 1.428870
C 6.000000 4.041450 1.428870
C 7.000000 3.464100 0.612372
C 7.500000 4.330130 0.612372
C 7.500000 4.907480 1.428870
C 7.000000 4.041450 1.428870
C 8.000000 3.464100 0.612372
C 8.500000 4.330130 0.612372
C 8.500000 4.907480 1.428870
C 8.000000 4.041450 1.428870
C 0.000000 5.196150 0.612372
C 0.500000 6.062180 0.612372
C 0.500000 6.639530 1.428870
C 0.000000 5.773500 1.428870
C 1.000000 5.196150 0.612372
C 1.500000 6.062180 0.612372
C 1.500000 6.639530 1.428870
C 1.000000 5.773500 1.428870
C 2.000000 5.196150 0.612372
C 2.500000 6.062180 0.612372
C 2.500000 6.639530 1.428870
C 2.000000 5.773500 1.428870
C 3.000000 5.196150 0.612372
C 3.500000 6.062180 0.612372
C 3.500000 6.639530 1.428870
C 3.000000 5.773500 1.428870
C 4.000000 5.196150 0.612372
C 4.500000 6.062180 0.612372
C 4.500000 6.639530 1.428870
C 4.000000 5.773500 1.428870
C 5.000000 5.196150 0.612372
C 5.500000 6.062180 0.612372
C 5.500000 6.639530 1.428870
C 5.000000 5.773500 1.428870
C 6.000000 5.196150 0.612372
C 6.500000 6.062180 0.612372
C 6.500000 6.639530 1.428870
C 6.000000 5.773500 1.428870
C 7.000000 5.196150 0.612372
C 7.500000 6.062180 0.612372
C 7.500000 6.639530 1.428870
C 7.000000 5.773500 1.428870
C 8.000000 5.196150 0.612372
C 8.500000 6.062180 0.612372
C 8.500000 6.639530 1.428870
C 8.000000 5.773500 1.428870
C 0.000000 6.928200 0.612372
C 0.500000 7.794230 0.612372
C 0.500000 8.371580 1.428870
C 0.000000 7.505550 1.428870
C 1.000000 6.928200 0.612372
C 1.500000 7.794230 0.612372
C 1.500000 8.371580 1.428870
C 1.000000 7.505550 1.428870
C 2.000000 6.928200 0.612372
C 2.500000 7.794230 0.612372
C 2.500000 8.371580 1.428870
C 2.000000 7.505550 1.428870
C 3.000000 6.928200 0.612372
C 3.500000 7.794230 0.612372
C 3.500000 8.371580 1.428870
C 3.000000 7.505550 1.428870
C 4.000000 6.928200 0.612372
C 4.500000 7.794230 0.612372
C 4.500000 8.371580 1.428870
C 4.000000 7.505550 1.428870
C 5.000000 6.928200 0.612372
C 5.500000 7.794230 0.612372
C 5.500000 8.371580 1.428870
C 5.000000 7.505550 1.428870
C 6.000000 6.928200 0.612372
C 6.500000 7.794230 0.612372
C 6.500000 8.371580 1.428870
C 6.000000 7.505550 1.428870
C 7.000000 6.928200 0.612372
C 7.500000 7.794230 0.612372
C 7.500000 8.371580 1.428870
C 7.000000 7.505550 1.428870
C 8.000000 6.928200 0.612372
C 8.500000 7.794230 0.612372
C 8.500000 8.371580 1.428870
C 8.000000 7.505550 1.428870
C 0.000000 0.000000 2.245370
C 0.500000 0.866025 2.245370
C 0.500000 1.443380 3.061860
C 0.000000 0.577350 3.061860
C 1.000000 0.000000 2.245370
C 1.500000 0.866025 2.245370
C 1.500000 1.443380 3.061860
C 1.000000 0.577350 3.061860
C 2.000000 0.000000 2.245370
C 2.500000 0.866025 2.245370
C 2.500000 1.443380 3.061860
C 2.000000 0.577350 3.061860
C 3.000000 0.000000 2.245370
C 3.500000 0.866025 2.245370
C 3.500000 1.443380 3.061860
C 3.000000 0.577350 3.061860
C 4.000000 0.000000 2.245370
C 4.500000 0.866025 2.245370
C 4.500000 1.443380 3.061860
C 4.000000 0.577350 3.061860
C 5.000000 0.000000 2.245370
C 5.500000 0.866025 2.245370
C 5.500000 1.443380 3.061860
C 5.000000 0.577350 3.061860
C 6.000000 0.000000 2.245370
C 6.500000 0.866025 2.245370
C 6.500000 1.443380 3.061860
C 6.000000 0.577350 3.061860
C 7.000000 0.000000 2.245370
C 7.500000 0.866025 2.245370
C 7.500000 1.443380 3.061860
C 7.000000 0.577350 3.061860
C 8.000000 0.000000 2.245370
C 8.500000 0.866025 2.245370
C 8.500000 1.443380 3.061860
C 8.000000 0.577350 3.061860
C 0.000000 1.732050 2.245370
C 0.500000 2.598080 2.245370
C 0.500000 3.175430 3.061860
C 0.000000 2.309400 3.061860
C 1.000000 1.732050 2.245370
C 1.500000 2.598080 2.245370
C 1.500000 3.175430 3.061860
C 1.000000 2.309400 3.061860
C 2.000000 1.732050 2.245370
C 2.500000 2.598080 2.245370
C 2.500000 3.175430 3.061860
C 2.000000 2.309400 3.061860
C 3.000000 1.732050 2.245370
C 3.500000 2.598080 2.245370
C 3.500000 3.175430 3.061860
C 3.000000 2.309400 3.061860
C 4.000000 1.732050 2.245370
C 4.500000 2.598080 2.245370
C 4.500000 3.175430 3.061860
C 4.000000 2.309400 3.061860
C 5.000000 1.732050 2.245370
C 5.500000 2.598080 2.245370
C 5.500000 3.175430 3.061860
C 5.000000 2.309400 3.061860
C 6.000000 1.732050 2.245370
C 6.500000 2.598080 2.245370
C 6.500000 3.175430 3.061860
C 6.000000 2.309400 3.061860
C 7.000000 1.732050 2.245370
C 7.500000 2.598080 2.245370
C 7.500000 3.175430 3.061860
C 7.000000 2.309400 3.061860
C 8.000000 1.732050 2.245370
C 8.500000 2.598080 2.245370
C 8.500000 3.175430 3.061860
C 8.000000 2.309400 3.061860
C 0.000000 3.464100 2.245370
C 0.500000 4.330130 2.245370
C 0.500000 4.907480 3.061860
C 0.000000 4.041450 3.061860
C 1.000000 3.464100 2.245370
C 1.500000 4.330130 2.245370
C 1.500000 4.907480 3.061860
C 1.000000 4.041450 3.061860
C 2.000000 3.464100 2.245370
C 2.500000 4.330130 2.245370
C 2.500000 4.907480 3.061860
C 2.000000 4.041450 3.061860
C 3.000000 3.464100 2.245370
C 3.500000 4.330130 2.245370
C 3.500000 4.907480 3.061860
C 3.000000 4.041450 3.061860
C 4.000000 3.464100 2.245370
C 4.500000 4.330130 2.245370
C 4.500000 4.907480 3.061860
C 4.000000 4.041450 3.061860
C 5.000000 3.464100 2.245370
C 5.500000 4.330130 2.245370
C 5.500000 4.907480 3.061860
C 5.000000 4.041450 3.061860
C 6.000000 3.464100 2.245370
C 6.500000 4.330130 2.245370
C 6.500000 4.907480 3.061860
C 6.000000 4.041450 3.061860
C 7.000000 3.464100 2.245370
C 7.500000 4.330130 2.245370
C 7.500000 4.907480 3.061860
C 7.000000 4.041450 3.061860
C 8.000000 3.464100 2.245370
C 8.500000 4.330130 2.245370
C 8.500000 4.907480 3.061860
C 8.000000 4.041450 3.061860
C 0.000000 5.196150 2.245370
C 0.500000 6.062180 2.245370
C 0.500000 6.639530 3.061860
C 0.000000 5.773500 3.061860
C 1.000000 5.196150 2.245370
C 1.500000 6.062180 2.245370
C 1.500000 6.639530 3.061860
C 1.000000 5.773500 3.061860
C 2.000000 5.196150 2.245370
C 2.500000 6.062180 2.245370
C 2.500000 6.639530 3.061860
C 2.000000 5.773500 3.061860
C 3.000000 5.196150 2.245370
C 3.500000 6.062180 2.245370
C 3.500000 6.639530 3.061860
C 3.000000 5.773500 3.061860
C 4.000000 5.196150 2.245370
C 4.500000 6.062180 2.245370
C 4.500000 6.639530 3.061860
C 4.000000 5.773500 3.061860
C 5.000000 5.196150 2.245370
C 5.500000 6.062180 2.245370
C 5.500000 6.639530 3.061860
C 5.000000 5.773500 3.061860
C 6.000000 5.196150 2.245370
C 6.500000 6.062180 2.245370
C 6.500000 6.639530 3.061860
C 6.000000 5.773500 3.061860
C 7.000000 5.196150 2.245370
C 7.500000 6.062180 2.245370
C 7.500000 6.639530 3.061860
C 7.000000 5.773500 3.061860
C 8.000000 5.196150 2.245370
C 8.500000 6.062180 2.245370
C 8.500000 6.639530 3.061860
C 8.000000 5.773500 3.061860
C 0.000000 6.928200 2.245370
C 0.500000 7.794230 2.245370
C 0.500000 8.371580 3.061860
C 0.000000 7.505550 3.061860
C 1.000000 6.928200 2.245370
C 1.500000 7.794230 2.245370
C 1.500000 8.371580 3.061860
C 1.000000 7.505550 3.061860
C 2.000000 6.928200 2.245370
C 2.500000 7.794230 2.245370
C 2.500000 8.371580 3.061860
C 2.000000 7.505550 3.061860
C 3.000000 6.928200 2.245370
C 3.500000 7.794230 2.245370
C 3.500000 8.371580 3.061860
C 3.000000 7.505550 3.061860
C 4.000000 6.928200 2.245370
C 4.500000 7.794230 2.245370
C 4.500000 8.371580 3.061860
C 4.000000 7.505550 3.061860
C 5.000000 6.928200 2.245370
C 5.500000 7.794230 2.245370
C 5.500000 8.371580 3.061860
C 5.000000 7.505550 3.061860
C 6.000000 6.928200 2.245370
C 6.500000 7.794230 2.245370
C 6.500000 8.371580 3.061860
C 6.000000 7.505550 3.061860
C 7.000000 6.928200 2.245370
C 7.500000 7.794230 2.245370
C 7.500000 8.371580 3.061860
C 7.000000 7.505550 3.061860
C 8.000000 6.928200 2.245370
C 8.500000 7.794230 2.245370
C 8.500000 8.371580 3.061860
C 8.000000 7.505550 3.061860
C 0.000000 0.000000 3.878360
C 0.500000 0.866025 3.878360
C 0.500000 1.443380 4.694860
C 0.000000 0.577350 4.694860
C 1.000000 0.000000 3.878360
C 1.500000 0.866025 3.878360
C 1.500000 1.443380 4.694860
C 1.000000 0.577350 4.694860
C 2.000000 0.000000 3.878360
C 2.500000 0.866025 3.878360
C 2.500000 1.443380 4.694860
C 2.000000 0.577350 4.694860
C 3.000000 0.000000 3.878360
C 3.500000 0.866025 3.878360
C 3.500000 1.443380 4.694860
C 3.000000 0.577350 4.694860
C 4.000000 0.000000 3.878360
C 4.500000 0.866025 3.878360
C 4.500000 1.443380 4.694860
C 4.000000 0.577350 4.694860
C 5.000000 0.000000 3.878360
C 5.500000 0.866025 3.878360
C 5.500000 1.443380 4.694860
C 5.000000 0.577350 4.694860
C 6.000000 0.000000 3.878360
C 6.500000 0.866025 3.878360
C 6.500000 1.443380 4.694860
C 6.000000 0.577350 4.694860
C 7.000000 0.000000 3.878360
C 7.500000 0.866025 3.878360
C 7.500000 1.443380 4.694860
C 7.000000 0.577350 4.694860
C 8.000000 0.000000 3.878360
C 8.500000 0.866025 3.878360
C 8.500000 1.443380 4.694860
C 8.000000 0.577350 4.694860
C 0.000000 1.732050 3.878360
C 0.500000 2.598080 3.878360
C 0.500000 3.175430 4.694860
C 0.000000 2.309400 4.694860
C 1.000000 1.732050 3.878360
C 1.500000 2.598080 3.878360
C 1.500000 3.175430 4.694860
C 1.000000 2.309400 4.694860
C 2.000000 1.732050 3.878360
C 2.500000 2.598080 3.878360
C 2.500000 3.175430 4.694860
C 2.000000 2.309400 4.694860
C 3.000000 1.732050 3.878360
C 3.500000 2.598080 3.878360
C 3.500000 3.175430 4.694860
C 3.000000 2.309400 4.694860
C 4.000000 1.732050 3.878360
C 4.500000 2.598080 3.878360
C 4.500000 3.175430 4.694860
C 4.000000 2.309400 4.694860
C 5.000000 1.732050 3.878360
C 5.500000 2.598080 3.878360
C 5.500000 3.175430 4.694860
C 5.000000 2.309400 4.694860
C 6.000000 1.732050 3.878360
C 6.500000 2.598080 3.878360
C 6.500000 3.175430 4.694860
C 6.000000 2.309400 4.694860
C 7.000000 1.732050 3.878360
C 7.500000 2.598080 3.878360
C 7.500000 3.175430 4.694860
C 7.000000 2.309400 4.694860
C 8.000000 1.732050 3.878360
C 8.500000 2.598080 3.878360
C 8.500000 3.175430 4.694860
C 8.000000 2.309400 4.694860
C 0.000000 3.464100 3.878360
C 0.500000 4.330130 3.878360
C 0.500000 4.907480 4.694860
C 0.000000 4.041450 4.694860
C 1.000000 3.464100 3.878360
C 1.500000 4.330130 3.878360
C 1.500000 4.907480 4.694860
C 1.000000 4.041450 4.694860
C 2.000000 3.464100 3.878360
C 2.500000 4.330130 3.878360
C 2.500000 4.907480 4.694860
C 2.000000 4.041450 4.694860
C 3.000000 3.464100 3.878360
C 3.500000 4.330130 3.878360
C 3.500000 4.907480 4.694860
C 3.000000 4.041450 4.694860
C 4.000000 3.464100 3.878360
C 4.500000 4.330130 3.878360
C 4.500000 4.907480 4.694860
C 4.000000 4.041450 4.694860
C 5.000000 3.464100 3.878360
C 5.500000 4.330130 3.878360
C 5.500000 4.907480 4.694860
C 5.000000 4.041450 4.694860
C 6.000000 3.464100 3.878360
C 6.500000 4.330130 3.878360
C 6.500000 4.907480 4.694860
C 6.000000 4.041450 4.694860
C 7.000000 3.464100 3.878360
C 7.500000 4.330130 3.878360
C 7.500000 4.907480 4.694860
C 7.000000 4.041450 4.694860
C 8.000000 3.464100 3.878360
C 8.500000 4.330130 3.878360
C 8.500000 4.907480 4.694860
C 8.000000 4.041450 4.694860
C 0.000000 5.196150 3.878360
C 0.500000 6.062180 3.878360
C 0.500000 6.639530 4.694860
C 0.000000 5.773500 4.694860
C 1.000000 5.196150 3.878360
C 1.500000 6.062180 3.878360
C 1.500000 6.639530 4.694860
C 1.000000 5.773500 4.694860
C 2.000000 5.196150 3.878360
C 2.500000 6.062180 3.878360
C 2.500000 6.639530 4.694860
C 2.000000 5.773500 4.694860
C 3.000000 5.196150 3.878360
C 3.500000 6.062180 3.878360
C 3.500000 6.639530 4.694860
C 3.000000 5.773500 4.694860
C 4.000000 5.196150 3.878360
C 4.500000 6.062180 3.878360
C 4.500000 6.639530 4.694860
C 4.000000 5.773500 4.694860
C 5.000000 5.196150 3.878360
C 5.500000 6.062180 3.878360
C 5.500000 6.639530 4.694860
C 5.000000 5.773500 4.694860
C 6.000000 5.196150 3.878360
C 6.500000 6.062180 3.878360
C 6.500000 6.639530 4.694860
C 6.000000 5.773500 4.694860
C 7.000000 5.196150 3.878360
C 7.500000 6.062180 3.878360
C 7.500000 6.639530 4.694860
C 7.000000 5.773500 4.694860
C 8.000000 5.196150 3.878360
C 8.500000 6.062180 3.878360
C 8.500000 6.639530 4.694860
C 8.000000 5.773500 4.694860
C 0.000000 6.928200 3.878360
C 0.500000 7.794230 3.878360
C 0.500000 8.371580 4.694860
C 0.000000 7.505550 4.694860
C 1.000000 6.928200 3.878360
C 1.500000 7.794230 3.878360
C 1.500000 8.371580 4.694860
C 1.000000 7.505550 4.694860
C 2.000000 6.928200 3.878360
C 2.500000 7.794230 3.878360
C 2.500000 8.371580 4.694860
C 2.000000 7.505550 4.694860
C 3.000000 6.928200 3.878360
C 3.500000 7.794230 3.878360
C 3.500000 8.371580 4.694860
C 3.000000 7.505550 4.694860
C 4.000000 6.928200 3.878360
C 4.500000 7.794230 3.878360
C 4.500000 8.371580 4.694860
C 4.000000 7.505550 4.694860
C 5.000000 6.928200 3.878360
C 5.500000 7.794230 3.878360
C 5.500000 8.371580 4.694860
C 5.000000 7.505550 4.694860
C 6.000000 6.928200 3.878360
C 6.500000 7.794230 3.878360
C 6.500000 8.371580 4.694860
C 6.000000 7.505550 4.694860
C 7.000000 6.928200 3.878360
C 7.500000 7.794230 3.878360
C 7.500000 8.371580 4.694860
C 7.000000 7.505550 4.694860
C 8.000000 6.928200 3.878360
C 8.500000 7.794230 3.878360
C 8.500000 8.371580 4.694860
C 8.000000 7.505550 4.694860
C 0.000000 0.000000 5.511350
C 0.500000 0.866025 5.511350
C 0.500000 1.443380 6.327850
C 0.000000 0.577350 6.327850
C 1.000000 0.000000 5.511350
C 1.500000 0.866025 5.511350
C 1.500000 1.443380 6.327850
C 1.000000 0.577350 6.327850
C 2.000000 0.000000 5.511350
C 2.500000 0.866025 5.511350
C 2.500000 1.443380 6.327850
C 2.000000 0.577350 6.327850
C 3.000000 0.000000 5.511350
C 3.500000 0.866025 5.511350
C 3.500000 1.443380 6.327850
C 3.000000 0.577350 6.327850
C 4.000000 0.000000 5.511350
C 4.500000 0.866025 5.511350
C 4.500000 1.443380 6.327850
C 4.000000 0.577350 6.327850
C 5.000000 0.000000 5.511350
C 5.500000 0.866025 5.511350
C 5.500000 1.443380 6.327850
C 5.000000 0.577350 6.327850
C 6.000000 0.000000 5.511350
C 6.500000 0.866025 5.511350
C 6.500000 1.443380 6.327850
C 6.000000 0.577350 6.327850
C 7.000000 0.000000 5.511350
C 7.500000 0.866025 5.511350
C 7.500000 1.443380 6.327850
C 7.000000 0.577350 6.327850
C 8.000000 0.000000 5.511350
C 8.500000 0.866025 5.511350
C 8.500000 1.443380 6.327850
C 8.000000 0.577350 6.327850
C 0.000000 1.732050 5.511350
C 0.500000 2.598080 5.511350
C 0.500000 3.175430 6.327850
C 0.000000 2.309400 6.327850
C 1.000000 1.732050 5.511350
C 1.500000 2.598080 5.511350
C 1.500000 3.175430 6.327850
C 1.000000 2.309400 6.327850
C 2.000000 1.732050 5.511350
C 2.500000 2.598080 5.511350
C 2.500000 3.175430 6.327850
C 2.000000 2.309400 6.327850
C 3.000000 1.732050 5.511350
C 3.500000 2.598080 5.511350
C 3.500000 3.175430 6.327850
C 3.000000 2.309400 6.327850
C 4.000000 1.732050 5.511350
C 4.500000 2.598080 5.511350
C 4.500000 3.175430 6.327850
C 4.000000 2.309400 6.327850
C 5.000000 1.732050 5.511350
C 5.500000 2.598080 5.511350
C 5.500000 3.175430 6.327850
C 5.000000 2.309400 6.327850
C 6.000000 1.732050 5.511350
C 6.500000 2.598080 5.511350
C 6.500000 3.175430 6.327850
C 6.000000 2.309400 6.327850
C 7.000000 1.732050 5.511350
C 7.500000 2.598080 5.511350
C 7.500000 3.175430 6.327850
C 7.000000 2.309400 6.327850
C 8.000000 1.732050 5.511350
C 8.500000 2.598080 5.511350
C 8.500000 3.175430 6.327850
C 8.000000 2.309400 6.327850
C 0.000000 3.464100 5.511350
C 0.500000 4.330130 5.511350
C 0.500000 4.907480 6.327850
C 0.000000 4.041450 6.327850
C 1.000000 3.464100 5.511350
C 1.500000 4.330130 5.511350
C 1.500000 4.907480 6.327850
C 1.000000 4.041450 6.327850
C 2.000000 3.464100 5.511350
C 2.500000 4.330130 5.511350
C 2.500000 4.907480 6.327850
C 2.000000 4.041450 6.327850
C 3.000000 3.464100 5.511350
C 3.500000 4.330130 5.511350
C 3.500000 4.907480 6.327850
C 3.000000 4.041450 6.327850
C 4.000000 3.464100 5.511350
C 4.500000 4.330130 5.511350
C 4.500000 4.907480 6.327850
C 4.000000 4.041450 6.327850
C 5.000000 3.464100 5.511350
C 5.500000 4.330130 5.511350
C 5.500000 4.907480 6.327850
C 5.000000 4.041450 6.327850
C 6.000000 3.464100 5.511350
C 6.500000 4.330130 5.511350
C 6.500000 4.907480 6.327850
C 6.000000 4.041450 6.327850
C 7.000000 3.464100 5.511350
C 7.500000 4.330130 5.511350
C 7.500000 4.907480 6.327850
C 7.000000 4.041450 6.327850
C 8.000000 3.464100 5.511350
C 8.500000 4.330130 5.511350
C 8.500000 4.907480 6.327850
C 8.000000 4.041450 6.327850
C 0.000000 5.196150 5.511350
C 0.500000 6.062180 5.511350
C 0.500000 6.639530 6.327850
C 0.000000 5.773500 6.327850
C 1.000000 5.196150 5.511350
C 1.500000 6.062180 5.511350
C 1.500000 6.639530 6.327850
C 1.000000 5.773500 6.327850
C 2.000000 5.196150 5.511350
C 2.500000 6.062180 5.511350
C 2.500000 6.639530 6.327850
C 2.000000 5.773500 6.327850
C 3.000000 5.196150 5.511350
C 3.500000 6.062180 5.511350
C 3.500000 6.639530 6.327850
C 3.000000 5.773500 6.327850
C 4.000000 5.196150 5.511350
C 4.500000 6.062180 5.511350
C 4.500000 6.639530 6.327850
C 4.000000 5.773500 6.327850
C 5.000000 5.196150 5.511350
C 5.500000 6.062180 5.511350
C 5.500000 6.639530 6.327850
C 5.000000 5.773500 6.327850
C 6.000000 5.196150 5.511350
C 6.500000 6.062180 5.511350
C 6.500000 6.639530 6.327850
C 6.000000 5.773500 6.327850
C 7.000000 5.196150 5.511350
C 7.500000 6.062180 5.511350
C 7.500000 6.639530 6.327850
C 7.000000 5.773500 6.327850
C 8.000000 5.196150 5.511350
C 8.500000 6.062180 5.511350
C 8.500000 6.639530 6.327850
C 8.000000 5.773500 6.327850
C 0.000000 6.928200 5.511350
C 0.500000 7.794230 5.511350
C 0.500000 8.371580 6.327850
C 0.000000 7.505550 6.327850
C 1.000000 6.928200 5.511350
C 1.500000 7.794230 5.511350
C 1.500000 8.371580 6.327850
C 1.000000 7.505550 6.327850
C 2.000000 6.928200 5.511350
C 2.500000 7.794230 5.511350
C 2.500000 8.371580 6.327850
C 2.000000 7.505550 6.327850
C 3.000000 6.928200 5.511350
C 3.500000 7.794230 5.511350
C 3.500000 8.371580 6.327850
C 3.000000 7.505550 6.327850
C 4.000000 6.928200 5.511350
C 4.500000 7.794230 5.511350
C 4.500000 8.371580 6.327850
C 4.000000 7.505550 6.327850
C 5.000000 6.928200 5.511350
C 5.500000 7.794230 5.511350
C 5.500000 8.371580 6.327850
C 5.000000 7.505550 6.327850
C 6.000000 6.928200 5.511350
C 6.500000 7.794230 5.511350
C 6.500000 8.371580 6.327850
C 6.000000 7.505550 6.327850
C 7.000000 6.928200 5.511350
C 7.500000 7.794230 5.511350
C 7.500000 8.371580 6.327850
C 7.000000 7.505550 6.327850
C 8.000000 6.928200 5.511350
C 8.500000 7.794230 5.511350
C 8.500000 8.371580 6.327850
C 8.000000 7.505550 6.327850
C 0.000000 0.000000 7.144350
C 0.500000 0.866025 7.144350
C 0.500000 1.443380 7.960840
C 0.000000 0.577350 7.960840
C 1.000000 0.000000 7.144350
C 1.500000 0.866025 7.144350
C 1.500000 1.443380 7.960840
C 1.000000 0.577350 7.960840
C 2.000000 0.000000 7.144350
C 2.500000 0.866025 7.144350
C 2.500000 1.443380 7.960840
C 2.000000 0.577350 7.960840
C 3.000000 0.000000 7.144350
C 3.500000 0.866025 7.144350
C 3.500000 1.443380 7.960840
C 3.000000 0.577350 7.960840
C 4.000000 0.000000 7.144350
C 4.500000 0.866025 7.144350
C 4.500000 1.443380 7.960840
C 4.000000 0.577350 7.960840
C 5.000000 0.000000 7.144350
C 5.500000 0.866025 7.144350
C 5.500000 1.443380 7.960840
C 5.000000 0.577350 7.960840
C 6.000000 0.000000 7.144350
C 6.500000 0.866025 7.144350
C 6.500000 1.443380 7.960840
C 6.000000 0.577350 7.960840
C 7.000000 0.000000 7.144350
C 7.500000 0.866025 7.144350
C 7.500000 1.443380 7.960840
C 7.000000 0.577350 7.960840
C 8.000000 0.000000 7.144350
C 8.500000 0.866025 7.144350
C 8.500000 1.443380 7.960840
C 8.000000 0.577350 7.960840
C 0.000000 1.732050 7.144350
C 0.500000 2.598080 7.144350
C 0.500000 3.175430 7.960840
C 0.000000 2.309400 7.960840
C 1.000000 1.732050 7.144350
C 1.500000 2.598080 7.144350
C 1.500000 3.175430 7.960840
C 1.000000 2.309400 7.960840
C 2.000000 1.732050 7.144350
C 2.500000 2.598080 7.144350
C 2.500000 3.175430 7.960840
C 2.000000 2.309400 7.960840
C 3.000000 1.732050 7.144350
C 3.500000 2.598080 7.144350
C 3.500000 3.175430 7.960840
C 3.000000 2.309400 7.960840
C 4.000000 1.732050 7.144350
C 4.500000 2.598080 7.144350
C 4.500000 3.175430 7.960840
C 4.000000 2.309400 7.960840
C 5.000000 1.732050 7.144350
C 5.500000 2.598080 7.144350
C 5.500000 3.175430 7.960840
C 5.000000 2.309400 7.960840
C 6.000000 1.732050 7.144350
C 6.500000 2.598080 7.144350
C 6.500000 3.175430 7.960840
C 6.000000 2.309400 7.960840
C 7.000000 1.732050 7.144350
C 7.500000 2.598080 7.144350
C 7.500000 3.175430 7.960840
C 7.000000 2.309400 7.960840
C 8.000000 1.732050 7.144350
C 8.500000 2.598080 7.144350
C 8.500000 3.175430 7.960840
C 8.000000 2.309400 7.960840
C 0.000000 3.464100 7.144350
C 0.500000 4.330130 7.144350
C 0.500000 4.907480 7.960840
C 0.000000 4.041450 7.960840
C 1.000000 3.464100 7.144350
C 1.500000 4.330130 7.144350
C 1.500000 4.907480 7.960840
C 1.000000 4.041450 7.960840
C 2.000000 3.464100 7.144350
C 2.500000 4.330130 7.144350
C 2.500000 4.907480 7.960840
C 2.000000 4.041450 7.960840
C 3.000000 3.464100 7.144350
C 3.500000 4.330130 7.144350
C 3.500000 4.907480 7.960840
C 3.000000 4.041450 7.960840
C 4.000000 3.464100 7.144350
C 4.500000 4.330130 7.144350
C 4.500000 4.907480 7.960840
C 4.000000 4.041450 7.960840
C 5.000000 3.464100 7.144350
C 5.500000 4.330130 7.144350
C 5.500000 4.907480 7.960840
C 5.000000 4.041450 7.960840
C 6.000000 3.464100 7.144350
C 6.500000 4.330130 7.144350
C 6.500000 4.907480 7.960840
C 6.000000 4.041450 7.960840
C 7.000000 3.464100 7.144350
C 7.500000 4.330130 7.144350
C 7.500000 4.907480 7.960840
C 7.000000 4.041450 7.960840
C 8.000000 3.464100 7.144350
C 8.500000 4.330130 7.144350
C 8.500000 4.907480 7.960840
C 8.000000 4.041450 7.960840
C 0.000000 5.196150 7.144350
C 0.500000 6.062180 7.144350
C 0.500000 6.639530 7.960840
C 0.000000 5.773500 7.960840
C 1.000000 5.196150 7.144350
C 1.500000 6.062180 7.144350
C 1.500000 6.639530 7.960840
C 1.000000 5.773500 7.960840
C 2.000000 5.196150 7.144350
C 2.500000 6.062180 7.144350
C 2.500000 6.639530 7.960840
C 2.000000 5.773500 7.960840
C 3.000000 5.196150 7.144350
C 3.500000 6.062180 7.144350
C 3.500000 6.639530 7.960840
C 3.000000 5.773500 7.960840
C 4.000000 5.196150 7.144350
C 4.500000 6.062180 7.144350
C 4.500000 6.639530 7.960840
C 4.000000 5.773500 7.960840
C 5.000000 5.196150 7.144350
C 5.500000 6.062180 7.144350
C 5.500000 6.639530 7.960840
C 5.000000 5.773500 7.960840
C 6.000000 5.196150 7.144350
C 6.500000 6.062180 7.144350
C 6.500000 6.639530 7.960840
C 6.000000 5.773500 7.960840
C 7.000000 5.196150 7.144350
C 7.500000 6.062180 7.144350
C 7.500000 6.639530 7.960840
C 7.000000 5.773500 7.960840
C 8.000000 5.196150 7.144350
C 8.500000 6.062180 7.144350
C 8.500000 6.639530 7.960840
C 8.000000 5.773500 7.960840
C 0.000000 6.928200 7.144350
C 0.500000 7.794230 7.144350
C 0.500000 8.371580 7.960840
C 0.000000 7.505550 7.960840
C 1.000000 6.928200 7.144350
C 1.500000 7.794230 7.144350
C 1.500000 8.371580 7.960840
C 1.000000 7.505550 7.960840
C 2.000000 6.928200 7.144350
C 2.500000 7.794230 7.144350
C 2.500000 8.371580 7.960840
C 2.000000 7.505550 7.960840
C 3.000000 6.928200 7.144350
C 3.500000 7.794230 7.144350
C 3.500000 8.371580 7.960840
C 3.000000 7.505550 7.960840
C 4.000000 6.928200 7.144350
C 4.500000 7.794230 7.144350
C 4.500000 8.371580 7.960840
C 4.000000 7.505550 7.960840
C 5.000000 6.928200 7.144350
C 5.500000 7.794230 7.144350
C 5.500000 8.371580 7.960840
C 5.000000 7.505550 7.960840
C 6.000000 6.928200 7.144350
C 6.500000 7.794230 7.144350
C 6.500000 8.371580 7.960840
C 6.000000 7.505550 7.960840
C 7.000000 6.928200 7.144350
C 7.500000 7.794230 7.144350
C 7.500000 8.371580 7.960840
C 7.000000 7.505550 7.960840
C 8.000000 6.928200 7.144350
C 8.500000 7.794230 7.144350
C 8.500000 8.371580 7.960840
C 8.000000 7.505550 7.960840
C 0.000000 0.000000 8.777340
C 0.500000 0.866025 8.777340
C 0.500000 1.443380 9.593830
C 0.000000 0.577350 9.593830
C 1.000000 0.000000 8.777340
C 1.500000 0.866025 8.777340
C 1.500000 1.443380 9.593830
C 1.000000 0.577350 9.593830
C 2.000000 0.000000 8.777340
C 2.500000 0.866025 8.777340
C 2.500000 1.443380 9.593830
C 2.000000 0.577350 9.593830
C 3.000000 0.000000 8.777340
C 3.500000 0.866025 8.777340
C 3.500000 1.443380 9.593830
C 3.000000 0.577350 9.593830
C 4.000000 0.000000 8.777340
C 4.500000 0.866025 8.777340
C 4.500000 1.443380 9.593830
C 4.000000 0.577350 9.593830
C 5.000000 0.000000 8.777340
C 5.500000 0.866025 8.777340
C 5.500000 1.443380 9.593830
C 5.000000 0.577350 9.593830
C 6.000000 0.000000 8.777340
C 6.500000 0.866025 8.777340
C 6.500000 1.443380 9.593830
C 6.000000 0.577350 9.593830
C 7.000000 0.000000 8.777340
C 7.500000 0.866025 8.777340
C 7.500000 1.443380 9.593830
C 7.000000 0.577350 9.593830
C 8.000000 0.000000 8.777340
C 8.500000 0.866025 8.777340
C 8.500000 1.443380 9.593830
C 8.000000 0.577350 9.593830
C 0.000000 1.732050 8.777340
C 0.500000 2.598080 8.777340
C 0.500000 3.175430 9.593830
C 0.000000 2.309400 9.593830
C 1.000000 1.732050 8.777340
C 1.500000 2.598080 8.777340
C 1.500000 3.175430 9.593830
C 1.000000 2.309400 9.593830
C 2.000000 1.732050 8.777340
C 2.500000 2.598080 8.777340
C 2.500000 3.175430 9.593830
C 2.000000 2.309400 9.593830
C 3.000000 1.732050 8.777340
C 3.500000 2.598080 8.777340
C 3.500000 3.175430 9.593830
C 3.000000 2.309400 9.593830
C 4.000000 1.732050 8.777340
C 4.500000 2.598080 8.777340
C 4.500000 3.175430 9.593830
C 4.000000 2.309400 9.593830
C 5.000000 1.732050 8.777340
C 5.500000 2.598080 8.777340
C 5.500000 3.175430 9.593830
C 5.000000 2.309400 9.593830
C 6.000000 1.732050 8.777340
C 6.500000 2.598080 8.777340
C 6.500000 3.175430 9.593830
C 6.000000 2.309400 9.593830
C 7.000000 1.732050 8.777340
C 7.500000 2.598080 8.777340
C 7.500000 3.175430 9.593830
C 7.000000 2.309400 9.593830
C 8.000000 1.732050 8.777340
C 8.500000 2.598080 8.777340
C 8.500000 3.175430 9.593830
C 8.000000 2.309400 9.593830
C 0.000000 3.464100 8.777340
C 0.500000 4.330130 8.777340
C 0.500000 4.907480 9.593830
C 0.000000 4.041450 9.593830
C 1.000000 3.464100 8.777340
C 1.500000 4.330130 8.777340
C 1.500000 4.907480 9.593830
C 1.000000 4.041450 9.593830
C 2.000000 3.464100 8.777340
C 2.500000 4.330130 8.777340
C 2.500000 4.907480 9.593830
C 2.000000 4.041450 9.593830
C 3.000000 3.464100 8.777340
C 3.500000 4.330130 8.777340
C 3.500000 4.907480 9.593830
C 3.000000 4.041450 9.593830
C 4.000000 3.464100 8.777340
C 4.500000 4.330130 8.777340
C 4.500000 4.907480 9.593830
C 4.000000 4.041450 9.593830
C 5.000000 3.464100 8.777340
C 5.500000 4.330130 8.777340
C 5.500000 4.907480 9.593830
C 5.000000 4.041450 9.593830
C 6.000000 3.464100 8.777340
C 6.500000 4.330130 8.777340
C 6.500000 4.907480 9.593830
C 6.000000 4.041450 9.593830
C 7.000000 3.464100 8.777340
C 7.500000 4.330130 8.777340
C 7.500000 4.907480 9.593830
C 7.000000 4.041450 9.593830
C 8.000000 3.464100 8.777340
C 8.500000 4.330130 8.777340
C 8.500000 4.907480 9.593830
C 8.000000 4.041450 9.593830
C 0.000000 5.196150 8.777340
C 0.500000 6.062180 8.777340
C 0.500000 6.639530 9.593830
C 0.000000 5.773500 9.593830
C 1.000000 5.196150 8.777340
C 1.500000 6.062180 8.777340
C 1.500000 6.639530 9.593830
C 1.000000 5.773500 9.593830
C 2.000000 5.196150 8.777340
C 2.500000 6.062180 8.777340
C 2.500000 6.639530 9.593830
C 2.000000 5.773500 9.593830
C 3.000000 5.196150 8.777340
C 3.500000 6.062180 8.777340
C 3.500000 6.639530 9.593830
C 3.000000 5.773500 9.593830
C 4.000000 5.196150 8.777340
C 4.500000 6.062180 8.777340
C 4.500000 6.639530 9.593830
C 4.000000 5.773500 9.593830
C 5.000000 5.196150 8.777340
C 5.500000 6.062180 8.777340
C 5.500000 6.639530 9.593830
C 5.000000 5.773500 9.593830
C 6.000000 5.196150 8.777340
C 6.500000 6.062180 8.777340
C 6.500000 6.639530 9.593830
C 6.000000 5.773500 9.593830
C 7.000000 5.196150 8.777340
C 7.500000 6.062180 8.777340
C 7.500000 6.639530 9.593830
C 7.000000 5.773500 9.593830
C 8.000000 5.196150 8.777340
C 8.500000 6.062180 8.777340
C 8.500000 6.639530 9.593830
C 8.000000 5.773500 9.593830
C 0.000000 6.928200 8.777340
C 0.500000 7.794230 8.777340
C 0.500000 8.371580 9.593830
C 0.000000 7.505550 9.593830
C 1.000000 6.928200 8.777340
C 1.500000 7.794230 8.777340
C 1.500000 8.371580 9.593830
C 1.000000 7.505550 9.593830
C 2.000000 6.928200 8.777340
C 2.500000 7.794230 8.777340
C 2.500000 8.371580 9.593830
C 2.000000 7.505550 9.593830
C 3.000000 6.928200 8.777340
C 3.500000 7.794230 8.777340
C 3.500000 8.371580 9.593830
C 3.000000 7.505550 9.593830
C 4.000000 6.928200 8.777340
C 4.500000 7.794230 8.777340
C 4.500000 8.371580 9.593830
C 4.000000 7.505550 9.593830
C 5.000000 6.928200 8.777340
C 5.500000 7.794230 8.777340
C 5.500000 8.371580 9.593830
C 5.000000 7.505550 9.593830
C 6.000000 6.928200 8.777340
C 6.500000 7.794230 8.777340
C 6.500000 8.371580 9.593830
C 6.000000 7.505550 9.593830
C 7.000000 6.928200 8.777340
C 7.500000 7.794230 8.777340
C 7.500000 8.371580 9.593830
C 7.000000 7.505550 9.593830
C 8.000000 6.928200 8.777340
C 8.500000 7.794230 8.777340
C 8.500000 8.371580 9.593830
C 8.000000 7.505550 9.593830
2160
Frame 2/10
C 0.033126 0.003274 0.035768
C 0.527308 0.863287 0.009803
C 0.503031 1.462441 0.818668
C 0.000088 0.595848 0.831927
C 1.031757 0.017766 0.019294
C 1.488409 0.855085 0.015447
C 1.527891 1.439815 0.821353
C 1.017809 0.589023 0.804646
C 2.008619 0.019001 0.009302
C 2.484842 0.870396 0.029230
C 2.505746 1.445598 0.837666
C 1.985357 0.575065 0.816574
C 2.976632 0.015565 0.012188
C 3.498768 0.854652 0.006362
C 3.488596 1.438718 0.808561
C 3.002802 0.595585 0.788738
C 3.980393 0.019007 0.019307
C 4.489890 0.848745 0.005925
C 4.503089 1.427723 0.808706
C 4.002758 0.553669 0.815822
C 4.976401 0.011106 0.016500
C 5.517636 0.867945 0.000729
C 5.474786 1.436795 0.813254
C 5.006530 0.573426 0.813050
C 6.017045 0.034754 0.010566
C 6.501656 0.829507 0.010465
C 6.505918 1.454764 0.820957
C 6.002815 0.550327 0.813583
C 7.029669 0.007359 0.004041
C 7.484807 0.866768 0.022965
C 7.528964 1.447175 0.821544
C 7.016252 0.583916 0.840082
C 8.008628 0.013514 0.000713
C 8.515509 0.896245 0.009391
C 8.489716 1.450771 0.799446
C 7.962394 0.584113 0.801029
C 0.050745 1.717207 0.003903
C 0.495713 2.628113 0.017227
C 0.488891 3.158431 0.816919
C 0.018562 2.280091 0.822706
C 0.981546 1.719626 0.017214
C 1.480661 2.579284 0.002988
C 1.483423 3.186169 0.819827
C 1.000711 2.323402 0.808821
C 1.986236 1.703271 0.001995
C 2.508272 2.593031 0.017889
C 2.511736 3.169488 0.826701
C 1.996436 2.302653 0.799846
C 3.002736 1.739514 0.004798
C 3.527167 2.590905 0.004454
C 3.509938 3.177563 0.794731
C 3.002065 2.298968 0.831351
C 3.976821 1.740199 0.029796
C 4.525789 2.568314 0.003701
C 4.520878 3.174645 0.834817
C 3.997401 2.328001 0.793986
C 4.966563 1.749794 0.007205
C 5.494776 2.578528 0.006876
C 5.480698 3.164986 0.840969
C 4.993532 2.326209 0.829063
C 5.996742 1.731434 0.009562
C 6.509200 2.638883 0.007180
C 6.503090 3.159046 0.803250
C 6.019850 2.306146 0.828628
C 7.009979 1.747070 0.024734
C 7.512441 2.580314 0.016287
C 7.497157 3.183381 0.841622
C 6.969159 2.303144 0.831643
C 7.986292 1.746281 0.002864
C 8.517980 2.597423 0.000667
C 8.501325 3.159022 0.818228
C 7.987442 2.287664 0.838181
C 0.005276 3.438875 0.031354
C 0.497510 4.344869 0.024547
C 0.510171 4.940663 0.811493
C 0.001292 4.023486 0.824680
C 1.008417 3.449788 0.014103
C 1.514668 4.308129 0.012319
C 1.516994 4.894346 0.828090
C 0.992973 4.028507 0.831194
C 1.993441 3.491945 0.011924
C 2.486757 4.328805 0.017205
C 2.513866 4.891582 0.836122
C 1.982610 4.040199 0.820084
C 3.007859 3.467003 0.022343
C 3.517218 4.305027 0.000145
C 3.501958 4.922339 0.834358
C 3.016759 4.027313 0.798824
C 4.010829 3.478291 0.008965
C 4.513287 4.325628 0.001187
C 4.510424 4.903126 0.812621
C 4.001785 4.072966 0.825896
C 5.001557 3.443213 0.014440
C 5.503578 4.359947 0.032908
C 5.466358 4.906599 0.825223
C 5.007471 4.060821 0.806433
C 5.985681 3.447881 0.019388
C 6.493938 4.341873 0.003746
C 6.469580 4.885086 0.827133
C 5.996405 4.052583 0.833713
C 6.994404 3.483497 0.021120
C 7.476419 4.334398 0.003972
C 7.505781 4.909840 0.801720
C 6.977301 4.043198 0.807327
C 7.989238 3.453829 0.034199
C 8.470660 4.325490 0.000699
C 8.480359 4.883792 0.801095
C 7.987386 4.010859 0.809680
C 0.025707 5.167043 0.002104
C 0.492630 6.092074 0.004609
C 0.488320 6.638131 0.794318
C 0.019516 5.781853 0.789061
C 0.995082 5.191360 0.001456
C 1.492596 6.075928 0.002958
C 1.490859 6.673140 0.804788
C 0.979725 5.782384 0.795147
C 1.985201 5.214118 0.016536
C 2.527597 6.068029 0.026429
C 2.518484 6.660361 0.819620
C 2.005280 5.789743 0.796113
C 2.998922 5.192568 0.004806
C 3.497890 6.053422 0.017107
C 3.490172 6.647618 0.821316
C 3.019508 5.779606 0.809507
C 4.024931 5.205647 0.033883
C 4.505192 6.065556 0.013193
C 4.528269 6.666556 0.820892
C 3.990450 5.765877 0.790290
C 4.984859 5.211062 0.001680
C 5.530106 6.066751 0.022345
C 5.521600 6.634065 0.814121
C 5.017612 5.780542 0.840499
C 5.975145 5.191986 0.006610
C 6.490973 6.084507 0.001003
C 6.536146 6.617204 0.821767
C 5.995672 5.773999 0.815407
C 7.025038 5.197390 0.000253
C 7.501863 6.037055 0.027397
C 7.486210 6.641439 0.799309
C 7.012204 5.775547 0.834880
C 7.985838 5.194346 0.005382
C 8.536324 6.060738 0.004303
C 8.511143 6.663255 0.805382
C 7.982714 5.769358 0.807362
C 0.000446 6.904314 0.011167
C 0.510334 7.798745 0.009186
C 0.494519 8.390503 0.798324
C 0.010482 7.493857 0.818170
C 1.018828 6.925329 0.012414
C 1.476867 7.783171 0.001328
C 1.507125 8.363049 0.812607
C 1.000012 7.483185 0.840119
C 2.017326 6.928072 0.002140
C 2.500945 7.820168 0.011963
C 2.526467 8.369876 0.819373
C 2.019480 7.501502 0.797519
C 2.991711 6.959356 0.005887
C 3.465299 7.801378 0.005813
C 3.501371 8.363242 0.799903
C 3.005554 7.514605 0.841945
C 4.012913 6.894942 0.010433
C 4.489543 7.812986 0.009816
C 4.481381 8.394864 0.801796
C 4.003241 7.507791 0.803988
C 5.002777 6.920210 0.010351
C 5.469774 7.790209 0.013993
C 5.492401 8.362755 0.789185
C 5.003657 7.516663 0.807305
C 5.968750 6.937109 0.006047
C 6.503031 7.798899 0.014439
C 6.482035 8.379757 0.799948
C 5.986309 7.514980 0.792516
C 7.031030 6.926502 0.009550
C 7.499183 7.782316 0.008333
C 7.484745 8.382724 0.821404
C 7.004129 7.527803 0.826267
C 8.000310 6.932212 0.029763
C 8.493078 7.782577 0.008975
C 8.503819 8.352412 0.822985
C 8.003841 7.513386 0.793371
C 0.002409 0.021144 1.656678
C 0.503875 0.882518 1.618756
C 0.497687 1.445119 2.435785
C 0.017989 0.559535 2.439142
C 1.017542 0.025315 1.643263
C 1.510603 0.878191 1.647953
C 1.503413 1.424345 2.440406
C 0.997479 0.577396 2.469497
C 1.982390 0.008839 1.612944
C 2.494962 0.857436 1.639653
C 2.515131 1.429156 2.443176
C 2.001269 0.554651 2.457657
C 2.980042 0.011572 1.636210
C 3.490461 0.854732 1.650872
C 3.505013 1.442341 2.444141
C 2.994722 0.564914 2.455417
C 4.001999 0.001635 1.652645
C 4.518173 0.839428 1.623029
C 4.475937 1.444589 2.469750
C 4.013104 0.566641 2.444794
C 4.980381 0.020305 1.651647
C 5.511495 0.870899 1.632789
C 5.524375 1.430105 2.429862
C 4.997807 0.587788 2.454855
C 5.977839 0.017595 1.649586
C 6.520090 0.876518 1.615923
C 6.481855 1.426891 2.451882
C 6.021085 0.589856 2.476764
C 6.990952 0.001434 1.633816
C 7.507152 0.848244 1.646407
C 7.493464 1.463971 2.466206
C 7.015351 0.580911 2.469083
C 8.025411 0.004118 1.630940
C 8.492957 0.873824 1.630534
C 8.509177 1.455557 2.418798
C 7.999475 0.588486 2.432965
C 0.011756 1.749715 1.619143
C 0.499620 2.581740 1.623985
C 0.484611 3.196571 2.467211
C 0.007661 2.306584 2.443092
C 0.979927 1.728844 1.626083
C 1.504057 2.619813 1.620167
C 1.523943 3.182665 2.469797
C 0.990567 2.284212 2.448008
C 2.006631 1.752324 1.653996
C 2.526569 2.605789 1.621965
C 2.493505 3.182692 2.429415
C 1.975303 2.292590 2.460690
C 2.997040 1.725760 1.649288
C 3.519991 2.579489 1.632463
C 3.490915 3.188047 2.469110
C 2.982758 2.283979 2.432342
C 4.007942 1.743784 1.656986
C 4.492431 2.619889 1.643989
C 4.501675 3.182512 2.465240
C 3.991706 2.305298 2.436337
C 4.998291 1.736509 1.635317
C 5.514204 2.605149 1.630567
C 5.480987 3.179436 2.426804
C 5.010668 2.310974 2.446158
C 6.009436 1.750070 1.656840
C 6.517199 2.605768 1.613894
C 6.493639 3.173978 2.468597
C 6.022926 2.315219 2.470017
C 6.998133 1.714231 1.624306
C 7.502539 2.608816 1.613197
C 7.483540 3.178779 2.462003
C 6.979969 2.280030 2.432602
C 8.008184 1.724874 1.611447
C 8.502507 2.581747 1.637464
C 8.508612 3.173863 2.440355
C 7.989050 2.319820 2.472820
C 0.000611 3.465440 1.662005
C 0.488461 4.327405 1.651041
C 0.504118 4.893907 2.438112
C 0.001283 4.036049 2.481645
C 1.005798 3.441291 1.649460
C 1.471956 4.359563 1.631677
C 1.491727 4.922393 2.446915
C 0.994596 4.060329 2.474452
C 2.017526 3.478728 1.656959
C 2.503495 4.309134 1.635712
C 2.517964 4.904690 2.455752
C 2.005408 4.054336 2.438138
C 2.985589 3.478685 1.615077
C 3.480439 4.323480 1.639317
C 3.487254 4.926165 2.452499
C 3.008676 4.049722 2.466828
C 3.998382 3.474033 1.654735
C 4.500719 4.350531 1.624963
C 4.490067 4.878184 2.434064
C 3.991941 4.039677 2.475071
C 5.014790 3.475481 1.627428
C 5.489349 4.355270 1.622471
C 5.489747 4.879494 2.456581
C 4.980976 4.027366 2.457236
C 5.986332 3.485064 1.651895
C 6.522584 4.318729 1.659030
C 6.482890 4.890944 2.433313
C 5.993216 4.029360 2.457801
C 6.984459 3.448937 1.633542
C 7.490671 4.336433 1.626882
C 7.500392 4.907778 2.427417
C 7.025856 4.016889 2.456151
C 8.023612 3.447546 1.625458
C 8.481535 4.332362 1.644620
C 8.486573 4.882283 2.469344
C 7.996737 4.047219 2.460186
C 0.018277 5.198732 1.645604
C 0.505355 6.060856 1.662867
C 0.514234 6.628780 2.473859
C 0.010291 5.772118 2.449369
C 1.014287 5.193966 1.636548
C 1.473231 6.058322 1.608593
C 1.512452 6.642151 2.440710
C 1.003542 5.765837 2.454718
C 1.984169 5.191604 1.621247
C 2.499660 6.047215 1.627086
C 2.516918 6.665847 2.451141
C 1.998643 5.747299 2.462409
C 2.980947 5.211848 1.624561
C 3.509432 6.061387 1.635723
C 3.498168 6.625154 2.437557
C 2.984256 5.778354 2.469652
C 4.001846 5.189539 1.649624
C 4.491327 6.054053 1.631582
C 4.516326 6.638010 2.458901
C 4.004004 5.794065 2.456797
C 4.969616 5.189548 1.645185
C 5.502563 6.064333 1.621045
C 5.485549 6.650316 2.462496
C 5.005045 5.754990 2.438318
C 5.991390 5.181029 1.641735
C 6.498614 6.084360 1.621880
C 6.519604 6.627283 2.433477
C 6.027880 5.769128 2.458222
C 6.999029 5.204600 1.627886
C 7.519647 6.052444 1.627796
C 7.467288 6.621980 2.447332
C 6.968787 5.779461 2.453031
C 8.009246 5.188566 1.601336
C 8.489798 6.042206 1.651133
C 8.500098 6.624842 2.467386
C 8.017419 5.775207 2.481661
C 0.001674 6.933418 1.662976
C 0.494471 7.769982 1.627590
C 0.501723 8.396098 2.430752
C 0.014683 7.522673 2.415218
C 0.996468 6.894359 1.638955
C 1.521977 7.783964 1.649811
C 1.484756 8.382582 2.441605
C 1.015039 7.488995 2.441380
C 1.979602 6.941490 1.643737
C 2.502575 7.789660 1.654915
C 2.507354 8.375992 2.458139
C 1.997329 7.497478 2.440757
C 2.999206 6.909109 1.630435
C 3.466104 7.793000 1.651376
C 3.528847 8.388438 2.441637
C 3.002468 7.504891 2.461146
C 4.009449 6.915508 1.625621
C 4.499160 7.766848 1.638001
C 4.495512 8.388219 2.420462
C 3.989977 7.474479 2.444260
C 4.986389 6.900060 1.633265
C 5.510144 7.780402 1.657685
C 5.499511 8.384004 2.443516
C 4.983576 7.524711 2.436560
C 5.992912 6.918954 1.628110
C 6.486867 7.803554 1.621013
C 6.483882 8.351748 2.459170
C 5.985826 7.508284 2.476688
C 6.997920 6.937532 1.617766
C 7.524633 7.792140 1.629463
C 7.521102 8.359206 2.450786
C 7.001674 7.519457 2.445969
C 8.002735 6.941232 1.618816
C 8.520561 7.794665 1.638369
C 8.511016 8.386594 2.418849
C 7.995559 7.515931 2.456773
C 0.004240 0.003413 3.251873
C 0.502377 0.853003 3.271972
C 0.492817 1.435433 4.100912
C 0.028055 0.591550 4.059218
C 0.989151 0.016582 3.254202
C 1.498144 0.885018 3.284894
C 1.474767 1.441496 4.098823
C 1.012393 0.596599 4.099480
C 2.020877 0.017150 3.254790
C 2.519765 0.879738 3.252681
C 2.508558 1.458167 4.062380
C 1.993967 0.569179 4.101106
C 2.996550 0.011455 3.299659
C 3.513705 0.865965 3.254376
C 3.528827 1.439314 4.094684
C 3.035135 0.583602 4.073802
C 3.985765 0.006658 3.283496
C 4.496970 0.896096 3.288705
C 4.475732 1.463141 4.080319
C 3.976388 0.555454 4.070797
C 5.014399 0.015932 3.252432
C 5.514686 0.878407 3.281238
C 5.511835 1.451056 4.081621
C 5.005730 0.559639 4.081482
C 6.012962 0.006480 3.246177
C 6.505948 0.894412 3.277579
C 6.534263 1.435913 4.091326
C 6.000104 0.591063 4.054124
C 6.988656 0.011116 3.297890
C 7.496562 0.867150 3.228325
C 7.505147 1.467055 4.098115
C 7.016709 0.593416 4.109605
C 7.984955 0.012584 3.266043
C 8.515919 0.898332 3.273285
C 8.513431 1.444244 4.058312
C 8.002060 0.580879 4.081592
C 0.034595 1.753991 3.281006
C 0.481655 2.579531 3.283938
C 0.483280 3.178861 4.072437
C 0.027388 2.328325 4.101235
C 1.018857 1.711887 3.275998
C 1.515817 2.628708 3.265812
C 1.504888 3.184610 4.091218
C 1.013448 2.310909 4.103492
C 2.011105 1.749554 3.288340
C 2.488304 2.615279 3.292098
C 2.500076 3.160439 4.057307
C 2.020815 2.287022 4.094852
C 3.006618 1.752140 3.294653
C 3.481862 2.611561 3.278520
C 3.505345 3.186621 4.090315
C 2.979742 2.307865 4.057513
C 4.011784 1.726845 3.237350
C 4.499210 2.613461 3.248591
C 4.478370 3.177478 4.077330
C 4.025926 2.289210 4.069659
C 5.023359 1.726161 3.258431
C 5.495462 2.597177 3.291924
C 5.525921 3.159385 4.075110
C 5.003321 2.330260 4.055445
C 6.025621 1.712389 3.265955
C 6.498780 2.594039 3.273851
C 6.508211 3.166802 4.088816
C 5.984072 2.292706 4.094613
C 6.994481 1.737696 3.249566
C 7.488312 2.623380 3.249847
C 7.500243 3.182468 4.083322
C 7.016262 2.289408 4.077748
C 7.978674 1.746222 3.256721
C 8.489494 2.598006 3.259496
C 8.496900 3.182026 4.106624
C 7.998085 2.322534 4.093582
C 0.021130 3.450015 3.267474
C 0.503947 4.303811 3.240388
C 0.505377 4.879666 4.078453
C 0.012402 4.065165 4.070145
C 0.980296 3.464772 3.258589
C 1.505461 4.321317 3.278329
C 1.503227 4.887737 4.074924
C 0.991810 4.023192 4.085135
C 1.987833 3.452129 3.262875
C 2.497379 4.333515 3.297271
C 2.519420 4.910407 4.068385
C 1.990168 4.055553 4.060815
C 3.009003 3.434648 3.282950
C 3.488755 4.311477 3.259103
C 3.508252 4.901194 4.054748
C 3.003041 4.021091 4.107524
C 3.988661 3.472850 3.276847
C 4.489445 4.325442 3.291466
C 4.479450 4.898719 4.096869
C 4.013959 4.043126 4.073124
C 4.998379 3.473192 3.256081
C 5.497551 4.324662 3.259254
C 5.517786 4.890251 4.102241
C 5.008421 4.017172 4.073073
C 6.024681 3.455362 3.277651
C 6.470761 4.333517 3.251737
C 6.508819 4.892807 4.061311
C 5.984899 4.021622 4.065475
C 7.022214 3.479532 3.287799
C 7.497764 4.333839 3.257764
C 7.486696 4.902618 4.054283
C 7.006676 4.044269 4.094864
C 8.015680 3.459562 3.245410
C 8.516332 4.315228 3.257446
C 8.515607 4.916249 4.055423
C 7.990921 4.038054 4.108094
C 0.015412 5.202087 3.276753
C 0.477988 6.070489 3.273585
C 0.503258 6.670916 4.077102
C 0.013195 5.768407 4.114409
C 1.004464 5.216553 3.261173
C 1.502262 6.079683 3.253377
C 1.475776 6.636071 4.085134
C 0.974869 5.791078 4.086161
C 1.984031 5.202488 3.277273
C 2.480211 6.075819 3.253876
C 2.488510 6.624755 4.090461
C 1.995230 5.774157 4.084636
C 3.001793 5.193029 3.276312
C 3.528073 6.072363 3.245219
C 3.506764 6.657391 4.104653
C 2.996035 5.795987 4.079281
C 4.008847 5.204450 3.249149
C 4.490063 6.039350 3.265325
C 4.504018 6.630748 4.099314
C 3.989333 5.774684 4.088837
C 4.999384 5.202967 3.285440
C 5.495118 6.041397 3.285604
C 5.487841 6.624633 4.072204
C 4.989581 5.756874 4.078962
C 5.991104 5.217042 3.253463
C 6.520073 6.042370 3.275674
C 6.518006 6.654589 4.077734
C 5.980584 5.774119 4.066663
C 6.982608 5.201119 3.255690
C 7.491062 6.057969 3.291896
C 7.511989 6.630995 4.057296
C 7.014503 5.766444 4.077725
C 8.018921 5.188515 3.239778
C 8.513178 6.054982 3.249108
C 8.494411 6.637019 4.088088
C 8.020438 5.774053 4.081915
C 0.028419 6.937758 3.286139
C 0.475048 7.778126 3.272088
C 0.477433 8.376936 4.085688
C 0.027736 7.515598 4.077509
C 0.986385 6.905923 3.278672
C 1.490019 7.789710 3.265484
C 1.514669 8.349251 4.074359
C 0.992805 7.499467 4.053525
C 1.980305 6.911580 3.276272
C 2.505944 7.785842 3.241486
C 2.486622 8.385928 4.062663
C 2.020288 7.491552 4.072428
C 3.009090 6.925718 3.277251
C 3.501082 7.815379 3.286151
C 3.504621 8.360385 4.072193
C 2.985197 7.496906 4.078366
C 3.999210 6.929839 3.265382
C 4.518659 7.785518 3.245647
C 4.504567 8.347746 4.093658
C 4.014791 7.496249 4.083491
C 4.988143 6.915297 3.251563
C 5.491331 7.796050 3.249826
C 5.495778 8.392605 4.108149
C 5.017203 7.507676 4.080339
C 5.987435 6.938620 3.244909
C 6.504595 7.774192 3.268269
C 6.529461 8.382312 4.079030
C 5.989228 7.498074 4.112556
C 7.001415 6.953880 3.276273
C 7.506306 7.808834 3.262431
C 7.518908 8.370703 4.106197
C 7.014729 7.513785 4.059670
C 7.995817 6.944966 3.273169
C 8.505883 7.771303 3.273915
C 8.485693 8.379656 4.076402
C 8.000892 7.511635 4.112128
C 0.024552 0.011329 4.893265
C 0.473591 0.873693 4.907023
C 0.528553 1.449419 5.717675
C 0.004337 0.598319 5.707567
C 1.007952 0.003881 4.933463
C 1.501730 0.874273 4.929211
C 1.526543 1.448582 5.699630
C 1.005645 0.576629 5.699486
C 1.978585 0.006339 4.895064
C 2.485701 0.873923 4.877119
C 2.512832 1.438361 5.711165
C 2.003066 0.595425 5.703534
C 3.006105 0.018858 4.871719
C 3.472377 0.885008 4.901516
C 3.506248 1.448222 5.707308
C 2.982102 0.586836 5.711434
C 4.007833 0.011219 4.895781
C 4.510314 0.861153 4.886102
C 4.521332 1.425774 5.725483
C 3.985020 0.587782 5.737652
C 5.020598 0.000881 4.923781
C 5.496306 0.865108 4.901729
C 5.510168 1.425967 5.732352
C 5.002050 0.559458 5.721626
C 5.979727 0.000490 4.893434
C 6.500842 0.851240 4.917126
C 6.517180 1.461278 5.724774
C 5.997315 0.602064 5.695857
C 7.018899 0.011622 4.919721
C 7.495072 0.885811 4.920155
C 7.519011 1.452609 5.709477
C 7.024809 0.563772 5.712937
C 8.001196 0.027958 4.868457
C 8.487187 0.865510 4.875226
C 8.494341 1.440004 5.712403
C 7.991871 0.571365 5.728534
C 0.002379 1.724277 4.882785
C 0.491351 2.606532 4.915297
C 0.492294 3.175056 5.701623
C 0.001289 2.327189 5.702885
C 0.979243 1.750118 4.914774
C 1.506884 2.582724 4.889444
C 1.486001 3.149234 5.713982
C 1.008236 2.302291 5.687426
C 1.998525 1.741357 4.879846
C 2.488951 2.605711 4.888930
C 2.523715 3.176475 5.733015
C 2.026689 2.303139 5.704666
C 3.010349 1.750372 4.903702
C 3.480145 2.622949 4.897247
C 3.507139 3.162692 5.704472
C 3.004709 2.285354 5.707796
C 3.998283 1.726709 4.890054
C 4.504340 2.580579 4.889172
C 4.490909 3.173456 5.697004
C 4.004781 2.319239 5.740423
C 4.994017 1.725637 4.879787
C 5.487190 2.584670 4.905988
C 5.505886 3.183887 5.740483
C 4.988764 2.318514 5.713415
C 5.975266 1.743660 4.883084
C 6.499524 2.600699 4.886354
C 6.517848 3.188944 5.705739
C 5.992436 2.330614 5.715348
C 7.010028 1.739884 4.912211
C 7.497738 2.614090 4.874357
C 7.494445 3.203278 5.713221
C 6.979163 2.309146 5.715180
C 8.001308 1.740140 4.905477
C 8.489821 2.620618 4.896800
C 8.483710 3.174744 5.718709
C 8.018582 2.310270 5.699860
C 0.012622 3.443726 4.897135
C 0.513514 4.312830 4.894885
C 0.517321 4.903338 5.724569
C 0.021898 4.024304 5.740421
C 1.007234 3.452985 4.883424
C 1.495596 4.344255 4.909269
C 1.486939 4.940627 5.724302
C 0.979863 4.046783 5.728109
C 2.018034 3.450183 4.886487
C 2.498847 4.334853 4.931273
C 2.496399 4.890187 5.713293
C 2.007520 4.033998 5.696057
C 2.980855 3.466580 4.877122
C 3.496704 4.345452 4.890230
C 3.524597 4.917038 5.703467
C 2.991867 4.021742 5.698055
C 3.992713 3.453262 4.890194
C 4.507074 4.333586 4.899629
C 4.506501 4.926898 5.724138
C 3.972553 4.060840 5.697412
C 5.017174 3.444161 4.895947
C 5.522516 4.344119 4.888029
C 5.500662 4.928611 5.741184
C 5.006753 4.032754 5.733355
C 6.003500 3.484471 4.876227
C 6.482252 4.346088 4.894712
C 6.493778 4.898772 5.724773
C 5.977317 4.031855 5.717979
C 6.983573 3.465943 4.893604
C 7.502110 4.342797 4.914925
C 7.501631 4.926523 5.715908
C 7.028748 4.023496 5.717454
C 8.019310 3.458182 4.902452
C 8.507809 4.344924 4.902758
C 8.493444 4.933205 5.699701
C 7.995633 4.052160 5.705035
C 0.002349 5.210910 4.914613
C 0.497386 6.048337 4.911235
C 0.501725 6.667971 5.730511
C 0.018548 5.766650 5.721537
C 1.014641 5.190040 4.915636
C 1.478924 6.048183 4.889301
C 1.489762 6.657503 5.694356
C 1.026136 5.761314 5.714521
C 2.010289 5.211373 4.917599
C 2.489202 6.069041 4.903930
C 2.484636 6.653459 5.719223
C 2.003532 5.763571 5.738552
C 3.028219 5.196124 4.894696
C 3.491871 6.040553 4.919390
C 3.502164 6.643455 5.697322
C 3.011668 5.774328 5.722783
C 4.017467 5.215151 4.900123
C 4.492332 6.090252 4.898391
C 4.504003 6.654363 5.731231
C 3.995952 5.784809 5.687224
C 5.006888 5.207191 4.911566
C 5.510563 6.078880 4.882083
C 5.494347 6.616405 5.718030
C 5.012177 5.784068 5.703887
C 6.007842 5.176619 4.919625
C 6.488654 6.088225 4.894791
C 6.482244 6.625243 5.732384
C 6.000563 5.788022 5.735653
C 7.015647 5.176021 4.910204
C 7.501871 6.029850 4.913521
C 7.505833 6.647830 5.716447
C 7.000670 5.775776 5.709193
C 8.008644 5.187703 4.890562
C 8.512738 6.043564 4.882597
C 8.515062 6.627295 5.698110
C 7.982968 5.770379 5.707160
C 0.014828 6.953570 4.894860
C 0.493894 7.797771 4.886931
C 0.488074 8.389342 5.702666
C 0.020148 7.477269 5.712998
C 0.995428 6.952823 4.879223
C 1.494576 7.762498 4.904870
C 1.515722 8.391985 5.712928
C 1.020015 7.532007 5.706184
C 1.992894 6.939334 4.884696
C 2.493987 7.820968 4.907155
C 2.474074 8.396015 5.712720
C 1.994609 7.493943 5.687759
C 3.010811 6.935910 4.916849
C 3.493968 7.787526 4.899991
C 3.505042 8.363157 5.701574
C 3.016784 7.501045 5.709400
C 4.022826 6.947891 4.894548
C 4.489473 7.771639 4.899097
C 4.481602 8.382358 5.706719
C 4.026930 7.489520 5.717840
C 5.000285 6.948715 4.900923
C 5.518750 7.762040 4.894816
C 5.496749 8.394617 5.714168
C 5.024096 7.518813 5.724060
C 6.008546 6.964420 4.906956
C 6.500382 7.804464 4.917589
C 6.510902 8.368541 5.675621
C 6.027028 7.511834 5.720305
C 6.972057 6.943453 4.908474
C 7.482202 7.810077 4.900865
C 7.486708 8.383893 5.717581
C 6.979713 7.510542 5.735056
C 8.004641 6.952957 4.913559
C 8.517387 7.800536 4.913171
C 8.511553 8.381259 5.714866
C 7.986383 7.507774 5.738717
C 0.021584 0.008779 6.541118
C 0.502243 0.885675 6.522917
C 0.479932 1.460390 7.343303
C 0.035094 0.591840 7.346844
C 1.008442 0.006307 6.496786
C 1.487005 0.877422 6.553010
C 1.489307 1.463075 7.361831
C 0.990465 0.554396 7.370002
C 1.980038 0.018913 6.534369
C 2.488396 0.855704 6.532678
C 2.497594 1.464035 7.336106
C 1.987440 0.572933 7.384206
C 3.020332 0.015257 6.505499
C 3.523943 0.867604 6.554909
C 3.487280 1.440364 7.326734
C 3.001187 0.552145 7.353333
C 4.004675 0.016377 6.552627
C 4.514415 0.842811 6.524846
C 4.505580 1.432207 7.371004
C 3.973581 0.590663 7.356779
C 5.014218 0.016448 6.512643
C 5.484689 0.841232 6.525944
C 5.513540 1.456689 7.329928
C 4.982597 0.564155 7.356002
C 5.987551 0.004042 6.514435
C 6.490924 0.852302 6.517372
C 6.505276 1.457956 7.332506
C 5.996098 0.577804 7.344553
C 6.992198 0.028310 6.542975
C 7.489195 0.871764 6.561087
C 7.482203 1.465226 7.364158
C 7.009193 0.591801 7.334883
C 7.979272 0.016725 6.521324
C 8.518421 0.871964 6.523317
C 8.507224 1.467506 7.372741
C 8.006091 0.580475 7.356644
C 0.029304 1.739990 6.525220
C 0.521493 2.600711 6.540498
C 0.485119 3.157293 7.348270
C 0.032412 2.316705 7.359945
C 0.999497 1.745039 6.525529
C 1.503805 2.592975 6.550072
C 1.524812 3.172505 7.357548
C 1.004580 2.331043 7.322872
C 2.015803 1.711034 6.525326
C 2.497908 2.614127 6.518919
C 2.503036 3.173401 7.345229
C 1.999440 2.310391 7.348913
C 3.013917 1.711428 6.526469
C 3.475270 2.583680 6.525117
C 3.521365 3.185926 7.353733
C 2.988858 2.323660 7.325137
C 3.995741 1.736097 6.519777
C 4.476137 2.594599 6.508600
C 4.506408 3.161011 7.364444
C 3.973800 2.306869 7.355170
C 4.970594 1.722748 6.546774
C 5.491303 2.595041 6.526876
C 5.511704 3.177495 7.365686
C 5.027078 2.306903 7.332470
C 6.011735 1.746996 6.532838
C 6.513686 2.597434 6.566051
C 6.480828 3.175080 7.376205
C 6.015379 2.276995 7.359722
C 7.019554 1.740524 6.530058
C 7.485557 2.566224 6.534870
C 7.492633 3.149620 7.338780
C 6.981707 2.327771 7.363666
C 7.971897 1.754281 6.537964
C 8.478523 2.606486 6.546751
C 8.508317 3.185934 7.366011
C 8.003730 2.285112 7.326848
C 0.017052 3.475125 6.536132
C 0.479060 4.336686 6.548042
C 0.492737 4.905510 7.319963
C 0.010841 4.066805 7.330227
C 0.999330 3.443554 6.538624
C 1.483198 4.318043 6.529609
C 1.500425 4.884461 7.331663
C 1.009534 4.050482 7.357732
C 1.999354 3.485553 6.516550
C 2.496368 4.343304 6.541374
C 2.487321 4.904014 7.368063
C 1.976801 4.041178 7.344591
C 2.982582 3.478458 6.533197
C 3.513318 4.350577 6.544472
C 3.483399 4.926300 7.356655
C 2.981700 4.034506 7.363090
C 4.002872 3.445380 6.514174
C 4.514532 4.330409 6.529897
C 4.495622 4.928823 7.341647
C 4.020269 4.025915 7.326443
C 4.994650 3.441611 6.552684
C 5.505305 4.327119 6.550503
C 5.499481 4.876165 7.347241
C 5.018978 4.034906 7.326042
C 5.974478 3.472961 6.528457
C 6.495151 4.353520 6.535512
C 6.465985 4.903512 7.366272
C 5.992084 4.047368 7.389337
C 7.001848 3.471705 6.549022
C 7.499491 4.332582 6.507129
C 7.508331 4.905257 7.343086
C 6.993231 4.042524 7.335666
C 8.006584 3.444540 6.515040
C 8.496985 4.347447 6.520679
C 8.475339 4.904725 7.339063
C 8.009917 4.053074 7.331299
C 0.018856 5.216672 6.521155
C 0.495405 6.073877 6.505508
C 0.494273 6.657700 7.371301
C 0.016076 5.776186 7.344633
C 1.007903 5.186900 6.502635
C 1.506158 6.092147 6.546577
C 1.499065 6.658918 7.341217
C 1.001904 5.776481 7.338329
C 2.007961 5.202145 6.518937
C 2.512606 6.065479 6.523559
C 2.487380 6.657244 7.346261
C 2.027294 5.776329 7.368414
C 2.994923 5.178783 6.536280
C 3.518839 6.069261 6.564781
C 3.501943 6.655367 7.354142
C 2.979903 5.780484 7.345586
C 3.991372 5.167442 6.532151
C 4.491718 6.038910 6.537760
C 4.496254 6.607695 7.354244
C 3.987728 5.796727 7.335164
C 4.992722 5.181502 6.531461
C 5.480588 6.053846 6.534976
C 5.478913 6.639688 7.364007
C 5.028320 5.772091 7.348364
C 5.983134 5.199575 6.511798
C 6.530391 6.056041 6.543034
C 6.489515 6.641752 7.328578
C 5.998487 5.775370 7.367139
C 6.978336 5.184012 6.531973
C 7.488314 6.050995 6.513074
C 7.490673 6.656152 7.324192
C 6.996527 5.792841 7.356730
C 7.995558 5.189794 6.521239
C 8.496880 6.056380 6.536881
C 8.484373 6.647478 7.331844
C 8.023252 5.771541 7.354801
C 0.026229 6.937138 6.523595
C 0.484457 7.797918 6.542304
C 0.509975 8.341593 7.337819
C 0.001379 7.501739 7.347500
C 1.024157 6.929020 6.527342
C 1.492124 7.761687 6.519436
C 1.529088 8.357527 7.345675
C 1.001276 7.510763 7.322687
C 1.980414 6.918179 6.539587
C 2.514090 7.784582 6.514110
C 2.517151 8.375260 7.374013
C 2.005964 7.535925 7.336815
C 2.988844 6.944794 6.520458
C 3.510595 7.792436 6.525423
C 3.525780 8.377613 7.343778
C 2.985899 7.496390 7.332050
C 4.021203 6.921167 6.522225
C 4.518082 7.776681 6.513409
C 4.499198 8.362029 7.369013
C 4.008114 7.475807 7.347848
C 4.999076 6.927395 6.520746
C 5.494176 7.766467 6.547978
C 5.485405 8.368469 7.341204
C 4.970935 7.490068 7.361505
C 5.972846 6.950600 6.523254
C 6.493577 7.808643 6.505745
C 6.488891 8.376030 7.345379
C 6.021522 7.490501 7.343620
C 6.997686 6.944408 6.545464
C 7.520316 7.796884 6.536042
C 7.510992 8.375278 7.374487
C 6.999748 7.519909 7.347868
C 8.006327 6.935186 6.572309
C 8.485318 7.775251 6.523790
C 8.499905 8.379573 7.336066
C 7.981154 7.501387 7.363433
C 0.014573 0.003927 8.178929
C 0.498525 0.875420 8.165086
C 0.493676 1.448486 8.976339
C 0.028341 0.552337 8.977536
C 1.008076 0.024626 8.164029
C 1.496689 0.867820 8.185993
C 1.493989 1.456535 8.975791
C 0.997379 0.597500 8.989347
C 2.004802 0.023388 8.134749
C 2.510575 0.856216 8.174274
C 2.501853 1.461590 9.001045
C 2.013702 0.600595 8.976189
C 2.971356 0.011720 8.164849
C 3.489093 0.859829 8.176572
C 3.513264 1.455688 8.974781
C 2.990625 0.564806 8.978256
C 3.973180 0.014379 8.156153
C 4.519146 0.897785 8.157806
C 4.505714 1.458416 8.961414
C 3.987289 0.607106 8.981189
C 5.013589 0.015398 8.180180
C 5.510109 0.866696 8.157361
C 5.520203 1.457851 8.980945
C 4.989289 0.563679 8.960466
C 5.990987 0.031875 8.171726
C 6.499828 0.841199 8.177782
C 6.512754 1.451625 8.963993
C 5.988925 0.570064 8.957486
C 6.985241 0.009070 8.175852
C 7.505017 0.865496 8.149005
C 7.509163 1.438589 8.953270
C 7.012968 0.554882 8.966196
C 7.969331 0.001637 8.180803
C 8.495522 0.850198 8.140843
C 8.494409 1.442090 8.991257
C 8.005242 0.557875 9.004042
C 0.003193 1.710364 8.160089
C 0.505301 2.590706 8.154321
C 0.490821 3.178607 8.995405
C 0.004248 2.286547 8.955352
C 0.985357 1.727295 8.134482
C 1.517782 2.594905 8.164094
C 1.516530 3.189488 8.990452
C 1.010671 2.330450 8.969778
C 1.995212 1.700911 8.178959
C 2.473921 2.581603 8.164181
C 2.507928 3.144592 8.982787
C 2.024316 2.329536 8.994277
C 3.004451 1.747192 8.175219
C 3.511501 2.618754 8.170941
C 3.506600 3.186532 8.974467
C 2.992714 2.330361 8.960675
C 3.982179 1.728683 8.171972
C 4.480922 2.621190 8.174551
C 4.499110 3.183306 8.966199
C 3.986664 2.328244 8.968825
C 4.989145 1.716909 8.146022
C 5.510028 2.625249 8.164113
C 5.509183 3.178642 8.965648
C 5.000795 2.322952 8.970982
C 6.017836 1.724283 8.171905
C 6.475914 2.585550 8.162341
C 6.494966 3.189380 8.995984
C 6.003943 2.339371 8.982284
C 7.011905 1.725231 8.144577
C 7.476628 2.611249 8.185282
C 7.511854 3.187971 8.996829
C 6.993407 2.312609 8.973104
C 7.980216 1.747842 8.173841
C 8.484169 2.579473 8.163394
C 8.491734 3.182490 8.959890
C 7.992548 2.328302 8.980758
C 0.004184 3.460781 8.180099
C 0.502743 4.360218 8.160515
C 0.502110 4.890619 8.983109
C 0.000022 4.017316 8.961993
C 0.980819 3.461227 8.170105
C 1.493739 4.315618 8.156303
C 1.494052 4.902522 8.999279
C 0.977612 4.043295 8.991059
C 1.993533 3.447254 8.174864
C 2.486000 4.334874 8.186908
C 2.509394 4.889575 8.981907
C 1.985787 4.032772 8.961947
C 2.997355 3.471316 8.153164
C 3.520466 4.318923 8.191382
C 3.497188 4.881231 8.976051
C 2.980084 4.061891 9.002500
C 3.989782 3.441987 8.155493
C 4.505173 4.333188 8.153183
C 4.512801 4.900360 8.998530
C 4.015134 4.037024 9.001446
C 5.005877 3.491177 8.186265
C 5.503097 4.349519 8.170745
C 5.489759 4.916315 8.998016
C 4.999890 4.017751 8.962170
C 6.022922 3.453892 8.172576
C 6.498841 4.323896 8.178448
C 6.485448 4.894654 8.969946
C 6.015463 4.031034 8.980447
C 6.990248 3.461667 8.166165
C 7.494753 4.306308 8.169927
C 7.497466 4.893996 8.979362
C 7.008646 4.022535 8.972721
C 7.995967 3.478368 8.138563
C 8.526936 4.316550 8.178591
C 8.487039 4.894656 8.974821
C 7.989721 4.021689 8.998593
C 0.007935 5.217638 8.190517
C 0.518611 6.084042 8.147119
C 0.492191 6.646224 8.991803
C 0.007962 5.788211 9.011296
C 1.000514 5.177158 8.183233
C 1.495549 6.034937 8.152999
C 1.505440 6.619045 8.974350
C 1.012064 5.767320 8.967760
C 2.025239 5.213673 8.167256
C 2.503074 6.079930 8.142936
C 2.522435 6.639311 8.971652
C 2.000855 5.752280 8.983110
C 3.030311 5.192829 8.150214
C 3.487909 6.087239 8.164142
C 3.520139 6.645664 8.967865
C 2.997816 5.790397 8.994791
C 4.003772 5.196080 8.144651
C 4.512355 6.069156 8.159417
C 4.485535 6.630166 8.978515
C 4.005737 5.746587 8.964632
C 5.009543 5.210138 8.176829
C 5.513892 6.048349 8.154713
C 5.504228 6.623617 8.961986
C 5.011255 5.810725 8.965569
C 5.985431 5.175042 8.176197
C 6.488706 6.049168 8.164371
C 6.489541 6.649579 8.999770
C 5.984599 5.750347 8.974678
C 6.994233 5.212397 8.185965
C 7.479759 6.048399 8.170538
C 7.497214 6.615444 8.986495
C 6.977187 5.775658 8.989086
C 7.992464 5.205643 8.158101
C 8.493470 6.053169 8.194285
C 8.516362 6.659441 8.975419
C 7.988322 5.766797 9.007098
C 0.001771 6.932080 8.169282
C 0.507028 7.782064 8.162028
C 0.485714 8.381966 9.005726
C 0.002730 7.521026 8.969635
C 1.019562 6.914009 8.148930
C 1.504992 7.811195 8.148229
C 1.478579 8.360460 8.956034
C 0.978580 7.493701 8.976738
C 1.984357 6.909881 8.167275
C 2.500098 7.771006 8.162902
C 2.529351 8.386157 9.001142
C 1.991248 7.529226 8.981615
C 3.009571 6.926854 8.144629
C 3.479187 7.776313 8.153801
C 3.518458 8.352626 8.975211
C 2.995037 7.530663 8.986159
C 4.013548 6.940842 8.184501
C 4.512706 7.786348 8.169945
C 4.485099 8.382829 8.986345
C 3.984037 7.531173 8.970985
C 4.998232 6.918361 8.182977
C 5.506271 7.815839 8.159617
C 5.503177 8.353729 8.989806
C 4.979173 7.516609 8.989763
C 6.011111 6.910591 8.146885
C 6.519718 7.797530 8.167092
C 6.516855 8.346857 8.975767
C 5.988605 7.484106 8.971978
C 6.985762 6.910348 8.151335
C 7.498879 7.817878 8.151812
C 7.496976 8.366250 8.956439
C 6.987563 7.515870 8.997196
C 8.017129 6.926286 8.166097
C 8.472312 7.790650 8.167150
C 8.518631 8.366548 8.999548
C 7.998356 7.521145 8.992709
C 0.014371 0.027711 0.620707
C 0.487185 0.853845 0.626029
C 0.494936 1.447164 1.416149
C 0.009851 0.561808 1.401029
C 1.001086 0.001017 0.637276
C 1.502519 0.864626 0.598661
C 1.507016 1.443352 1.412662
C 0.990927 0.557553 1.424615
C 2.002486 0.000651 0.596246
C 2.505123 0.889964 0.628737
C 2.515539 1.435774 1.439981
C 2.025301 0.568510 1.434359
C 3.004863 0.002768 0.585034
C 3.498994 0.880690 0.615919
C 3.498821 1.453887 1.422454
C 3.019352 0.580390 1.411900
C 4.009568 0.000907 0.603963
C 4.485938 0.865087 0.627279
C 4.480417 1.457780 1.434699
C 4.001133 0.567594 1.419647
C 5.003229 0.002413 0.633281
C 5.485256 0.880384 0.627267
C 5.499431 1.455421 1.429471
C 4.992493 0.570572 1.411310
C 6.021623 0.014803 0.592954
C 6.494775 0.850497 0.590416
C 6.510874 1.461680 1.419686
C 6.028220 0.582170 1.446630
C 6.994110 0.023051 0.598151
C 7.482161 0.867199 0.622942
C 7.497707 1.433020 1.404520
C 6.980248 0.580723 1.428965
C 8.013221 0.012042 0.639583
C 8.493182 0.869532 0.592563
C 8.481984 1.427480 1.433230
C 8.001547 0.603603 1.446911
C 0.006205 1.718113 0.643740
C 0.486777 2.584477 0.612907
C 0.499127 3.170552 1.442508
C 0.004247 2.320053 1.448591
C 0.997458 1.721281 0.605189
C 1.485445 2.586808 0.624123
C 1.514609 3.202972 1.411575
C 0.985042 2.295945 1.426335
C 2.006935 1.704348 0.612900
C 2.478740 2.587787 0.594361
C 2.509861 3.169881 1.429401
C 1.996081 2.315573 1.403767
C 3.009358 1.724365 0.626012
C 3.515170 2.606359 0.598277
C 3.483679 3.160736 1.439025
C 2.971974 2.299176 1.451815
C 4.000803 1.721029 0.609904
C 4.490321 2.587010 0.606012
C 4.494800 3.153436 1.423831
C 4.023748 2.314014 1.455887
C 4.978024 1.738729 0.594725
C 5.483492 2.590245 0.630799
C 5.489666 3.167747 1.454214
C 5.000027 2.304532 1.424718
C 6.018698 1.733523 0.617162
C 6.482333 2.579876 0.608694
C 6.505590 3.175824 1.434004
C 5.988332 2.284727 1.429835
C 7.003938 1.697667 0.614579
C 7.477193 2.592422 0.612053
C 7.504079 3.168807 1.437325
C 7.005111 2.334936 1.428681
C 8.017971 1.729592 0.591033
C 8.512738 2.604841 0.595187
C 8.508439 3.152217 1.415864
C 8.026139 2.299337 1.432215
C 0.025888 3.453890 0.622758
C 0.493773 4.353655 0.630645
C 0.500241 4.885902 1.398826
C 0.000083 4.030314 1.443016
C 1.002402 3.438395 0.615185
C 1.494121 4.341496 0.634970
C 1.510092 4.892722 1.429937
C 0.971785 4.038550 1.430130
C 1.991692 3.441727 0.604894
C 2.505676 4.300932 0.611785
C 2.504259 4.916198 1.439248
C 2.018635 4.051465 1.412275
C 3.026742 3.448179 0.621550
C 3.474236 4.340865 0.609002
C 3.502127 4.919382 1.467529
C 2.999897 4.046349 1.395558
C 3.999473 3.454119 0.605542
C 4.476697 4.316571 0.620254
C 4.478948 4.895962 1.422311
C 4.005254 4.041604 1.419485
C 5.004013 3.477129 0.588654
C 5.513414 4.351486 0.633301
C 5.529332 4.913750 1.412137
C 5.011647 4.055752 1.436018
C 6.015442 3.466189 0.612955
C 6.488053 4.314760 0.603515
C 6.478162 4.900440 1.438368
C 5.981756 4.022530 1.426363
C 7.005188 3.475759 0.613568
C 7.518621 4.323243 0.606502
C 7.486549 4.895270 1.440089
C 6.991313 4.034381 1.430767
C 8.028264 3.451790 0.630365
C 8.490242 4.327965 0.584766
C 8.497697 4.930902 1.448566
C 8.009155 4.031604 1.428809
C 0.001957 5.215766 0.632274
C 0.499057 6.059024 0.619744
C 0.492672 6.662113 1.426222
C 0.011283 5.762860 1.405203
C 0.981368 5.227323 0.619349
C 1.516431 6.062058 0.593637
C 1.501124 6.628677 1.414198
C 0.998589 5.769375 1.418577
C 1.989731 5.181045 0.629025
C 2.496853 6.067999 0.608682
C 2.505136 6.658384 1.408391
C 1.981992 5.790875 1.428886
C 3.004456 5.201549 0.606434
C 3.490175 6.065200 0.601547
C 3.492664 6.647956 1.435473
C 3.002927 5.779100 1.432732
C 3.974816 5.189603 0.619165
C 4.475700 6.050119 0.626808
C 4.492583 6.637289 1.396789
C 3.988757 5.766651 1.410104
C 4.994140 5.173434 0.604553
C 5.500154 6.043353 0.635856
C 5.510083 6.647814 1.459940
C 5.007622 5.793408 1.448214
C 5.988937 5.213970 0.586386
C 6.510830 6.068618 0.605722
C 6.495064 6.659237 1.402414
C 6.016653 5.760754 1.436557
C 6.974893 5.203332 0.627927
C 7.483266 6.051117 0.622625
C 7.503760 6.632968 1.439498
C 7.007753 5.775549 1.429484
C 8.001928 5.183305 0.628110
C 8.495927 6.042127 0.611349
C 8.490263 6.642983 1.453830
C 8.007226 5.785140 1.445714
C 0.019866 6.931116 0.605851
C 0.480294 7.795388 0.633168
C 0.519823 8.375186 1.435452
C 0.013941 7.486215 1.418986
C 1.003320 6.919398 0.630194
C 1.514058 7.804471 0.628383
C 1.484912 8.387772 1.420212
C 1.010557 7.501968 1.437068
C 1.992239 6.921496 0.636152
C 2.500488 7.791293 0.614503
C 2.497393 8.379585 1.450495
C 2.016712 7.505335 1.445569
C 2.990315 6.928669 0.606673
C 3.481762 7.785593 0.585472
C 3.504438 8.379490 1.444214
C 3.008373 7.500327 1.447272
C 4.001390 6.903977 0.639586
C 4.523855 7.799487 0.611447
C 4.487321 8.364312 1.431229
C 4.015595 7.480808 1.435908
C 4.993394 6.964207 0.600035
C 5.479100 7.801883 0.605872
C 5.482157 8.375296 1.422205
C 5.029016 7.515450 1.417603
C 5.999503 6.921187 0.581613
C 6.515097 7.811491 0.616958
C 6.475404 8.376962 1.434485
C 5.992409 7.524569 1.432367
C 6.987886 6.927029 0.613787
C 7.514226 7.802868 0.585695
C 7.515472 8.391267 1.435989
C 6.982462 7.527260 1.411903
C 8.010350 6.929182 0.619486
C 8.495954 7.794595 0.607369
C 8.497920 8.380050 1.402698
C 7.987119 7.494633 1.441958
C 0.048804 0.023136 2.227391
C 0.498100 0.868932 2.256387
C 0.497041 1.460152 3.086350
C 0.017482 0.578623 3.084867
C 0.974475 0.022849 2.253338
C 1.483596 0.868428 2.239313
C 1.500563 1.437611 3.067015
C 0.993817 0.574719 3.062036
C 2.000932 0.010350 2.218477
C 2.508657 0.863274 2.241991
C 2.513744 1.434339 3.049436
C 1.985861 0.560672 3.064932
C 2.975393 0.001720 2.249895
C 3.516885 0.892355 2.242134
C 3.493054 1.447730 3.054424
C 2.973561 0.571229 3.077593
C 4.035878 0.010515 2.241061
C 4.503639 0.882105 2.251821
C 4.506340 1.442909 3.041622
C 4.016596 0.584504 3.065837
C 4.978808 0.001821 2.253859
C 5.475440 0.869185 2.264176
C 5.496056 1.425547 3.078502
C 5.008810 0.567791 3.037310
C 5.995629 0.022288 2.257157
C 6.474434 0.873555 2.238921
C 6.498097 1.425474 3.058836
C 6.012633 0.584136 3.075369
C 6.987993 0.001080 2.223060
C 7.504657 0.854173 2.267046
C 7.501447 1.454380 3.056831
C 6.974522 0.582899 3.057229
C 7.993552 0.009153 2.214853
C 8.519196 0.845223 2.246504
C 8.503747 1.447732 3.072112
C 7.983035 0.598476 3.062135
C 0.004118 1.748243 2.226483
C 0.518461 2.615907 2.260523
C 0.529076 3.163437 3.047976
C 0.011830 2.297266 3.063153
C 0.984798 1.719715 2.225634
C 1.529125 2.601890 2.233740
C 1.474591 3.195120 3.046454
C 1.005124 2.298485 3.069078
C 1.988726 1.715637 2.256506
C 2.509368 2.574623 2.262399
C 2.520936 3.192929 3.061978
C 1.995755 2.308070 3.045931
C 2.983561 1.721100 2.242165
C 3.501739 2.608625 2.221889
C 3.514137 3.151279 3.069024
C 3.021869 2.325323 3.068418
C 3.982695 1.730863 2.236746
C 4.504584 2.609452 2.247766
C 4.509568 3.182975 3.066151
C 3.985660 2.292001 3.033988
C 5.004138 1.728183 2.260576
C 5.504671 2.618068 2.245307
C 5.529166 3.182329 3.069684
C 5.000194 2.275511 3.054920
C 6.019613 1.726329 2.243480
C 6.496314 2.592461 2.227313
C 6.530484 3.179789 3.070818
C 5.995958 2.332621 3.041109
C 7.007650 1.728421 2.275251
C 7.506959 2.611336 2.239801
C 7.511159 3.201627 3.067916
C 6.976867 2.307895 3.046950
C 7.993254 1.725741 2.250655
C 8.499845 2.612188 2.220239
C 8.513376 3.181321 3.059549
C 7.972440 2.317470 3.074906
C 0.024362 3.495706 2.233593
C 0.515365 4.342403 2.235454
C 0.504815 4.882780 3.067638
C 0.021391 4.043059 3.081779
C 1.016273 3.470398 2.237767
C 1.487587 4.349665 2.227441
C 1.509983 4.884534 3.069099
C 0.986673 4.022381 3.055023
C 1.995003 3.468232 2.246130
C 2.498271 4.319802 2.258801
C 2.508103 4.926695 3.071174
C 2.010558 4.030844 3.058904
C 3.001422 3.471727 2.270938
C 3.477026 4.325030 2.236387
C 3.491796 4.899645 3.030477
C 3.013146 4.008957 3.070481
C 4.028367 3.444890 2.249260
C 4.521583 4.327401 2.239886
C 4.478088 4.884995 3.054177
C 4.008728 4.054481 3.066691
C 5.015666 3.478780 2.256984
C 5.516499 4.348245 2.245542
C 5.514450 4.920745 3.081789
C 4.979373 4.045445 3.054930
C 5.988214 3.465017 2.271905
C 6.499247 4.339351 2.236031
C 6.507939 4.873186 3.068996
C 6.022949 4.035064 3.045670
C 6.984590 3.450960 2.230034
C 7.480120 4.329426 2.231300
C 7.486792 4.909032 3.052164
C 6.982856 4.057066 3.076255
C 7.990053 3.488676 2.242210
C 8.482373 4.325059 2.250687
C 8.527967 4.911732 3.067759
C 7.998438 4.067536 3.084030
C 0.015774 5.224376 2.245758
C 0.505395 6.050978 2.248743
C 0.484808 6.652360 3.078085
C 0.029281 5.772098 3.095230
C 0.992092 5.210562 2.255534
C 1.475559 6.078609 2.260490
C 1.492280 6.644983 3.093839
C 1.003698 5.778889 3.092373
C 2.013724 5.202723 2.239223
C 2.496333 6.088980 2.252822
C 2.492765 6.630140 3.082646
C 1.980872 5.748728 3.056609
C 2.993722 5.205049 2.236768
C 3.525834 6.046377 2.247948
C 3.492015 6.641589 3.087380
C 3.008375 5.754043 3.081065
C 3.985223 5.171195 2.263523
C 4.492145 6.048703 2.264793
C 4.490393 6.647833 3.074134
C 4.004936 5.782594 3.044555
C 4.970423 5.184814 2.245109
C 5.489479 6.040010 2.259727
C 5.515251 6.626153 3.060835
C 4.988375 5.749099 3.049749
C 5.999997 5.196103 2.275799
C 6.472259 6.062978 2.246677
C 6.513744 6.628013 3.033293
C 5.993950 5.776725 3.036484
C 6.990859 5.223897 2.253017
C 7.497953 6.077583 2.252215
C 7.506364 6.632277 3.046452
C 7.025646 5.775485 3.057800
C 7.992357 5.189001 2.251902
C 8.501437 6.070391 2.229803
C 8.525157 6.628539 3.046414
C 7.990301 5.753690 3.070468
C 0.035346 6.923494 2.262738
C 0.507503 7.808115 2.252249
C 0.513046 8.353028 3.077519
C 0.001861 7.480360 3.071814
C 1.012491 6.916155 2.263614
C 1.483371 7.787928 2.249173
C 1.504324 8.364054 3.063711
C 0.994358 7.476975 3.071054
C 1.994764 6.904739 2.243401
C 2.486105 7.780985 2.258892
C 2.483112 8.357121 3.041015
C 2.006956 7.499975 3.085832
C 2.987352 6.933403 2.237917
C 3.496603 7.798329 2.242860
C 3.501741 8.403843 3.050081
C 2.997984 7.510927 3.081416
C 3.998178 6.914482 2.280523
C 4.499380 7.800380 2.236456
C 4.483794 8.374419 3.079690
C 3.995283 7.499342 3.053874
C 4.983793 6.931932 2.237993
C 5.474349 7.779327 2.259521
C 5.494625 8.388361 3.081679
C 4.985039 7.477763 3.052514
C 5.970440 6.921303 2.241179
C 6.480491 7.801575 2.255894
C 6.491211 8.369498 3.044712
C 6.004154 7.492277 3.094285
C 6.978949 6.924345 2.239770
C 7.487671 7.774695 2.266179
C 7.491448 8.372845 3.089645
C 7.023945 7.517735 3.069913
C 8.027361 6.912122 2.244425
C 8.485592 7.789214 2.265924
C 8.505936 8.387573 3.038743
C 8.022829 7.524764 3.068443
C 0.008437 0.007711 3.850315
C 0.510718 0.843683 3.859905
C 0.487947 1.441424 4.698579
C 0.004094 0.590319 4.704355
C 1.006288 0.019086 3.840984
C 1.478550 0.859600 3.865075
C 1.505533 1.473256 4.685484
C 0.984407 0.584285 4.717413
C 1.989436 0.002454 3.894845
C 2.503426 0.854586 3.877654
C 2.489653 1.441726 4.697947
C 2.025372 0.572946 4.702198
C 3.030947 0.002808 3.892384
C 3.480021 0.885187 3.895622
C 3.489150 1.434466 4.685765
C 2.985284 0.584288 4.670361
C 4.003204 0.029458 3.860444
C 4.523128 0.866295 3.856992
C 4.516249 1.427213 4.702471
C 4.000934 0.575159 4.682594
C 5.007662 0.013041 3.875716
C 5.507650 0.848437 3.869642
C 5.517234 1.440474 4.680290
C 5.024819 0.588263 4.691075
C 6.003121 0.013700 3.864475
C 6.481328 0.869443 3.888022
C 6.487217 1.424818 4.669073
C 5.987658 0.562338 4.698927
C 7.002007 0.003326 3.881162
C 7.492734 0.863901 3.861329
C 7.505548 1.433777 4.712917
C 6.988287 0.591706 4.688612
C 7.994810 0.009397 3.879786
C 8.512554 0.863718 3.876956
C 8.504883 1.427556 4.673253
C 7.972119 0.586528 4.717499
C 0.004619 1.729666 3.848530
C 0.490211 2.573182 3.881605
C 0.509723 3.179822 4.712657
C 0.010206 2.305395 4.716096
C 0.977951 1.736851 3.853787
C 1.526998 2.607137 3.883488
C 1.491212 3.194963 4.719012
C 0.994549 2.294605 4.695715
C 2.020049 1.727306 3.891947
C 2.498724 2.605976 3.895653
C 2.510280 3.175698 4.710478
C 1.991434 2.297434 4.681843
C 3.012376 1.746566 3.905719
C 3.485987 2.612351 3.869971
C 3.489969 3.173971 4.688040
C 2.977306 2.313036 4.710840
C 3.977462 1.720550 3.858896
C 4.517770 2.579750 3.875234
C 4.511994 3.205073 4.698464
C 4.002987 2.307470 4.703635
C 4.992495 1.720448 3.881116
C 5.516672 2.588717 3.879341
C 5.506689 3.175241 4.681628
C 4.990372 2.322033 4.687755
C 6.003872 1.760374 3.870117
C 6.515018 2.579703 3.887431
C 6.505867 3.180474 4.697147
C 5.996753 2.312758 4.714025
C 6.982633 1.748027 3.901558
C 7.480156 2.601282 3.874007
C 7.482869 3.167058 4.669191
C 7.004735 2.292312 4.698641
C 7.998842 1.746085 3.866538
C 8.507388 2.573618 3.878356
C 8.495420 3.172671 4.697032
C 8.011102 2.304878 4.704283
C 0.000849 3.478300 3.905966
C 0.523695 4.323183 3.894638
C 0.480232 4.881829 4.677331
C 0.009330 4.038270 4.702205
C 0.991174 3.473215 3.860620
C 1.483592 4.341619 3.862579
C 1.503365 4.886812 4.688348
C 1.001392 4.023690 4.670195
C 2.001731 3.474529 3.878929
C 2.524088 4.339460 3.877308
C 2.485253 4.895131 4.668963
C 1.979627 4.033260 4.685515
C 3.013447 3.485823 3.882940
C 3.485110 4.349526 3.861769
C 3.524486 4.930367 4.707977
C 3.008596 4.015219 4.703653
C 4.001203 3.464597 3.906655
C 4.517218 4.307928 3.881647
C 4.497816 4.926906 4.701084
C 4.010784 4.045161 4.716114
C 4.994615 3.452604 3.876294
C 5.495969 4.318651 3.879355
C 5.509883 4.892498 4.688516
C 4.997640 4.019088 4.700928
C 5.971422 3.463683 3.899718
C 6.482356 4.317622 3.866430
C 6.513869 4.909791 4.676346
C 6.005665 4.057726 4.691276
C 7.017903 3.469614 3.889412
C 7.486750 4.346142 3.876474
C 7.506456 4.914870 4.662343
C 6.989478 4.026813 4.712237
C 7.973893 3.469193 3.875728
C 8.482451 4.356633 3.883213
C 8.487194 4.890145 4.694390
C 7.974035 4.043571 4.689615
C 0.004550 5.199536 3.875143
C 0.497905 6.048741 3.859787
C 0.504467 6.657243 4.697919
C 0.033846 5.758635 4.694114
C 1.002728 5.212491 3.889365
C 1.480412 6.074598 3.893281
C 1.516698 6.667060 4.682683
C 0.994404 5.770050 4.699486
C 2.001319 5.203792 3.883639
C 2.484532 6.072644 3.889254
C 2.504470 6.664138 4.694167
C 1.992998 5.794409 4.686899
C 2.975674 5.201711 3.866394
C 3.491531 6.079551 3.872722
C 3.490291 6.626265 4.690088
C 3.021738 5.797153 4.700019
C 3.985455 5.196210 3.858255
C 4.501207 6.083501 3.874246
C 4.481084 6.647277 4.700015
C 3.990068 5.772317 4.681415
C 5.007448 5.178255 3.897483
C 5.511680 6.071338 3.885367
C 5.499808 6.634212 4.667981
C 4.979358 5.789413 4.706849
C 5.988315 5.217664 3.882406
C 6.502925 6.042212 3.879806
C 6.487145 6.654793 4.681546
C 6.002780 5.774376 4.729143
C 6.998458 5.217759 3.872295
C 7.487100 6.057156 3.894758
C 7.480068 6.656236 4.700568
C 7.005343 5.791555 4.687347
C 7.988834 5.201692 3.862025
C 8.506046 6.052300 3.900480
C 8.478702 6.638789 4.693100
C 7.971486 5.749471 4.683234
C 0.009451 6.936368 3.895076
C 0.505339 7.768643 3.870619
C 0.493228 8.372208 4.706191
C 0.000101 7.515732 4.703536
C 1.001520 6.924974 3.870593
C 1.497120 7.802107 3.860688
C 1.470436 8.377545 4.688344
C 0.979583 7.527848 4.704991
C 1.981013 6.924441 3.887926
C 2.498094 7.772013 3.861083
C 2.499093 8.393037 4.708814
C 2.004193 7.498371 4.700190
C 2.994041 6.921968 3.885629
C 3.495969 7.779063 3.850475
C 3.496188 8.349188 4.675091
C 2.968941 7.496867 4.689153
C 3.991138 6.908313 3.876342
C 4.474036 7.798747 3.878479
C 4.509637 8.365469 4.675549
C 4.009281 7.502575 4.694702
C 4.998795 6.916997 3.880997
C 5.475495 7.805139 3.872167
C 5.498080 8.358721 4.690973
C 4.973766 7.493608 4.701226
C 5.994783 6.948292 3.863075
C 6.477945 7.792861 3.887344
C 6.486792 8.357807 4.673026
C 5.987765 7.533868 4.684250
C 6.992051 6.925800 3.865299
C 7.491758 7.821588 3.867228
C 7.499736 8.390137 4.681267
C 7.010338 7.520411 4.717154
C 8.018050 6.937281 3.864117
C 8.524525 7.784139 3.877629
C 8.491805 8.353022 4.669965
C 7.996686 7.508476 4.713989
C 0.008546 0.033673 5.530220
C 0.481873 0.867303 5.497823
C 0.494144 1.440750 6.302087
C 0.008918 0.598924 6.316013
C 1.005127 0.022498 5.522958
C 1.505736 0.855000 5.515173
C 1.492283 1.443282 6.307881
C 1.005179 0.579101 6.321926
C 1.994774 0.026128 5.531655
C 2.493868 0.866465 5.527475
C 2.497579 1.436369 6.346838
C 1.988483 0.579124 6.298507
C 3.018197 0.019791 5.485066
C 3.502458 0.862626 5.533123
C 3.526968 1.441856 6.313961
C 2.991393 0.577075 6.313062
C 4.002807 0.002786 5.529055
C 4.509217 0.859620 5.510959
C 4.491680 1.471387 6.325905
C 3.972831 0.591086 6.327525
C 5.027441 0.003578 5.531912
C 5.476044 0.852999 5.518635
C 5.498865 1.457889 6.322443
C 5.003633 0.597798 6.324359
C 6.021898 0.005431 5.509864
C 6.505713 0.845008 5.517774
C 6.489794 1.429170 6.321581
C 6.004965 0.577353 6.306390
C 7.004610 0.016833 5.511015
C 7.487943 0.859370 5.530946
C 7.498001 1.460500 6.333606
C 7.006470 0.571172 6.294332
C 8.013226 0.008362 5.492316
C 8.504594 0.866462 5.517754
C 8.537781 1.439604 6.333568
C 8.020200 0.556201 6.315397
C 0.004348 1.730761 5.486766
C 0.485259 2.591924 5.528709
C 0.499803 3.202701 6.344265
C 0.007406 2.283118 6.307429
C 0.985766 1.721128 5.497366
C 1.481588 2.613452 5.498611
C 1.491215 3.180596 6.349888
C 1.029343 2.318237 6.344637
C 1.993343 1.738486 5.533972
C 2.499025 2.592784 5.520081
C 2.525846 3.201300 6.316637
C 1.975795 2.315217 6.346239
C 2.980038 1.728841 5.509246
C 3.463693 2.594645 5.507336
C 3.494807 3.205784 6.336881
C 3.013954 2.284730 6.319278
C 4.007634 1.712245 5.491882
C 4.522332 2.608669 5.520113
C 4.500148 3.175886 6.356801
C 3.991464 2.305456 6.333414
C 5.000104 1.712969 5.506575
C 5.465267 2.603525 5.526084
C 5.483338 3.189099 6.334637
C 4.980649 2.310348 6.341982
C 5.995164 1.755183 5.490228
C 6.481675 2.618558 5.497604
C 6.503489 3.143355 6.326871
C 6.015317 2.315417 6.346912
C 6.987512 1.739671 5.515729
C 7.492089 2.598038 5.503905
C 7.490161 3.174490 6.300457
C 6.985489 2.329347 6.310872
C 8.002425 1.744789 5.512965
C 8.516535 2.594012 5.523563
C 8.506325 3.190700 6.329117
C 8.001451 2.289930 6.337304
C 0.028503 3.465725 5.500226
C 0.477987 4.326410 5.507857
C 0.490028 4.898180 6.300924
C 0.000371 4.057934 6.337689
C 1.019169 3.446050 5.498003
C 1.497006 4.338202 5.498685
C 1.492959 4.906818 6.313899
C 0.991685 4.033334 6.349071
C 1.971091 3.479750 5.501505
C 2.514318 4.323803 5.513663
C 2.506647 4.917456 6.338906
C 1.986902 4.055468 6.328769
C 3.019032 3.467820 5.520649
C 3.498168 4.335619 5.540028
C 3.487574 4.928488 6.331305
C 2.988430 4.073260 6.315308
C 4.006746 3.478189 5.495508
C 4.491411 4.309165 5.491822
C 4.488557 4.906984 6.326131
C 3.992146 4.041010 6.313150
C 5.009110 3.442253 5.516146
C 5.495768 4.311385 5.534930
C 5.508485 4.909501 6.325649
C 4.988853 4.048517 6.331508
C 6.003398 3.485004 5.497540
C 6.501204 4.310330 5.518700
C 6.463666 4.907507 6.347853
C 6.005341 4.042527 6.310974
C 7.008485 3.471668 5.490683
C 7.519562 4.356850 5.510526
C 7.507851 4.922662 6.329128
C 7.007795 4.017390 6.329517
C 7.981578 3.459708 5.537653
C 8.479401 4.320786 5.523976
C 8.528218 4.899292 6.322422
C 7.999794 4.022856 6.312514
C 0.005339 5.192802 5.525281
C 0.495109 6.071283 5.534713
C 0.491961 6.618699 6.354995
C 0.008570 5.781473 6.324089
C 0.984816 5.197727 5.539871
C 1.498183 6.082907 5.516299
C 1.524154 6.637020 6.317582
C 0.974118 5.754684 6.331923
C 2.013401 5.171656 5.508998
C 2.487345 6.061314 5.535791
C 2.499769 6.654080 6.331537
C 2.014283 5.775890 6.330887
C 2.989597 5.199234 5.509084
C 3.519168 6.066542 5.530630
C 3.500202 6.639459 6.302907
C 3.010072 5.791768 6.328424
C 4.012149 5.179450 5.505785
C 4.498615 6.056029 5.540324
C 4.509292 6.662269 6.354645
C 4.019886 5.757255 6.333607
C 5.010564 5.222998 5.513369
C 5.516445 6.048027 5.516446
C 5.509081 6.610046 6.331007
C 4.988055 5.745606 6.342216
C 5.991162 5.204931 5.493917
C 6.505788 6.048137 5.503425
C 6.509726 6.621251 6.333196
C 5.992876 5.762196 6.313832
C 7.019283 5.196854 5.495296
C 7.508485 6.066318 5.509256
C 7.483232 6.656105 6.315452
C 6.991322 5.748577 6.342717
C 7.984345 5.208786 5.510947
C 8.491966 6.082051 5.531555
C 8.493979 6.652813 6.339985
C 7.992344 5.765892 6.321050
C 0.021430 6.912256 5.527934
C 0.490450 7.774648 5.487667
C 0.493424 8.383072 6.298409
C 0.001144 7.529015 6.328540
C 1.014571 6.930518 5.488953
C 1.505613 7.774055 5.507076
C 1.482850 8.361477 6.307055
C 0.985937 7.507723 6.355086
C 2.002157 6.905913 5.514030
C 2.511399 7.797709 5.505358
C 2.484773 8.386605 6.319926
C 2.006698 7.519861 6.305392
C 3.006939 6.900750 5.516000
C 3.514688 7.800573 5.502343
C 3.503055 8.374210 6.302274
C 2.993371 7.507128 6.297661
C 4.001790 6.947009 5.490209
C 4.496020 7.810224 5.538351
C 4.492274 8.372979 6.299917
C 3.988983 7.506846 6.349040
C 4.971591 6.933238 5.520074
C 5.496049 7.809062 5.512022
C 5.528066 8.348204 6.328717
C 5.011915 7.480551 6.329336
C 5.983211 6.923777 5.519859
C 6.498786 7.812999 5.507416
C 6.503091 8.369435 6.296071
C 6.021986 7.518403 6.313957
C 7.013025 6.933917 5.492356
C 7.509095 7.824420 5.516089
C 7.499755 8.359098 6.310792
C 7.007979 7.495991 6.316063
C 8.001305 6.960044 5.499634
C 8.482995 7.798882 5.505107
C 8.483240 8.385321 6.305258
C 7.988989 7.478678 6.327231
C 0.015050 0.008526 7.162904
C 0.496434 0.888405 7.172284
C 0.492097 1.456433 7.945047
C 0.024995 0.577228 7.971253
C 1.002185 0.021376 7.151274
C 1.506738 0.888356 7.160110
C 1.491800 1.464122 7.984200
C 0.995552 0.570750 7.954640
C 2.016570 0.025124 7.114238
C 2.514679 0.837492 7.139459
C 2.463514 1.444407 7.962254
C 1.977811 0.589035 7.974042
C 3.013719 0.020420 7.136180
C 3.501045 0.860064 7.138272
C 3.499509 1.460965 7.966189
C 3.009393 0.578469 7.992939
C 4.012113 0.030001 7.168907
C 4.493184 0.851329 7.158280
C 4.479906 1.443520 7.994697
C 3.999841 0.576413 7.953686
C 4.975417 0.002200 7.152497
C 5.495318 0.888351 7.138527
C 5.493325 1.448383 7.945307
C 5.009860 0.567895 7.964989
C 5.992620 0.018203 7.146151
C 6.494549 0.844022 7.151175
C 6.519661 1.460488 7.959553
C 6.008991 0.596194 7.963360
C 7.002453 0.001228 7.134153
C 7.523566 0.870530 7.153337
C 7.507593 1.441748 7.938299
C 7.011461 0.592622 7.955535
C 8.016711 0.008983 7.166693
C 8.489189 0.853378 7.155367
C 8.477372 1.447339 7.969815
C 8.018019 0.558543 7.962915
C 0.012018 1.761367 7.146199
C 0.489886 2.580774 7.135083
C 0.484538 3.187220 7.939663
C 0.004959 2.298303 7.966778
C 1.005872 1.720430 7.132213
C 1.500663 2.615857 7.162618
C 1.497246 3.149935 7.941261
C 0.997589 2.298921 7.942186
C 1.986130 1.739457 7.157012
C 2.483732 2.613217 7.116261
C 2.491183 3.164401 7.935570
C 1.988536 2.307520 7.940125
C 2.997320 1.709884 7.150696
C 3.484650 2.607234 7.137871
C 3.500585 3.192646 7.949608
C 3.005367 2.311397 7.950142
C 3.979879 1.720296 7.137639
C 4.519636 2.594009 7.165032
C 4.486533 3.149594 7.950639
C 4.001309 2.325852 7.953380
C 4.988494 1.748448 7.133032
C 5.528431 2.597294 7.164544
C 5.496065 3.196620 7.949449
C 5.003412 2.297564 7.991833
C 6.020825 1.726698 7.156471
C 6.488019 2.596802 7.147525
C 6.504114 3.158149 7.964127
C 6.003864 2.289780 7.968469
C 7.009694 1.713040 7.154031
C 7.503529 2.577672 7.138385
C 7.487645 3.169449 7.942813
C 6.989882 2.297799 7.980034
C 8.014588 1.721925 7.156919
C 8.501115 2.619818 7.141038
C 8.490518 3.171877 7.961290
C 7.998807 2.296965 7.963510
C 0.013762 3.472120 7.177183
C 0.492461 4.308999 7.128797
C 0.486198 4.911084 7.945802
C 0.027351 4.062045 7.973525
C 0.992665 3.462806 7.129719
C 1.529046 4.341155 7.141841
C 1.511723 4.927704 7.972075
C 0.988243 4.045639 7.945821
C 1.991991 3.455393 7.124863
C 2.509800 4.313705 7.137027
C 2.514884 4.904691 7.943439
C 1.998903 4.033647 7.938390
C 2.982456 3.452229 7.143575
C 3.489597 4.330077 7.138225
C 3.504614 4.911454 7.933471
C 3.007940 4.048173 7.939490
C 4.018855 3.456530 7.164305
C 4.513052 4.308273 7.144941
C 4.518886 4.915518 7.956153
C 3.990213 4.013950 7.972015
C 5.019613 3.473283 7.131442
C 5.499893 4.312656 7.170664
C 5.506291 4.934523 7.967472
C 5.007285 4.033303 7.975779
C 6.022608 3.450697 7.142830
C 6.510306 4.355697 7.157084
C 6.519824 4.900344 7.956478
C 6.023002 4.031784 7.970527
C 7.002553 3.438359 7.138075
C 7.508799 4.338312 7.172422
C 7.515217 4.911519 7.963904
C 6.979694 4.048921 7.955836
C 7.984320 3.469680 7.144631
C 8.502137 4.350994 7.152799
C 8.490652 4.893397 7.962649
C 7.979873 4.055022 7.974403
C 0.007632 5.172609 7.119468
C 0.491840 6.087567 7.161249
C 0.479803 6.657155 7.969570
C 0.011287 5.759674 7.977717
C 0.997719 5.194601 7.136881
C 1.518690 6.061146 7.131836
C 1.489346 6.607773 7.972862
C 0.990073 5.774267 7.961089
C 2.008639 5.191761 7.159232
C 2.476780 6.045383 7.143451
C 2.515709 6.634202 7.979614
C 1.986483 5.776488 7.929183
C 2.978248 5.189249 7.160902
C 3.471322 6.082624 7.154346
C 3.504867 6.660490 7.954736
C 2.998736 5.785020 7.944242
C 4.013352 5.203057 7.163164
C 4.490905 6.043961 7.129750
C 4.498642 6.648027 7.994954
C 3.976318 5.782053 7.976372
C 4.990575 5.174163 7.119440
C 5.521384 6.062581 7.121408
C 5.499754 6.619987 7.963204
C 5.008531 5.774653 7.986447
C 6.015367 5.202491 7.164205
C 6.486577 6.054778 7.128896
C 6.497181 6.622430 7.985097
C 6.007243 5.770424 7.969086
C 7.001751 5.191325 7.166784
C 7.499813 6.056909 7.154219
C 7.484827 6.618560 7.955889
C 7.007483 5.801318 7.941088
C 7.983826 5.196195 7.144733
C 8.488141 6.066508 7.123201
C 8.510726 6.625530 7.961948
C 8.017401 5.782145 7.980785
C 0.002895 6.927578 7.144039
C 0.504168 7.793421 7.133334
C 0.498785 8.376827 7.944023
C 0.014019 7.499506 7.946276
C 0.989222 6.924140 7.144283
C 1.526237 7.793002 7.132004
C 1.483556 8.395011 7.966967
C 0.992196 7.519750 7.985825
C 2.004369 6.942579 7.130724
C 2.496623 7.801654 7.109439
C 2.480325 8.379389 7.968674
C 1.984604 7.528725 7.946664
C 2.992119 6.908090 7.150215
C 3.528482 7.805404 7.139013
C 3.482322 8.392247 7.949643
C 2.987269 7.512878 7.969454
C 3.990301 6.942279 7.106861
C 4.495540 7.785992 7.151751
C 4.509636 8.355595 7.971222
C 4.004316 7.494412 7.975354
C 4.999170 6.932624 7.164341
C 5.501943 7.806490 7.135011
C 5.501474 8.387106 7.946534
C 5.030703 7.498836 7.978089
C 5.991705 6.928394 7.120545
C 6.492954 7.816879 7.142741
C 6.512926 8.354986 7.945991
C 5.997739 7.504582 7.973837
C 6.991041 6.924871 7.147664
C 7.503763 7.775998 7.157815
C 7.513713 8.375640 7.965277
C 7.012937 7.523028 7.935605
C 8.004887 6.955062 7.157497
C 8.483588 7.813330 7.131607
C 8.508882 8.373734 7.982541
C 7.978199 7.494293 7.955023
C 0.015377 0.000469 8.782126
C 0.483923 0.850575 8.787596
C 0.498554 1.453275 9.570953
C 0.029235 0.572142 9.559699
C 0.984636 0.012108 8.752484
C 1.496887 0.892590 8.773560
C 1.485725 1.424581 9.575016
C 0.994886 0.585665 9.580591
C 1.977282 0.013171 8.782162
C 2.489036 0.865911 8.758942
C 2.522986 1.424379 9.579606
C 1.980868 0.581727 9.591606
C 3.016571 0.000126 8.773121
C 3.501013 0.855709 8.783793
C 3.496688 1.426416 9.576160
C 3.013646 0.573840 9.590894
C 4.027417 0.016363 8.765699
C 4.511246 0.860829 8.776945
C 4.508703 1.453493 9.578043
C 3.996593 0.563757 9.582558
C 4.978492 0.013773 8.754936
C 5.505661 0.890086 8.784760
C 5.505534 1.439655 9.570769
C 4.999598 0.600227 9.561817
C 5.999232 0.001273 8.787876
C 6.483745 0.862619 8.788641
C 6.519733 1.464535 9.587349
C 5.971708 0.588858 9.573447
C 7.006695 0.000705 8.769632
C 7.503318 0.864742 8.770513
C 7.498374 1.441496 9.593210
C 7.000601 0.590586 9.571674
C 7.993201 0.003082 8.762920
C 8.511357 0.883211 8.801240
C 8.498226 1.421672 9.591063
C 7.974908 0.550665 9.579839
C 0.013652 1.734622 8.741510
C 0.490786 2.580292 8.762011
C 0.487924 3.186413 9.581935
C 0.043084 2.322317 9.586028
C 0.985482 1.729495 8.748257
C 1.520274 2.607462 8.789782
C 1.514896 3.149769 9.571552
C 1.002733 2.306050 9.587189
C 1.990496 1.714315 8.784185
C 2.505744 2.573489 8.766803
C 2.520223 3.170496 9.573027
C 2.027958 2.318733 9.591144
C 3.010195 1.720309 8.772593
C 3.519057 2.625468 8.795035
C 3.500436 3.188011 9.577452
C 3.010082 2.328026 9.589334
C 4.011495 1.740412 8.800123
C 4.509995 2.600607 8.771329
C 4.478524 3.166847 9.591850
C 4.016072 2.318963 9.571161
C 5.001003 1.705957 8.789209
C 5.502334 2.599865 8.751488
C 5.528487 3.176930 9.574378
C 5.015587 2.322576 9.588599
C 6.017525 1.729883 8.770905
C 6.501277 2.583481 8.777547
C 6.505109 3.152869 9.580684
C 5.981474 2.296907 9.582168
C 6.986214 1.727266 8.750640
C 7.512454 2.587711 8.749411
C 7.498651 3.155804 9.592951
C 6.960536 2.312255 9.580419
C 7.993807 1.740798 8.769631
C 8.480192 2.580855 8.784651
C 8.496300 3.172793 9.582104
C 8.004567 2.330608 9.565968
C 0.004021 3.459575 8.801790
C 0.493442 4.338226 8.756078
C 0.478279 4.913344 9.587751
C 0.031553 4.054316 9.582674
C 1.008104 3.470581 8.786817
C 1.512158 4.343794 8.803593
C 1.481525 4.915395 9.590398
C 1.014833 4.039077 9.584739
C 1.993998 3.484939 8.759796
C 2.496372 4.325162 8.778486
C 2.500224 4.902842 9.575157
C 1.977271 4.024941 9.582423
C 3.019012 3.467857 8.789359
C 3.474554 4.334322 8.802846
C 3.511755 4.928705 9.558339
C 3.024775 4.034292 9.585215
C 4.012071 3.467707 8.783401
C 4.521537 4.328884 8.807944
C 4.498945 4.945800 9.585407
C 3.986145 4.037816 9.586609
C 5.012088 3.451539 8.762559
C 5.508625 4.362905 8.771814
C 5.474483 4.925318 9.586252
C 4.994012 4.041575 9.582610
C 5.977075 3.479475 8.770365
C 6.503870 4.350217 8.767196
C 6.516910 4.882997 9.586109
C 6.025723 4.042714 9.563589
C 6.971135 3.465735 8.786469
C 7.502210 4.325745 8.767226
C 7.518537 4.905524 9.576947
C 7.005985 4.058176 9.584523
C 8.017007 3.466171 8.787827
C 8.499013 4.300020 8.771991
C 8.494665 4.925661 9.577787
C 7.974943 4.048712 9.586743
C 0.047012 5.192674 8.761053
C 0.473625 6.076672 8.791974
C 0.486704 6.636254 9.586368
C 0.012312 5.741616 9.584122
C 1.018025 5.182204 8.771383
C 1.492191 6.048235 8.784273
C 1.522649 6.646881 9.570774
C 1.003611 5.807513 9.586866
C 2.000152 5.218527 8.759244
C 2.506347 6.055895 8.783363
C 2.499023 6.618941 9.570761
C 1.970693 5.789931 9.571505
C 2.997462 5.218068 8.762664
C 3.477185 6.080934 8.796622
C 3.486894 6.648060 9.571034
C 3.003783 5.749445 9.593406
C 4.010803 5.183224 8.771488
C 4.510323 6.062361 8.748950
C 4.484455 6.662634 9.590052
C 4.001060 5.752526 9.588814
C 5.000461 5.170541 8.787706
C 5.515500 6.064583 8.796799
C 5.490601 6.647953 9.579130
C 5.009122 5.760369 9.590863
C 6.001336 5.174767 8.781435
C 6.475630 6.048324 8.790285
C 6.506324 6.659209 9.584475
C 6.019287 5.788166 9.583817
C 7.013746 5.198282 8.778584
C 7.510475 6.061456 8.795771
C 7.485806 6.636010 9.593507
C 7.014512 5.761626 9.581356
C 8.019993 5.209463 8.793137
C 8.476258 6.029063 8.770948
C 8.521628 6.629094 9.560657
C 8.023683 5.769104 9.585092
C 0.025540 6.933717 8.788501
C 0.485466 7.787732 8.754251
C 0.528421 8.383619 9.574284
C 0.001677 7.493450 9.561969
C 1.007283 6.925550 8.793972
C 1.492974 7.769849 8.785224
C 1.504804 8.363987 9.561600
C 0.988410 7.539836 9.588053
C 1.993195 6.919422 8.799008
C 2.518189 7.792936 8.780090
C 2.480633 8.365339 9.589878
C 2.006274 7.480184 9.575485
C 3.009597 6.929943 8.768006
C 3.496493 7.775619 8.792491
C 3.525064 8.373830 9.576900
C 2.995137 7.505994 9.580316
C 3.996093 6.947994 8.778894
C 4.490345 7.798920 8.765405
C 4.510582 8.361550 9.569909
C 3.981771 7.513057 9.593005
C 4.986522 6.930298 8.803675
C 5.512218 7.800398 8.796767
C 5.508083 8.365950 9.590736
C 5.045328 7.482592 9.590385
C 5.977948 6.911762 8.771408
C 6.506207 7.778838 8.792447
C 6.518660 8.397627 9.589155
C 5.975068 7.512295 9.583167
C 7.007217 6.948721 8.775696
C 7.514675 7.810237 8.770820
C 7.534972 8.348779 9.590139
C 6.982741 7.531581 9.579442
C 7.997721 6.928433 8.802147
C 8.499840 7.797401 8.801933
C 8.507947 8.339666 9.580935
C 8.001633 7.489377 9.567619
2160
Frame 3/10
C 0.066251 0.006549 0.071535
C 0.554617 0.860549 0.019605
C 0.506063 1.481502 0.820839
C 0.000177 0.614346 0.847357
C 1.063514 0.035531 0.038588
C 1.476817 0.844144 0.030894
C 1.555782 1.436251 0.826209
C 1.035619 0.600695 0.792795
C 2.017238 0.038002 0.018605
C 2.469684 0.874766 0.058461
C 2.511492 1.447817 0.858835
C 1.970714 0.572780 0.816651
C 2.953264 0.031130 0.024375
C 3.497536 0.843279 0.012725
C 3.477193 1.434057 0.800625
C 3.005603 0.613820 0.760979
C 3.960786 0.038013 0.038615
C 4.479781 0.831465 0.011850
C 4.506179 1.412065 0.800914
C 4.005517 0.529988 0.815146
C 4.952801 0.022212 0.033000
C 5.535273 0.869865 0.001458
C 5.449571 1.430211 0.810011
C 5.013061 0.569503 0.809604
C 6.034090 0.069509 0.021132
C 6.503312 0.792989 0.020929
C 6.511835 1.466148 0.825416
C 6.005629 0.523303 0.810668
C 7.059338 0.014719 0.008081
C 7.469613 0.867510 0.045931
C 7.557929 1.450969 0.826590
C 7.032504 0.590482 0.863666
C 8.017255 0.027028 0.001425
C 8.531019 0.926466 0.018783
C 8.479433 1.458162 0.782396
C 7.924788 0.590875 0.785562
C 0.101489 1.702365 0.007806
C 0.491426 2.658145 0.034454
C 0.477783 3.141433 0.817340
C 0.037123 2.250782 0.828914
C 0.963092 1.707201 0.034429
C 1.461323 2.560488 0.005975
C 1.466847 3.196907 0.823156
C 1.001423 2.337404 0.801145
C 1.972472 1.674491 0.003990
C 2.516544 2.587982 0.035778
C 2.523471 3.163546 0.836904
C 1.992872 2.295906 0.783196
C 3.005473 1.746977 0.009596
C 3.554333 2.583729 0.008909
C 3.519876 3.179695 0.772966
C 3.004130 2.288536 0.846206
C 3.953641 1.748347 0.059593
C 4.551578 2.538547 0.007402
C 4.541755 3.173861 0.853137
C 3.994802 2.346601 0.771474
C 4.933126 1.767538 0.014411
C 5.489552 2.558977 0.013751
C 5.461397 3.154541 0.865441
C 4.987063 2.343019 0.841629
C 5.993485 1.730819 0.019124
C 6.518400 2.679687 0.014360
C 6.506180 3.142662 0.790003
C 6.039700 2.302893 0.840758
C 7.019958 1.762089 0.049469
C 7.524881 2.562548 0.032574
C 7.494313 3.191333 0.866748
C 6.938318 2.296888 0.846789
C 7.972583 1.760512 0.005727
C 8.535960 2.596766 0.001334
C 8.502651 3.142614 0.819958
C 7.974883 2.265928 0.859865
C 0.010552 3.413651 0.062707
C 0.495019 4.359607 0.049094
C 0.520341 4.973847 0.806489
C 0.002584 4.005522 0.832862
C 1.016835 3.435476 0.028205
C 1.529336 4.286128 0.024638
C 1.533988 4.881212 0.839683
C 0.985947 4.015565 0.845890
C 1.986881 3.519791 0.023849
C 2.473514 4.327480 0.034411
C 2.527733 4.875683 0.855747
C 1.965220 4.038948 0.823672
C 3.015717 3.469906 0.044686
C 3.534436 4.279925 0.000289
C 3.503916 4.937199 0.852218
C 3.033518 4.013175 0.781151
C 4.021659 3.492482 0.017930
C 4.526575 4.321127 0.002374
C 4.520848 4.898773 0.808745
C 4.003570 4.104482 0.835295
C 5.003114 3.422325 0.028880
C 5.507157 4.389764 0.065816
C 5.432716 4.905717 0.833949
C 5.014942 4.080192 0.796370
C 5.971362 3.431662 0.038775
C 6.487877 4.353616 0.007492
C 6.439160 4.862693 0.837769
C 5.992810 4.063717 0.850929
C 6.988807 3.502894 0.042239
C 7.452838 4.338665 0.007944
C 7.511562 4.912200 0.786944
C 6.954601 4.044947 0.798157
C 7.978477 3.443559 0.068399
C 8.441320 4.320851 0.001398
C 8.460718 4.860104 0.785693
C 7.974772 3.980269 0.802863
C 0.051414 5.137936 0.004209
C 0.485259 6.121969 0.009218
C 0.476640 6.636732 0.772138
C 0.039031 5.790206 0.761626
C 0.990165 5.186570 0.002912
C 1.485193 6.089676 0.005916
C 1.481718 6.706749 0.793080
C 0.959449 5.791269 0.773796
C 1.970403 5.232086 0.033071
C 2.555195 6.073878 0.052859
C 2.536968 6.681192 0.822744
C 2.010559 5.805985 0.775729
C 2.997844 5.188986 0.009611
C 3.495780 6.044664 0.034215
C 3.480344 6.655707 0.826134
C 3.039015 5.785712 0.802516
C 4.049863 5.215145 0.067766
C 4.510383 6.068932 0.026386
C 4.556538 6.693582 0.825286
C 3.980901 5.758255 0.764083
C 4.969718 5.225974 0.003361
C 5.560211 6.071322 0.044690
C 5.543200 6.628601 0.811745
C 5.035224 5.787584 0.864500
C 5.950290 5.187821 0.013220
C 6.481946 6.106833 0.002006
C 6.572291 6.594879 0.827038
C 5.991344 5.774499 0.814318
C 7.050077 5.198629 0.000507
C 7.503725 6.011930 0.054795
C 7.472420 6.643349 0.782121
C 7.024408 5.777594 0.853263
C 7.971676 5.192542 0.010764
C 8.572648 6.059296 0.008606
C 8.522287 6.686980 0.794266
C 7.965428 5.765215 0.798228
C 0.000892 6.880428 0.022334
C 0.520668 7.803259 0.018371
C 0.489037 8.409426 0.780152
C 0.020965 7.482165 0.819844
C 1.037655 6.922459 0.024828
C 1.453735 7.772112 0.002657
C 1.514250 8.354518 0.808718
C 1.000024 7.460821 0.863742
C 2.034652 6.927943 0.004279
C 2.501889 7.846107 0.023927
C 2.552935 8.368172 0.822248
C 2.038960 7.497455 0.778541
C 2.983422 6.990512 0.011773
C 3.430597 7.808526 0.011625
C 3.502742 8.354904 0.783309
C 3.011108 7.523660 0.867393
C 4.025827 6.861684 0.020865
C 4.479087 7.831742 0.019631
C 4.462762 8.418148 0.787095
C 4.006482 7.510032 0.791480
C 5.005555 6.912221 0.020702
C 5.439548 7.786187 0.027986
C 5.484802 8.353930 0.761873
C 5.007313 7.527776 0.798113
C 5.937500 6.946017 0.012093
C 6.506063 7.803568 0.028878
C 6.464070 8.387935 0.783399
C 5.972619 7.524410 0.768536
C 7.062059 6.924803 0.019101
C 7.498367 7.770403 0.016666
C 7.469491 8.393867 0.826310
C 7.008258 7.550055 0.836036
C 8.000620 6.936225 0.059527
C 8.486156 7.770924 0.017950
C 8.507637 8.333245 0.829473
C 8.007681 7.521222 0.770246
C 0.004819 0.042288 1.680366
C 0.507750 0.899010 1.604523
C 0.495374 1.446858 2.422081
C 0.035977 0.541719 2.428794
C 1.035084 0.050630 1.653536
C 1.521206 0.890356 1.662916
C 1.506826 1.405310 2.431323
C 0.994958 0.577443 2.489503
C 1.964781 0.017678 1.592898
C 2.489923 0.848848 1.646317
C 2.530263 1.414933 2.436862
C 2.002538 0.531952 2.465824
C 2.960085 0.023145 1.639430
C 3.480921 0.843440 1.668755
C 3.510026 1.441302 2.438792
C 2.989443 0.552478 2.461344
C 4.003997 0.003269 1.672300
C 4.536345 0.812830 1.613067
C 4.451873 1.445799 2.490010
C 4.026208 0.555932 2.440098
C 4.960762 0.040609 1.670303
C 5.522990 0.875773 1.632587
C 5.548751 1.416830 2.410234
C 4.995614 0.598225 2.460219
C 5.955678 0.035190 1.666181
C 6.540179 0.887011 1.598856
C 6.463709 1.410403 2.454275
C 6.042169 0.602362 2.504039
C 6.981903 0.002868 1.634642
C 7.514304 0.830464 1.659825
C 7.486928 1.484563 2.482923
C 7.030702 0.584472 2.488676
C 8.050822 0.008236 1.628890
C 8.485915 0.881622 1.628079
C 8.518353 1.467734 2.388106
C 7.998950 0.599623 2.416440
C 0.023511 1.767380 1.605297
C 0.499240 2.565399 1.614979
C 0.469223 3.217713 2.484932
C 0.015322 2.303768 2.436694
C 0.959855 1.725637 1.619175
C 1.508113 2.641546 1.607345
C 1.547886 3.189900 2.490104
C 0.981133 2.259025 2.446526
C 2.013263 1.772597 1.675003
C 2.553137 2.613499 1.610940
C 2.487011 3.189953 2.409340
C 1.950605 2.275781 2.471890
C 2.994080 1.719470 1.665587
C 3.539982 2.560899 1.631936
C 3.481829 3.200663 2.488729
C 2.965515 2.258557 2.415194
C 4.015884 1.755518 1.680982
C 4.484862 2.641699 1.654987
C 4.503351 3.189593 2.480990
C 3.983412 2.301195 2.423184
C 4.996582 1.740968 1.637644
C 5.528408 2.612218 1.628144
C 5.461973 3.183441 2.404117
C 5.021335 2.312548 2.442827
C 6.018872 1.768091 1.680691
C 6.534399 2.613456 1.594798
C 6.487279 3.172526 2.487704
C 6.045852 2.321039 2.490543
C 6.996266 1.696413 1.615622
C 7.505078 2.619551 1.593403
C 7.467079 3.182128 2.474517
C 6.959937 2.250660 2.415714
C 8.016369 1.717699 1.589904
C 8.505013 2.565414 1.641939
C 8.517225 3.172297 2.431220
C 7.978101 2.330239 2.496150
C 0.001222 3.466779 1.691020
C 0.476922 4.324681 1.669091
C 0.508236 4.880335 2.426735
C 0.002566 4.030647 2.513801
C 1.011596 3.418481 1.665930
C 1.443912 4.388996 1.630364
C 1.483453 4.937307 2.444341
C 0.989193 4.079209 2.499414
C 2.035052 3.493356 1.680927
C 2.506990 4.288138 1.638433
C 2.535928 4.901900 2.462014
C 2.010815 4.067222 2.426787
C 2.971178 3.493270 1.597165
C 3.460879 4.316829 1.645644
C 3.474509 4.944850 2.455509
C 3.017352 4.057993 2.484165
C 3.996764 3.483966 1.676480
C 4.501438 4.370933 1.616936
C 4.480135 4.848889 2.418639
C 3.983882 4.037904 2.500653
C 5.029579 3.486863 1.621867
C 5.478699 4.380409 1.611953
C 5.479493 4.851508 2.463671
C 4.961951 4.013281 2.464981
C 5.972663 3.506029 1.670799
C 6.545168 4.307329 1.685069
C 6.465780 4.874409 2.417137
C 5.986431 4.017271 2.466112
C 6.968918 3.433775 1.634094
C 7.481342 4.342736 1.620775
C 7.500785 4.908077 2.405344
C 7.051712 3.992328 2.462812
C 8.047225 3.430991 1.617927
C 8.463069 4.334593 1.656251
C 8.473146 4.857085 2.489198
C 7.993473 4.052989 2.470882
C 0.036555 5.201313 1.658219
C 0.510710 6.059533 1.692745
C 0.528467 6.618030 2.498227
C 0.020582 5.770735 2.449248
C 1.028574 5.191783 1.640107
C 1.446462 6.054464 1.584196
C 1.524905 6.644771 2.431929
C 1.007085 5.758173 2.459947
C 1.968338 5.187058 1.609504
C 2.499320 6.032251 1.621181
C 2.533836 6.692164 2.452792
C 1.997286 5.721098 2.475327
C 2.961893 5.227547 1.616131
C 3.518865 6.060594 1.638456
C 3.496337 6.610779 2.425623
C 2.968512 5.783208 2.489814
C 4.003692 5.182929 1.666257
C 4.482654 6.045925 1.630173
C 4.532652 6.636490 2.468313
C 4.008008 5.814629 2.464104
C 4.939232 5.182946 1.657379
C 5.505127 6.066486 1.609101
C 5.471097 6.661102 2.475502
C 5.010090 5.736481 2.427146
C 5.982781 5.165908 1.650480
C 6.497228 6.106539 1.610771
C 6.539207 6.615036 2.417464
C 6.055760 5.764756 2.466954
C 6.998058 5.213050 1.622782
C 7.539294 6.042708 1.622601
C 7.434577 6.604430 2.445174
C 6.937574 5.785422 2.456573
C 8.018492 5.180982 1.569682
C 8.479596 6.022232 1.669276
C 8.500195 6.610154 2.485281
C 8.034837 5.776913 2.513832
C 0.003347 6.938636 1.692963
C 0.488941 7.745734 1.622191
C 0.503446 8.420616 2.412013
C 0.029366 7.539796 2.380947
C 0.992936 6.860517 1.644921
C 1.543955 7.773698 1.666631
C 1.469513 8.393584 2.433720
C 1.030078 7.472441 2.433270
C 1.959205 6.954780 1.654485
C 2.505149 7.785090 1.676840
C 2.514707 8.380404 2.466788
C 1.994658 7.489406 2.432024
C 2.998412 6.890019 1.627879
C 3.432207 7.791769 1.669761
C 3.557695 8.405295 2.433784
C 3.004936 7.504233 2.472803
C 4.018897 6.902816 1.618251
C 4.498320 7.739466 1.643011
C 4.491025 8.404857 2.391434
C 3.979953 7.443407 2.439031
C 4.972777 6.871919 1.633539
C 5.520288 7.766574 1.682381
C 5.499023 8.396428 2.437542
C 4.967153 7.543873 2.423630
C 5.985824 6.909709 1.623230
C 6.473734 7.812877 1.609035
C 6.467764 8.331916 2.468850
C 5.971653 7.511019 2.503886
C 6.995841 6.946864 1.602542
C 7.549265 7.790050 1.625937
C 7.542204 8.346833 2.452082
C 7.003347 7.533364 2.442448
C 8.005470 6.954263 1.604641
C 8.541123 7.795101 1.643748
C 8.522032 8.401609 2.388209
C 7.991118 7.526313 2.464056
C 0.008480 0.006826 3.237756
C 0.504754 0.839980 3.277953
C 0.485633 1.427485 4.119343
C 0.056110 0.605750 4.035955
C 0.978303 0.033165 3.242415
C 1.496289 0.904010 3.303797
C 1.449534 1.439613 4.115166
C 1.024786 0.615848 4.116479
C 2.041754 0.034299 3.243591
C 2.539530 0.893451 3.239373
C 2.517115 1.472953 4.042281
C 1.987935 0.561008 4.119731
C 2.993101 0.022910 3.333327
C 3.527411 0.865904 3.242763
C 3.557654 1.435248 4.106889
C 3.070271 0.589855 4.065124
C 3.971529 0.013316 3.301002
C 4.493941 0.926168 3.311421
C 4.451464 1.482902 4.078158
C 3.952776 0.533559 4.059115
C 5.028797 0.031865 3.238874
C 5.529373 0.890789 3.296487
C 5.523670 1.458732 4.080762
C 5.011460 0.541928 4.080485
C 6.025924 0.012961 3.226363
C 6.511895 0.922800 3.289168
C 6.568526 1.428445 4.100172
C 6.000207 0.604776 4.025768
C 6.977311 0.022233 3.329790
C 7.493124 0.868275 3.190661
C 7.510294 1.490730 4.113749
C 7.033418 0.609482 4.136731
C 7.969911 0.025168 3.266095
C 8.531839 0.930638 3.280580
C 8.526862 1.445107 4.034145
C 8.004121 0.584408 4.080704
C 0.069189 1.775932 3.296022
C 0.463309 2.560982 3.301886
C 0.466559 3.182292 4.062394
C 0.054776 2.347251 4.119989
C 1.037715 1.691724 3.286006
C 1.531634 2.659335 3.265634
C 1.509776 3.193789 4.099955
C 1.026896 2.312417 4.124504
C 2.022209 1.767058 3.310690
C 2.476609 2.632479 3.318206
C 2.500151 3.145449 4.032134
C 2.041631 2.264643 4.107225
C 3.013235 1.772230 3.323315
C 3.463724 2.625042 3.291050
C 3.510691 3.197812 4.098149
C 2.959484 2.306330 4.032547
C 4.023568 1.721640 3.208710
C 4.498419 2.628842 3.231191
C 4.456741 3.179527 4.072180
C 4.051853 2.269019 4.056838
C 5.046717 1.720272 3.250873
C 5.490924 2.596275 3.317858
C 5.551842 3.143340 4.067740
C 5.006643 2.351119 4.028411
C 6.051242 1.692727 3.265920
C 6.497560 2.589998 3.281711
C 6.516421 3.158175 4.095151
C 5.968144 2.276012 4.106746
C 6.988961 1.743342 3.233142
C 7.476625 2.648680 3.233703
C 7.500485 3.189507 4.084165
C 7.032524 2.269416 4.073016
C 7.957348 1.760395 3.247452
C 8.478988 2.597932 3.253002
C 8.493801 3.188623 4.130768
C 7.996170 2.335667 4.104685
C 0.042260 3.435930 3.268958
C 0.507894 4.277491 3.214786
C 0.510754 4.851851 4.074427
C 0.024803 4.088880 4.057809
C 0.960592 3.465444 3.251188
C 1.510922 4.312503 3.290668
C 1.506453 4.867994 4.067368
C 0.983619 4.004934 4.087789
C 1.975666 3.440157 3.259759
C 2.494757 4.336899 3.328551
C 2.538839 4.913335 4.054291
C 1.980336 4.069656 4.039151
C 3.018006 3.405197 3.299911
C 3.477511 4.292823 3.252216
C 3.516505 4.894909 4.027015
C 3.006081 4.000731 4.132569
C 3.977323 3.481599 3.287704
C 4.478889 4.320753 3.316941
C 4.458899 4.889958 4.111257
C 4.027918 4.044801 4.063768
C 4.996759 3.482285 3.246172
C 5.495102 4.319194 3.252518
C 5.535571 4.873022 4.122002
C 5.016843 3.992894 4.063666
C 6.049361 3.446623 3.289313
C 6.441521 4.336904 3.237485
C 6.517639 4.878133 4.040143
C 5.969799 4.001795 4.048469
C 7.044428 3.494964 3.309607
C 7.495528 4.337549 3.249538
C 7.473391 4.897756 4.026086
C 7.013352 4.047089 4.107248
C 8.031359 3.455025 3.224830
C 8.532665 4.300327 3.248902
C 8.531213 4.925017 4.028366
C 7.981842 4.034659 4.133707
C 0.030824 5.208023 3.287515
C 0.455975 6.078799 3.281180
C 0.506515 6.702302 4.071724
C 0.026391 5.763314 4.146338
C 1.008928 5.236956 3.256357
C 1.504525 6.097186 3.240764
C 1.451552 6.632612 4.087788
C 0.949738 5.808656 4.089842
C 1.968063 5.208826 3.288555
C 2.460422 6.089458 3.241762
C 2.477020 6.609979 4.098442
C 1.990460 5.774813 4.086792
C 3.003585 5.189908 3.286634
C 3.556146 6.082546 3.224447
C 3.513527 6.675252 4.126827
C 2.992069 5.818474 4.076082
C 4.017694 5.212750 3.232309
C 4.480126 6.016520 3.264661
C 4.508037 6.621966 4.116149
C 3.978667 5.775868 4.095194
C 4.998767 5.209784 3.304890
C 5.490237 6.020613 3.305218
C 5.475683 6.609737 4.061928
C 4.979163 5.740247 4.075444
C 5.982209 5.237934 3.240937
C 6.540146 6.022559 3.285358
C 6.536012 6.669648 4.072987
C 5.961168 5.774737 4.050846
C 6.965216 5.206087 3.245389
C 7.482123 6.053759 3.317802
C 7.523978 6.622460 4.032111
C 7.029006 5.759387 4.072969
C 8.037842 5.180879 3.213565
C 8.526356 6.047783 3.232227
C 8.488822 6.634507 4.093695
C 8.040875 5.774606 4.081351
C 0.056838 6.947315 3.306289
C 0.450097 7.762022 3.278186
C 0.454865 8.382292 4.088896
C 0.055472 7.525647 4.072537
C 0.972770 6.883647 3.291355
C 1.480039 7.785191 3.264979
C 1.529338 8.326921 4.066239
C 0.985610 7.493384 4.024570
C 1.960609 6.894959 3.286554
C 2.511887 7.777455 3.216983
C 2.473244 8.400276 4.042846
C 2.040576 7.477554 4.062375
C 3.018180 6.923237 3.288512
C 3.502164 7.836528 3.306312
C 3.509243 8.349190 4.061905
C 2.970393 7.488262 4.074252
C 3.998421 6.931477 3.264774
C 4.537317 7.776806 3.225304
C 4.509134 8.323911 4.104836
C 4.029581 7.486948 4.084502
C 4.976286 6.902393 3.237137
C 5.482662 7.797869 3.233662
C 5.491557 8.413630 4.133819
C 5.034406 7.509803 4.078198
C 5.974869 6.949039 3.223828
C 6.509189 7.754154 3.270547
C 6.558921 8.393044 4.075580
C 5.978457 7.490598 4.142631
C 7.002829 6.979560 3.286555
C 7.512612 7.823438 3.258872
C 7.537815 8.369825 4.129913
C 7.029458 7.522019 4.036859
C 7.991634 6.961733 3.280348
C 8.511767 7.748376 3.281841
C 8.471386 8.387732 4.070324
C 8.001784 7.517720 4.141776
C 0.049103 0.022659 4.887551
C 0.447182 0.881362 4.915067
C 0.557106 1.455458 5.719870
C 0.008674 0.619288 5.699655
C 1.015904 0.007762 4.967947
C 1.503460 0.882522 4.959441
C 1.553087 1.453783 5.683780
C 1.011290 0.575909 5.683492
C 1.957170 0.012678 4.891147
C 2.471402 0.881822 4.855258
C 2.525663 1.433342 5.706850
C 2.006131 0.613499 5.691588
C 3.012210 0.037716 4.844458
C 3.444754 0.903992 4.904051
C 3.512497 1.453064 5.699135
C 2.964205 0.596323 5.707388
C 4.015666 0.022437 4.892581
C 4.520629 0.856280 4.873224
C 4.542663 1.408167 5.735486
C 3.970039 0.598214 5.759824
C 5.041197 0.001762 4.948582
C 5.492611 0.864192 4.904478
C 5.520336 1.408555 5.749224
C 5.004100 0.541566 5.727773
C 5.959455 0.000980 4.887887
C 6.501684 0.836455 4.935272
C 6.534360 1.479177 5.734067
C 5.994631 0.626778 5.676233
C 7.037798 0.023244 4.940461
C 7.490144 0.905597 4.941331
C 7.538023 1.461838 5.703473
C 7.049619 0.550193 5.710393
C 8.002392 0.055917 4.837934
C 8.474374 0.864995 4.851472
C 8.488682 1.436628 5.709327
C 7.983743 0.565381 5.741587
C 0.004758 1.716505 4.866590
C 0.482701 2.614983 4.931613
C 0.484587 3.174681 5.687766
C 0.002578 2.344978 5.690291
C 0.958485 1.768186 4.930568
C 1.513767 2.567368 4.879907
C 1.472002 3.123038 5.712484
C 1.016472 2.295182 5.659372
C 1.997050 1.750663 4.860713
C 2.477902 2.613342 4.878880
C 2.547430 3.177521 5.750551
C 2.053379 2.296878 5.693852
C 3.020698 1.768693 4.908425
C 3.460290 2.647818 4.895514
C 3.514279 3.149954 5.693465
C 3.009418 2.261309 5.700112
C 3.996566 1.721369 4.881129
C 4.508679 2.563078 4.879365
C 4.481817 3.171482 5.678529
C 4.009563 2.329077 5.765366
C 4.988034 1.719225 4.860593
C 5.474381 2.571260 4.912997
C 5.511772 3.192344 5.765485
C 4.977529 2.327629 5.711350
C 5.950531 1.755270 4.867188
C 6.499048 2.603319 4.873728
C 6.535695 3.202458 5.695998
C 5.984872 2.351829 5.715216
C 7.020057 1.747719 4.925442
C 7.495476 2.630099 4.849735
C 7.488890 3.231126 5.710963
C 6.958326 2.308892 5.714879
C 8.002617 1.748231 4.911974
C 8.479643 2.643155 4.894619
C 8.467419 3.174058 5.721938
C 8.037164 2.311141 5.684239
C 0.025244 3.423353 4.895289
C 0.527028 4.295529 4.890790
C 0.534643 4.899196 5.733659
C 0.043797 4.007158 5.765361
C 1.014469 3.441870 4.867867
C 1.491192 4.358379 4.919559
C 1.473879 4.973775 5.733124
C 0.959726 4.052117 5.740737
C 2.036068 3.436266 4.873994
C 2.497693 4.339575 4.963566
C 2.492798 4.872894 5.711106
C 2.015040 4.026545 5.676633
C 2.961709 3.469061 4.855263
C 3.493408 4.360774 4.881479
C 3.549193 4.926597 5.691454
C 2.983734 4.002033 5.680631
C 3.985425 3.442424 4.881409
C 4.514149 4.337042 4.900278
C 4.513003 4.946316 5.732797
C 3.945105 4.080230 5.679344
C 5.034347 3.424222 4.892915
C 5.545033 4.358108 4.877078
C 5.501325 4.949742 5.766889
C 5.013506 4.024057 5.751230
C 6.006999 3.504842 4.853473
C 6.464505 4.362046 4.890443
C 6.487556 4.890064 5.734065
C 5.954633 4.022261 5.720479
C 6.967146 3.467785 4.888227
C 7.504220 4.355464 4.930870
C 7.503262 4.945567 5.716335
C 7.057495 4.005542 5.719428
C 8.038620 3.452263 4.905925
C 8.515619 4.359718 4.906536
C 8.486888 4.958930 5.683922
C 7.991267 4.062870 5.694591
C 0.004698 5.225670 4.930245
C 0.494773 6.034493 4.923491
C 0.503451 6.696411 5.745542
C 0.037096 5.759800 5.727595
C 1.029282 5.183930 4.932292
C 1.457848 6.034185 4.879622
C 1.479523 6.675476 5.673233
C 1.052273 5.749127 5.713563
C 2.020577 5.226596 4.936218
C 2.478403 6.075903 4.908880
C 2.469273 6.667387 5.722966
C 2.007064 5.753642 5.761623
C 3.056438 5.196097 4.890412
C 3.483742 6.018926 4.939800
C 3.504329 6.647379 5.679164
C 3.023336 5.775155 5.730087
C 4.034934 5.234153 4.901265
C 4.484663 6.118324 4.897802
C 4.508005 6.669195 5.746982
C 3.991904 5.796118 5.658968
C 5.013775 5.218232 4.924152
C 5.521125 6.095580 4.865186
C 5.488694 6.593280 5.720579
C 5.024354 5.794635 5.692294
C 6.015685 5.157088 4.940270
C 6.477308 6.114271 4.890602
C 6.464488 6.610955 5.749289
C 6.001127 5.802544 5.755825
C 7.031294 5.155893 4.921428
C 7.503741 5.997519 4.928062
C 7.511666 6.656130 5.717415
C 7.001341 5.778052 5.702907
C 8.017287 5.179256 4.882145
C 8.525477 6.024948 4.866214
C 8.530124 6.615060 5.680740
C 7.965937 5.767258 5.698840
C 0.029656 6.978939 4.890741
C 0.487788 7.801312 4.874883
C 0.476148 8.407104 5.689852
C 0.040296 7.448989 5.710516
C 0.990856 6.977446 4.859467
C 1.489151 7.730766 4.910761
C 1.531445 8.412390 5.710375
C 1.040031 7.558465 5.696888
C 1.985788 6.950467 4.870412
C 2.487974 7.847705 4.915330
C 2.448147 8.420450 5.709959
C 1.989218 7.482335 5.660037
C 3.021622 6.943619 4.934718
C 3.487937 7.780823 4.901002
C 3.510083 8.354735 5.687668
C 3.033567 7.496541 5.703320
C 4.045652 6.967582 4.890117
C 4.478946 7.749048 4.899214
C 4.463204 8.393136 5.697959
C 4.053861 7.473490 5.720201
C 5.000569 6.969229 4.902867
C 5.537499 7.729850 4.890652
C 5.493497 8.417655 5.712856
C 5.048192 7.532077 5.732639
C 6.017092 7.000641 4.914932
C 6.500765 7.814698 4.936199
C 6.521803 8.365503 5.635762
C 6.054057 7.518118 5.725130
C 6.944114 6.958705 4.917967
C 7.464404 7.825925 4.902750
C 7.473416 8.396205 5.719682
C 6.959426 7.515534 5.754631
C 8.009282 6.977714 4.928138
C 8.534773 7.806843 4.927363
C 8.523107 8.390938 5.714252
C 7.972766 7.509998 5.761953
C 0.043167 0.017558 6.550266
C 0.504487 0.905325 6.513864
C 0.459863 1.477400 7.338137
C 0.070187 0.606331 7.345218
C 1.016884 0.012615 6.461602
C 1.474010 0.888820 6.574049
C 1.478615 1.482770 7.375192
C 0.980931 0.531441 7.391534
C 1.960075 0.037826 6.536768
C 2.476791 0.845383 6.533385
C 2.495188 1.484689 7.323743
C 1.974880 0.568516 7.419941
C 3.040665 0.030515 6.479029
C 3.547887 0.869183 6.577847
C 3.474561 1.437348 7.304999
C 3.002375 0.526940 7.358196
C 4.009350 0.032754 6.573284
C 4.528831 0.819598 6.517721
C 4.511159 1.421033 7.393539
C 3.947161 0.603976 7.365089
C 5.028437 0.032896 6.493317
C 5.469379 0.816440 6.519918
C 5.527079 1.469998 7.311387
C 4.965195 0.550959 7.363535
C 5.975102 0.008083 6.496901
C 6.481848 0.838580 6.502773
C 6.510552 1.472533 7.316542
C 5.992197 0.578259 7.340636
C 6.984397 0.056619 6.553980
C 7.478389 0.877503 6.590204
C 7.464406 1.487073 7.379845
C 7.018387 0.606252 7.321297
C 7.958544 0.033451 6.510677
C 8.536842 0.877903 6.514664
C 8.514448 1.491632 7.397012
C 8.012181 0.583600 7.364819
C 0.058607 1.747931 6.518470
C 0.542985 2.603342 6.549026
C 0.470238 3.139155 7.348069
C 0.064824 2.324011 7.371421
C 0.998994 1.758029 6.519088
C 1.507610 2.587871 6.568174
C 1.549623 3.169579 7.366627
C 1.009159 2.352685 7.297275
C 2.031607 1.690019 6.518682
C 2.495817 2.630174 6.505868
C 2.506071 3.171373 7.341988
C 1.998880 2.311382 7.349357
C 3.027833 1.690806 6.520967
C 3.450539 2.569280 6.518263
C 3.542731 3.196421 7.358996
C 2.977717 2.337921 7.301804
C 3.991482 1.740144 6.507584
C 4.452275 2.591119 6.485231
C 4.512815 3.146593 7.380419
C 3.947599 2.304339 7.361870
C 4.941188 1.713447 6.561578
C 5.482607 2.592002 6.521783
C 5.523408 3.179560 7.382901
C 5.054157 2.304406 7.316470
C 6.023469 1.761941 6.533706
C 6.527373 2.596787 6.600131
C 6.461657 3.174730 7.403940
C 6.030758 2.244589 7.370974
C 7.039108 1.748997 6.528147
C 7.471114 2.534368 6.537771
C 7.485266 3.123810 7.329090
C 6.963414 2.346142 7.378861
C 7.943794 1.776512 6.543957
C 8.457046 2.614891 6.561533
C 8.516634 3.196438 7.383553
C 8.007459 2.260824 7.305227
C 0.034104 3.486149 6.540294
C 0.458119 4.343242 6.564114
C 0.485475 4.903539 7.291457
C 0.021683 4.092161 7.311985
C 0.998661 3.423008 6.545277
C 1.466396 4.305956 6.527248
C 1.500850 4.861443 7.314856
C 1.019068 4.059513 7.366993
C 1.998708 3.507007 6.501130
C 2.492737 4.356479 6.550779
C 2.474641 4.900547 7.387656
C 1.953601 4.040905 7.340712
C 2.965164 3.492817 6.534425
C 3.526636 4.371024 6.556975
C 3.466797 4.945119 7.364840
C 2.963401 4.027563 7.377710
C 4.005743 3.426661 6.496378
C 4.529065 4.330687 6.527824
C 4.491244 4.950166 7.334824
C 4.040538 4.010381 7.304415
C 4.989300 3.419121 6.573398
C 5.510610 4.324109 6.569035
C 5.498962 4.844851 7.346012
C 5.037956 4.028361 7.303614
C 5.948955 3.481823 6.524944
C 6.490302 4.376909 6.539054
C 6.431970 4.899543 7.384073
C 5.984169 4.053286 7.430204
C 7.003696 3.479310 6.566073
C 7.498983 4.335035 6.482287
C 7.516661 4.903034 7.337702
C 6.986462 4.043599 7.322862
C 8.013168 3.424980 6.498110
C 8.493970 4.364763 6.509388
C 8.450678 4.901970 7.329656
C 8.019834 4.064697 7.314128
C 0.037712 5.237193 6.510340
C 0.490810 6.085574 6.479046
C 0.488545 6.675869 7.394132
C 0.032153 5.778872 7.340795
C 1.015807 5.177650 6.473299
C 1.512316 6.122114 6.561184
C 1.498129 6.678305 7.333963
C 1.003808 5.779462 7.328187
C 2.015922 5.208141 6.505903
C 2.525212 6.068778 6.515149
C 2.474759 6.674958 7.344052
C 2.054588 5.779158 7.388357
C 2.989846 5.161417 6.540589
C 3.537678 6.076341 6.597592
C 3.503886 6.671204 7.359815
C 2.959807 5.787467 7.342701
C 3.982743 5.138735 6.532333
C 4.483437 6.015641 6.543549
C 4.492508 6.575860 7.360019
C 3.975455 5.819953 7.321857
C 4.985444 5.166854 6.530952
C 5.461176 6.045511 6.537981
C 5.457826 6.639846 7.379544
C 5.056640 5.770682 7.348257
C 5.966268 5.203000 6.491627
C 6.560783 6.049902 6.554099
C 6.479029 6.643974 7.308685
C 5.996974 5.777239 7.385809
C 6.956672 5.171875 6.531976
C 7.476627 6.039810 6.494179
C 7.481346 6.672774 7.299913
C 6.993053 5.812182 7.364991
C 7.991116 5.183438 6.510508
C 8.493760 6.050579 6.541792
C 8.468746 6.655426 7.315218
C 8.046504 5.769583 7.361132
C 0.052458 6.946077 6.515221
C 0.468915 7.801607 6.552638
C 0.519949 8.311605 7.327167
C 0.002757 7.497927 7.346529
C 1.048313 6.929840 6.522715
C 1.484247 7.729145 6.506903
C 1.558176 8.343474 7.342879
C 1.002551 7.515976 7.296904
C 1.960828 6.908158 6.547205
C 2.528181 7.774935 6.496250
C 2.534303 8.378940 7.399556
C 2.011928 7.566301 7.325161
C 2.977688 6.961388 6.508946
C 3.521190 7.790642 6.518876
C 3.551560 8.383646 7.339087
C 2.971798 7.487229 7.315630
C 4.042406 6.914134 6.512479
C 4.536165 7.759132 6.494847
C 4.498396 8.352478 7.389556
C 4.016229 7.446064 7.347225
C 4.998153 6.926589 6.509522
C 5.488353 7.738704 6.563986
C 5.470811 8.365358 7.333939
C 4.941869 7.474585 7.374540
C 5.945692 6.972999 6.514538
C 6.487154 7.823056 6.479519
C 6.477782 8.380480 7.342288
C 6.043043 7.475451 7.338771
C 6.995371 6.960616 6.558957
C 7.540632 7.799539 6.540115
C 7.521983 8.378977 7.400504
C 6.999496 7.534268 7.347266
C 8.012654 6.942172 6.612647
C 8.470635 7.756272 6.515610
C 8.499810 8.387567 7.323663
C 7.962308 7.497224 7.378396
C 0.029146 0.007854 8.192888
C 0.497050 0.884815 8.165202
C 0.487352 1.453591 8.971218
C 0.056683 0.527324 8.973612
C 1.016152 0.049251 8.163088
C 1.493378 0.869615 8.207017
C 1.487979 1.469690 8.970122
C 0.994759 0.617650 8.997234
C 2.009604 0.046776 8.104529
C 2.521149 0.846407 8.183579
C 2.503705 1.479799 9.020630
C 2.027404 0.623840 8.970919
C 2.942711 0.023441 8.164729
C 3.478186 0.853634 8.188174
C 3.526529 1.467996 8.968101
C 2.981250 0.552262 8.975051
C 3.946360 0.028758 8.147336
C 4.538293 0.929546 8.150642
C 4.511427 1.473452 8.941369
C 3.974577 0.636862 8.980917
C 5.027179 0.030796 8.195390
C 5.520218 0.867368 8.149752
C 5.540407 1.472322 8.980431
C 4.978579 0.550008 8.939471
C 5.981973 0.063749 8.178482
C 6.499655 0.816372 8.190594
C 6.525509 1.459871 8.946526
C 5.977850 0.562777 8.933511
C 6.970481 0.018140 8.186733
C 7.510034 0.864966 8.133040
C 7.518326 1.433798 8.925079
C 7.025935 0.532415 8.950932
C 7.938663 0.003274 8.196635
C 8.491045 0.834370 8.116715
C 8.488818 1.440799 9.001054
C 8.010485 0.538399 9.026623
C 0.006386 1.688679 8.155208
C 0.510603 2.583331 8.143672
C 0.481641 3.181783 9.009350
C 0.008497 2.263695 8.929244
C 0.970714 1.722539 8.103994
C 1.535564 2.591731 8.163219
C 1.533060 3.203547 8.999443
C 1.021341 2.351501 8.958097
C 1.990424 1.669771 8.192948
C 2.447842 2.565125 8.163392
C 2.515856 3.113754 8.984115
C 2.048632 2.349671 9.007094
C 3.008902 1.762335 8.185469
C 3.523003 2.639428 8.176911
C 3.513200 3.197634 8.967473
C 2.985428 2.351322 8.939890
C 3.964357 1.725317 8.178975
C 4.461845 2.644299 8.184132
C 4.498219 3.191182 8.950937
C 3.973327 2.347089 8.956190
C 4.978290 1.701769 8.127074
C 5.520057 2.652417 8.163256
C 5.518366 3.181853 8.949835
C 5.001589 2.336505 8.960503
C 6.035672 1.716515 8.178840
C 6.451829 2.573019 8.159713
C 6.489932 3.203329 9.010509
C 6.007886 2.369342 8.983109
C 7.023811 1.718412 8.124183
C 7.453256 2.624417 8.205594
C 7.523708 3.200512 9.012197
C 6.986815 2.315819 8.964749
C 7.960433 1.763633 8.182711
C 8.468337 2.560867 8.161818
C 8.483469 3.189551 8.938320
C 7.985097 2.347205 8.980055
C 0.008368 3.457461 8.195228
C 0.505486 4.390305 8.156061
C 0.504219 4.873759 8.984758
C 0.000044 3.993182 8.942527
C 0.961638 3.458354 8.175241
C 1.487478 4.301106 8.147636
C 1.488104 4.897564 9.017098
C 0.955224 4.045141 9.000658
C 1.987066 3.430407 8.184758
C 2.472000 4.339618 8.208846
C 2.518788 4.871669 8.982354
C 1.971575 4.024094 8.942435
C 2.994710 3.478532 8.141358
C 3.540931 4.307716 8.217794
C 3.494376 4.854983 8.970642
C 2.960168 4.082331 9.023539
C 3.979564 3.419875 8.146017
C 4.510346 4.336247 8.141395
C 4.525603 4.893240 9.015600
C 4.030268 4.032598 9.021433
C 5.011754 3.518255 8.207561
C 5.506195 4.368908 8.176521
C 5.479518 4.925151 9.014573
C 4.999779 3.994053 8.942880
C 6.045844 3.443684 8.180181
C 6.497682 4.317661 8.191926
C 6.470895 4.881829 8.958431
C 6.030926 4.020618 8.979434
C 6.980496 3.459235 8.167360
C 7.489506 4.282486 8.174884
C 7.494932 4.880513 8.977265
C 7.017291 4.003619 8.963981
C 7.991934 3.492636 8.112155
C 8.553873 4.302971 8.192212
C 8.474079 4.881833 8.968181
C 7.979442 4.001929 9.015726
C 0.015870 5.239125 8.216063
C 0.537222 6.105905 8.129269
C 0.484382 6.652919 9.002146
C 0.015924 5.802921 9.041132
C 1.001029 5.158166 8.201496
C 1.491097 6.007694 8.141028
C 1.510880 6.598561 8.967240
C 1.024128 5.761139 8.954061
C 2.050479 5.231195 8.169543
C 2.506147 6.097680 8.120902
C 2.544870 6.639092 8.961844
C 2.001710 5.731059 8.984759
C 3.060623 5.189509 8.135459
C 3.475818 6.112298 8.163315
C 3.540278 6.651797 8.954271
C 2.995633 5.807293 9.008122
C 4.007543 5.196009 8.124332
C 4.524710 6.076132 8.153865
C 4.471071 6.620803 8.975569
C 4.011474 5.719673 8.947805
C 5.019086 5.224127 8.188687
C 5.527784 6.034517 8.144456
C 5.508456 6.607703 8.942511
C 5.022511 5.847950 8.949678
C 5.970861 5.153934 8.187424
C 6.477412 6.036155 8.163771
C 6.479081 6.659627 9.018081
C 5.969198 5.727194 8.967896
C 6.988467 5.228645 8.206960
C 7.459519 6.034619 8.176105
C 7.494429 6.591359 8.991531
C 6.954374 5.777816 8.996712
C 7.984929 5.215136 8.151232
C 8.486940 6.044157 8.223600
C 8.532725 6.679351 8.969378
C 7.976644 5.760095 9.032736
C 0.003541 6.935960 8.173593
C 0.514055 7.769899 8.159086
C 0.471428 8.392352 9.029993
C 0.005461 7.536502 8.957810
C 1.039124 6.899818 8.132889
C 1.509985 7.828161 8.131488
C 1.457157 8.349341 8.930608
C 0.957159 7.481852 8.972016
C 1.968714 6.891562 8.169579
C 2.500196 7.747783 8.160834
C 2.558702 8.400734 9.020823
C 1.982496 7.552903 8.981770
C 3.019143 6.925509 8.124288
C 3.458375 7.758395 8.142632
C 3.536915 8.333671 8.968963
C 2.990074 7.555776 8.990859
C 4.027096 6.953484 8.204032
C 4.525412 7.778465 8.174919
C 4.470199 8.394077 8.991230
C 3.968074 7.556797 8.960511
C 4.996464 6.908522 8.200983
C 5.512542 7.837448 8.154265
C 5.506354 8.335879 8.998151
C 4.958345 7.527667 8.998066
C 6.022221 6.892983 8.128800
C 6.539435 7.800830 8.169215
C 6.533709 8.322134 8.970073
C 5.977210 7.462662 8.962496
C 6.971524 6.892496 8.137701
C 7.497758 7.841526 8.138654
C 7.493952 8.360920 8.931417
C 6.975127 7.526189 9.012932
C 8.034258 6.924373 8.167225
C 8.444625 7.787071 8.169329
C 8.537261 8.361516 9.017636
C 7.996711 7.536739 9.003959
C 0.028742 0.055421 0.629042
C 0.474371 0.841664 0.639686
C 0.489871 1.450948 1.403429
C 0.019702 0.546266 1.373187
C 1.002173 0.002033 0.662181
C 1.505038 0.863228 0.584949
C 1.514031 1.443324 1.396455
C 0.981855 0.537757 1.420359
C 2.004972 0.001301 0.580121
C 2.510245 0.913904 0.645102
C 2.531078 1.428168 1.451093
C 2.050603 0.559671 1.439848
C 3.009727 0.005536 0.557696
C 3.497987 0.895355 0.619467
C 3.497643 1.464393 1.416037
C 3.038704 0.583429 1.394930
C 4.019136 0.001813 0.595554
C 4.471875 0.864150 0.642186
C 4.460835 1.472180 1.440528
C 4.002267 0.557838 1.410424
C 5.006458 0.004826 0.654190
C 5.470512 0.894743 0.642161
C 5.498863 1.467463 1.430071
C 4.984987 0.563793 1.393751
C 6.043246 0.029606 0.573536
C 6.489551 0.834969 0.568460
C 6.521749 1.479980 1.410501
C 6.056439 0.586990 1.464390
C 6.988220 0.046102 0.583930
C 7.464322 0.868373 0.633512
C 7.495414 1.422660 1.380170
C 6.960497 0.584096 1.429060
C 8.026443 0.024084 0.666795
C 8.486365 0.873040 0.572753
C 8.463969 1.411579 1.437590
C 8.003095 0.629856 1.464951
C 0.012410 1.704176 0.675109
C 0.473554 2.570873 0.613441
C 0.498254 3.165673 1.456147
C 0.008494 2.330706 1.468311
C 0.994917 1.710512 0.598007
C 1.470891 2.575536 0.635873
C 1.529217 3.230515 1.394280
C 0.970083 2.282490 1.423800
C 2.013869 1.676646 0.613428
C 2.457480 2.577494 0.576351
C 2.519723 3.164332 1.429932
C 1.992163 2.321745 1.378663
C 3.018715 1.716680 0.639652
C 3.530341 2.614638 0.584182
C 3.467358 3.146043 1.449180
C 2.943947 2.288951 1.474761
C 4.001606 1.710008 0.607437
C 4.480642 2.575940 0.599653
C 4.489599 3.131443 1.418792
C 4.047496 2.318628 1.482905
C 4.956049 1.745409 0.577078
C 5.466984 2.582409 0.649227
C 5.479332 3.160064 1.479557
C 5.000053 2.299664 1.420566
C 6.037397 1.734996 0.621951
C 6.464666 2.561672 0.605016
C 6.511180 3.176218 1.439138
C 5.976665 2.260054 1.430800
C 7.007876 1.663283 0.616786
C 7.454386 2.586765 0.611734
C 7.508158 3.162184 1.445780
C 7.010222 2.360473 1.428491
C 8.035942 1.727133 0.569693
C 8.525475 2.611603 0.578001
C 8.516878 3.129004 1.402858
C 8.052277 2.289275 1.435560
C 0.051776 3.443680 0.633144
C 0.487545 4.377180 0.648919
C 0.500482 4.864323 1.368782
C 0.000166 4.019179 1.457163
C 1.004804 3.412690 0.617998
C 1.488243 4.352863 0.657568
C 1.520183 4.877964 1.431003
C 0.943570 4.035650 1.431391
C 1.983384 3.419354 0.597415
C 2.511352 4.271733 0.611198
C 2.508519 4.924916 1.449626
C 2.037270 4.061481 1.395680
C 3.053483 3.432259 0.630727
C 3.448472 4.351600 0.605631
C 3.504254 4.931284 1.506189
C 2.999794 4.051247 1.362245
C 3.998946 3.444138 0.598711
C 4.453395 4.303012 0.628137
C 4.457896 4.884445 1.415752
C 4.010508 4.041758 1.410100
C 5.008026 3.490159 0.564936
C 5.526828 4.372841 0.654231
C 5.558663 4.920020 1.395405
C 5.023295 4.070053 1.443166
C 6.030884 3.468278 0.613539
C 6.476107 4.299389 0.594659
C 6.456323 4.893401 1.447866
C 5.963513 4.003610 1.423857
C 7.010376 3.487417 0.614765
C 7.537243 4.316355 0.600633
C 7.473098 4.883059 1.451308
C 6.982626 4.027312 1.432664
C 8.056527 3.439479 0.648359
C 8.480483 4.325800 0.557159
C 8.495395 4.954324 1.468261
C 8.018309 4.021758 1.428748
C 0.003914 5.235383 0.652176
C 0.498115 6.055867 0.627115
C 0.485343 6.684695 1.423574
C 0.022567 5.752220 1.381537
C 0.962735 5.258495 0.626326
C 1.532863 6.061935 0.574901
C 1.502247 6.617825 1.399525
C 0.997178 5.765249 1.408283
C 1.979462 5.165939 0.645678
C 2.493706 6.073818 0.604993
C 2.510272 6.677237 1.387911
C 1.963985 5.808250 1.428903
C 3.008911 5.206948 0.600495
C 3.480350 6.068220 0.590722
C 3.485327 6.656382 1.442076
C 3.005855 5.784699 1.436594
C 3.949633 5.183056 0.625958
C 4.451399 6.038059 0.641244
C 4.485166 6.635049 1.364709
C 3.977513 5.759801 1.391337
C 4.988281 5.150719 0.596735
C 5.500307 6.024525 0.659340
C 5.520166 6.656098 1.491011
C 5.015245 5.813316 1.467558
C 5.977873 5.231790 0.560401
C 6.521660 6.075055 0.599071
C 6.490127 6.678944 1.375958
C 6.033306 5.748009 1.444244
C 6.949786 5.210514 0.643482
C 7.466532 6.040054 0.632877
C 7.507520 6.626406 1.450126
C 7.015506 5.777599 1.430098
C 8.003857 5.170460 0.643848
C 8.491854 6.022073 0.610326
C 8.480526 6.646436 1.478789
C 8.014452 5.796779 1.462558
C 0.039731 6.934031 0.599331
C 0.460588 7.796546 0.653964
C 0.539646 8.378793 1.442033
C 0.027882 7.466881 1.409103
C 1.006641 6.910596 0.648015
C 1.528116 7.814712 0.644395
C 1.469824 8.403964 1.411554
C 1.021115 7.498386 1.445266
C 1.984478 6.914792 0.659933
C 2.500977 7.788357 0.616634
C 2.494786 8.387591 1.472121
C 2.033424 7.505121 1.462267
C 2.980629 6.929138 0.600975
C 3.463524 7.776956 0.558573
C 3.508876 8.387400 1.459558
C 3.016746 7.495105 1.465674
C 4.002779 6.879754 0.666799
C 4.547710 7.804745 0.610522
C 4.474642 8.357044 1.433588
C 4.031191 7.456066 1.442946
C 4.986787 7.000214 0.587699
C 5.458200 7.809536 0.599372
C 5.464314 8.379013 1.415540
C 5.058033 7.525351 1.406336
C 5.999005 6.914174 0.550853
C 6.530194 7.828752 0.621545
C 6.450808 8.382344 1.440101
C 5.984819 7.543588 1.435863
C 6.975772 6.925859 0.615202
C 7.528452 7.811506 0.559017
C 7.530945 8.410953 1.443108
C 6.964925 7.548970 1.394936
C 8.020699 6.930164 0.626600
C 8.491907 7.794961 0.602366
C 8.495841 8.388520 1.376527
C 7.974238 7.483715 1.455047
C 0.097608 0.046272 2.209413
C 0.496201 0.871840 2.267404
C 0.494081 1.476924 3.110839
C 0.034965 0.579895 3.107875
C 0.948949 0.045698 2.261307
C 1.467192 0.870832 2.233256
C 1.501127 1.431841 3.072170
C 0.987634 0.572087 3.062212
C 2.001864 0.020699 2.191584
C 2.517314 0.860523 2.238612
C 2.527489 1.425297 3.037013
C 1.971722 0.543994 3.068004
C 2.950786 0.003439 2.254419
C 3.533770 0.918686 2.238897
C 3.486109 1.452079 3.046989
C 2.947122 0.565108 3.093325
C 4.071756 0.021031 2.236752
C 4.507278 0.898185 2.258272
C 4.512680 1.442439 3.021384
C 4.033192 0.591657 3.069814
C 4.957616 0.003642 2.262348
C 5.450880 0.872345 2.282983
C 5.492112 1.407713 3.095144
C 5.017619 0.558233 3.012760
C 5.991259 0.044575 2.268944
C 6.448868 0.881086 2.232472
C 6.496193 1.407568 3.055812
C 6.025266 0.590922 3.088879
C 6.975987 0.002159 2.200751
C 7.509315 0.842321 2.288722
C 7.502894 1.465379 3.051801
C 6.949044 0.588448 3.052599
C 7.987103 0.018306 2.184336
C 8.538392 0.824422 2.247638
C 8.507494 1.452083 3.082364
C 7.966071 0.619603 3.062409
C 0.008236 1.764435 2.207595
C 0.536922 2.633733 2.275676
C 0.558153 3.151443 3.034092
C 0.023661 2.285131 3.064447
C 0.969595 1.707379 2.205898
C 1.558249 2.605701 2.222111
C 1.449182 3.214811 3.031049
C 1.010248 2.287571 3.076295
C 1.977452 1.699223 2.267642
C 2.518735 2.551166 2.279428
C 2.541871 3.210428 3.062096
C 1.991510 2.306739 3.030002
C 2.967122 1.710150 2.238960
C 3.503478 2.619171 2.198407
C 3.528274 3.127128 3.076188
C 3.043737 2.341246 3.074976
C 3.965391 1.729675 2.228122
C 4.509167 2.620825 2.250162
C 4.519136 3.190520 3.070441
C 3.971319 2.274602 3.006115
C 5.008276 1.724316 2.275782
C 5.509343 2.638056 2.245244
C 5.558333 3.189228 3.077508
C 5.000387 2.241623 3.047979
C 6.039227 1.720608 2.241590
C 6.492629 2.586841 2.209256
C 6.560969 3.184148 3.079777
C 5.991915 2.355841 3.020358
C 7.015300 1.724793 2.305132
C 7.513918 2.624591 2.234232
C 7.522318 3.227824 3.073972
C 6.953734 2.306391 3.032040
C 7.986507 1.719432 2.255941
C 8.499690 2.626297 2.195108
C 8.526752 3.187213 3.057239
C 7.944879 2.325540 3.087952
C 0.048725 3.527312 2.221817
C 0.530730 4.354676 2.225538
C 0.509631 4.858080 3.073416
C 0.042783 4.044668 3.101698
C 1.032546 3.476695 2.230163
C 1.475173 4.369201 2.209513
C 1.519966 4.861588 3.076338
C 0.973345 4.003313 3.048186
C 1.990006 3.472365 2.246891
C 2.496541 4.309473 2.272233
C 2.516205 4.945910 3.080487
C 2.021115 4.020238 3.055949
C 3.002844 3.479353 2.296506
C 3.454052 4.319931 2.227405
C 3.483592 4.891810 2.999094
C 3.026292 3.976463 3.079101
C 4.056734 3.425680 2.253149
C 4.543165 4.324672 2.234403
C 4.456177 4.862511 3.046495
C 4.017456 4.067512 3.071522
C 5.031332 3.493460 2.268598
C 5.532998 4.366361 2.245715
C 5.528900 4.934010 3.101718
C 4.958745 4.049440 3.048001
C 5.976427 3.465935 2.298440
C 6.498494 4.348571 2.226693
C 6.515879 4.838893 3.076132
C 6.045899 4.028678 3.029479
C 6.969180 3.437819 2.214699
C 7.460240 4.328722 2.217230
C 7.473585 4.910584 3.042467
C 6.965713 4.072681 3.090651
C 7.980105 3.513253 2.239050
C 8.464746 4.319989 2.256004
C 8.555933 4.915983 3.073658
C 7.996876 4.093621 3.106199
C 0.031549 5.252603 2.246146
C 0.510789 6.039776 2.252116
C 0.469616 6.665190 3.094311
C 0.058563 5.770696 3.128601
C 0.984185 5.224973 2.265698
C 1.451118 6.095039 2.275610
C 1.484560 6.650437 3.125817
C 1.007395 5.784278 3.122886
C 2.027448 5.209296 2.233076
C 2.492666 6.115780 2.260274
C 2.485530 6.620750 3.103431
C 1.961744 5.723955 3.051358
C 2.987445 5.213948 2.228165
C 3.551668 6.030574 2.250526
C 3.484030 6.643647 3.112901
C 3.016751 5.734586 3.100270
C 3.970447 5.146240 2.281675
C 4.484289 6.035226 2.284217
C 4.480786 6.656135 3.086408
C 4.009872 5.791687 3.027250
C 4.940846 5.173477 2.244847
C 5.478958 6.017841 2.274084
C 5.530501 6.612776 3.059811
C 4.976749 5.724698 3.037638
C 5.999995 5.196056 2.306228
C 6.444519 6.063776 2.247983
C 6.527488 6.616496 3.004725
C 5.987901 5.779950 3.011109
C 6.981718 5.251644 2.260664
C 7.495907 6.092986 2.259059
C 7.512728 6.625023 3.031043
C 7.051292 5.777471 3.053739
C 7.984715 5.181851 2.258435
C 8.502874 6.078601 2.214236
C 8.550314 6.617549 3.030968
C 7.980602 5.733880 3.079075
C 0.070693 6.918787 2.280106
C 0.515006 7.822001 2.259127
C 0.526093 8.334477 3.093179
C 0.003721 7.455171 3.081768
C 1.024982 6.904109 2.281859
C 1.466742 7.781626 2.252975
C 1.508647 8.356528 3.065561
C 0.988717 7.448400 3.080247
C 1.989528 6.881278 2.241431
C 2.472210 7.767740 2.272414
C 2.466223 8.342661 3.020169
C 2.013911 7.494401 3.109803
C 2.974704 6.938606 2.230464
C 3.493206 7.802428 2.240351
C 3.503482 8.436106 3.038301
C 2.995968 7.516304 3.100971
C 3.996356 6.900764 2.315676
C 4.498759 7.806531 2.227542
C 4.467589 8.377258 3.097520
C 3.990565 7.493135 3.045888
C 4.967587 6.935665 2.230616
C 5.448698 7.764425 2.273671
C 5.489251 8.405142 3.101498
C 4.970078 7.449976 3.043167
C 5.940879 6.914407 2.236987
C 6.460982 7.808921 2.266418
C 6.482422 8.367416 3.027565
C 6.008308 7.479005 3.126711
C 6.957898 6.920491 2.234170
C 7.475342 7.755160 2.286988
C 7.482895 8.374109 3.117430
C 7.047891 7.529919 3.077966
C 8.054723 6.896044 2.243480
C 8.471183 7.784199 2.286477
C 8.511873 8.403565 3.015626
C 8.045658 7.543978 3.075026
C 0.016875 0.015422 3.822271
C 0.521437 0.821340 3.841450
C 0.475895 1.439467 4.702298
C 0.008188 0.603287 4.713850
C 1.012577 0.038172 3.803608
C 1.457101 0.853175 3.851789
C 1.511066 1.503132 4.676108
C 0.968813 0.591220 4.739966
C 1.978872 0.004908 3.911330
C 2.506851 0.843147 3.876949
C 2.479307 1.440072 4.701035
C 2.050745 0.568541 4.709537
C 3.061894 0.005615 3.906408
C 3.460042 0.904348 3.912884
C 3.478300 1.425552 4.676670
C 2.970568 0.591225 4.645862
C 4.006407 0.058916 3.842528
C 4.546257 0.866565 3.835624
C 4.532498 1.411045 4.710082
C 4.001868 0.572968 4.670327
C 5.015324 0.026082 3.873071
C 5.515300 0.830849 3.860924
C 5.534469 1.437568 4.665720
C 5.049637 0.599176 4.687290
C 6.006241 0.027400 3.850589
C 6.462657 0.872861 3.897684
C 6.474433 1.406255 4.643287
C 5.975316 0.547325 4.702994
C 7.004014 0.006651 3.883963
C 7.485467 0.861776 3.844299
C 7.511097 1.424173 4.730973
C 6.976574 0.606062 4.682364
C 7.989620 0.018794 3.881211
C 8.525109 0.861410 3.875552
C 8.509766 1.411733 4.651646
C 7.944238 0.595706 4.740137
C 0.009237 1.727282 3.818700
C 0.480423 2.548284 3.884851
C 0.519445 3.184214 4.730454
C 0.020413 2.301389 4.737333
C 0.955902 1.741652 3.829214
C 1.553996 2.616193 3.888615
C 1.482424 3.214496 4.743164
C 0.989097 2.279811 4.696569
C 2.040098 1.722561 3.905534
C 2.497448 2.613871 3.912946
C 2.520560 3.175967 4.726096
C 1.982868 2.285467 4.668826
C 3.024752 1.761082 3.933078
C 3.471973 2.626621 3.861582
C 3.479938 3.172512 4.681220
C 2.954611 2.316671 4.726821
C 3.954924 1.709051 3.839432
C 4.535540 2.561420 3.872107
C 4.523988 3.234716 4.702068
C 4.005975 2.305539 4.712411
C 4.984989 1.708845 3.883873
C 5.533345 2.579354 3.880321
C 5.513379 3.175053 4.668396
C 4.980743 2.334666 4.680649
C 6.007745 1.788699 3.861874
C 6.530037 2.561326 3.896502
C 6.511734 3.185517 4.699434
C 5.993505 2.316115 4.733189
C 6.965265 1.764005 3.924757
C 7.460312 2.604484 3.869655
C 7.465738 3.158685 4.643522
C 7.009470 2.275224 4.702423
C 7.997684 1.760120 3.854716
C 8.514775 2.549156 3.878352
C 8.490839 3.169913 4.699204
C 8.022204 2.300355 4.713706
C 0.001698 3.492500 3.933572
C 0.547389 4.316237 3.910917
C 0.460465 4.856177 4.659802
C 0.018661 4.035089 4.709550
C 0.982348 3.482330 3.842879
C 1.467185 4.353108 3.846799
C 1.506730 4.866143 4.681837
C 1.002784 4.005930 4.645531
C 2.003461 3.484958 3.879498
C 2.548175 4.348790 3.876257
C 2.470507 4.882782 4.643066
C 1.959254 4.025070 4.676170
C 3.026893 3.507545 3.887519
C 3.470220 4.368921 3.845178
C 3.548972 4.953254 4.721095
C 3.017192 3.988989 4.712447
C 4.002405 3.465095 3.934950
C 4.534436 4.285727 3.884933
C 4.495633 4.946332 4.707308
C 4.021567 4.048871 4.737367
C 4.989229 3.441107 3.874228
C 5.491938 4.307172 3.880351
C 5.519767 4.877516 4.682172
C 4.995280 3.996725 4.706995
C 5.942845 3.463266 3.921076
C 6.464712 4.305114 3.854499
C 6.527737 4.912102 4.657831
C 6.011331 4.074003 4.687692
C 7.035806 3.475129 3.900464
C 7.473500 4.362155 3.874588
C 7.512912 4.922261 4.629827
C 6.978956 4.012175 4.729615
C 7.947785 3.474285 3.873096
C 8.464902 4.383137 3.888067
C 8.474388 4.872811 4.693920
C 7.948069 4.045692 4.684371
C 0.009099 5.202921 3.871926
C 0.495810 6.035302 3.841214
C 0.508935 6.674956 4.700978
C 0.067692 5.743770 4.693369
C 1.005456 5.228831 3.900369
C 1.460824 6.087017 3.908201
C 1.533395 6.694590 4.670505
C 0.988807 5.766600 4.704112
C 2.002638 5.211434 3.888917
C 2.469064 6.083108 3.900149
C 2.508939 6.688745 4.693474
C 1.985996 5.815318 4.678937
C 2.951348 5.207273 3.854428
C 3.483061 6.096922 3.867084
C 3.480581 6.613000 4.685316
C 3.043476 5.820806 4.705177
C 3.970909 5.196270 3.838150
C 4.502415 6.104821 3.870133
C 4.462168 6.655023 4.705170
C 3.980135 5.771134 4.667969
C 5.014895 5.160361 3.916606
C 5.523359 6.080497 3.892375
C 5.499616 6.628893 4.641103
C 4.958715 5.805327 4.718839
C 5.976631 5.239178 3.886452
C 6.505849 6.022245 3.881252
C 6.474291 6.670055 4.668232
C 6.005559 5.775251 4.763427
C 6.996917 5.239368 3.866231
C 7.474200 6.052131 3.911157
C 7.460136 6.672942 4.706277
C 7.010687 5.809609 4.679835
C 7.977668 5.207233 3.845690
C 8.512091 6.042419 3.922599
C 8.457404 6.638049 4.691340
C 7.942972 5.725442 4.671608
C 0.018902 6.944536 3.911791
C 0.510678 7.743056 3.862879
C 0.486455 8.372836 4.717522
C 0.000202 7.525914 4.712212
C 1.003040 6.921749 3.862827
C 1.494240 7.809984 3.843015
C 1.440872 8.383509 4.681827
C 0.959166 7.550146 4.715121
C 1.962027 6.920681 3.897492
C 2.496188 7.749796 3.843805
C 2.498186 8.414494 4.722769
C 2.008385 7.491191 4.705520
C 2.988082 6.915737 3.892898
C 3.491938 7.763895 3.822590
C 3.492376 8.326796 4.655321
C 2.937883 7.488183 4.683445
C 3.982276 6.888426 3.874323
C 4.448071 7.803264 3.878597
C 4.519273 8.359359 4.656238
C 4.018561 7.499600 4.694544
C 4.997590 6.905793 3.883633
C 5.450990 7.816048 3.865975
C 5.496159 8.345863 4.687085
C 4.947533 7.481666 4.707591
C 5.989566 6.968384 3.847790
C 6.455890 7.791493 3.896328
C 6.473585 8.344035 4.651193
C 5.975531 7.562185 4.673639
C 6.984102 6.923399 3.852239
C 7.483516 7.848946 3.856095
C 7.499472 8.408694 4.667673
C 7.020677 7.535273 4.739447
C 8.036100 6.946361 3.849875
C 8.549049 7.774048 3.876897
C 8.483609 8.334463 4.645070
C 7.993371 7.511402 4.733119
C 0.017092 0.067346 5.549091
C 0.463746 0.868581 5.484297
C 0.488287 1.438120 6.276324
C 0.017836 0.620498 6.304176
C 1.010255 0.044996 5.534567
C 1.511471 0.843976 5.518995
C 1.484565 1.443184 6.287911
C 1.010358 0.580852 6.316002
C 1.989547 0.052256 5.551960
C 2.487735 0.866905 5.543600
C 2.495158 1.429357 6.365826
C 1.976967 0.580899 6.269163
C 3.036393 0.039582 5.458782
C 3.504916 0.859227 5.554895
C 3.553935 1.440331 6.300073
C 2.982786 0.576799 6.298275
C 4.005614 0.005572 5.546761
C 4.518435 0.853215 5.510567
C 4.483360 1.499394 6.323960
C 3.945661 0.604821 6.327200
C 5.054881 0.007156 5.552475
C 5.452088 0.839972 5.525919
C 5.497730 1.472398 6.317036
C 5.007267 0.618247 6.320868
C 6.043797 0.010862 5.508378
C 6.511426 0.823991 5.524197
C 6.479588 1.414959 6.315313
C 6.009930 0.577355 6.284931
C 7.009221 0.033665 5.510680
C 7.475885 0.852714 5.550542
C 7.496002 1.477620 6.339362
C 7.012941 0.564994 6.260814
C 8.026452 0.016725 5.473282
C 8.509188 0.866899 5.524158
C 8.575563 1.435827 6.339285
C 8.040400 0.535052 6.302945
C 0.008696 1.729471 5.462183
C 0.470518 2.585768 5.546068
C 0.499607 3.229973 6.360680
C 0.014811 2.256835 6.287009
C 0.971532 1.710206 5.483382
C 1.463177 2.628824 5.485873
C 1.482429 3.185763 6.371925
C 1.058686 2.327074 6.361423
C 1.986685 1.744923 5.556595
C 2.498049 2.587488 5.528813
C 2.551691 3.227171 6.305423
C 1.951590 2.321034 6.364628
C 2.960075 1.725632 5.507142
C 3.427386 2.591210 5.503322
C 3.489614 3.236139 6.345911
C 3.027909 2.260059 6.310707
C 4.015268 1.692440 5.472413
C 4.544664 2.619259 5.528877
C 4.500295 3.176342 6.385752
C 3.982927 2.301512 6.338978
C 5.000208 1.693887 5.501800
C 5.430535 2.608971 5.540817
C 5.466677 3.202767 6.341424
C 4.961298 2.311297 6.356114
C 5.990329 1.778317 5.469107
C 6.463351 2.639036 5.483859
C 6.506978 3.111281 6.325893
C 6.030634 2.321434 6.365974
C 6.975025 1.747292 5.520108
C 7.484178 2.597997 5.496459
C 7.480322 3.173550 6.273063
C 6.970978 2.349294 6.293894
C 8.004851 1.757528 5.514581
C 8.533069 2.589944 5.535776
C 8.512650 3.205970 6.330384
C 8.002902 2.270460 6.346758
C 0.057006 3.467349 5.489103
C 0.455974 4.322691 5.504364
C 0.480056 4.888879 6.273999
C 0.000743 4.074417 6.347528
C 1.038338 3.428001 5.484656
C 1.494011 4.346274 5.486021
C 1.485917 4.906155 6.299947
C 0.983370 4.025218 6.370292
C 1.942183 3.495401 5.491660
C 2.528636 4.317475 5.515976
C 2.513294 4.927432 6.349962
C 1.973804 4.069487 6.329688
C 3.038065 3.471540 5.529949
C 3.496337 4.341107 5.568706
C 3.475148 4.949496 6.334761
C 2.976860 4.105071 6.302766
C 4.013492 3.492278 5.479666
C 4.482822 4.288200 5.472294
C 4.477114 4.906488 6.324412
C 3.984291 4.040570 6.298450
C 5.018221 3.420405 5.520941
C 5.491536 4.292640 5.558509
C 5.516971 4.911521 6.323448
C 4.977707 4.055584 6.335166
C 6.006796 3.505907 5.483730
C 6.502408 4.290529 5.526050
C 6.427333 4.907534 6.367857
C 6.010682 4.043604 6.294098
C 7.016970 3.479237 5.470017
C 7.539124 4.383571 5.509701
C 7.515703 4.937844 6.330406
C 7.015590 3.993331 6.331184
C 7.963157 3.455315 5.563955
C 8.458802 4.311442 5.536602
C 8.556436 4.891104 6.316994
C 7.999589 4.004262 6.297179
C 0.010679 5.189454 5.539213
C 0.490219 6.080385 5.558076
C 0.483922 6.597868 6.382139
C 0.017140 5.789445 6.320328
C 0.969633 5.199304 5.568392
C 1.496365 6.103634 5.521247
C 1.548308 6.634511 6.307313
C 0.948236 5.735867 6.335996
C 2.026801 5.147161 5.506646
C 2.474691 6.060449 5.560231
C 2.499537 6.668630 6.335225
C 2.028567 5.778280 6.333924
C 2.979194 5.202318 5.506817
C 3.538335 6.070905 5.549910
C 3.500404 6.639388 6.277964
C 3.020144 5.810036 6.328998
C 4.024299 5.162751 5.500220
C 4.497229 6.049877 5.569297
C 4.518584 6.685008 6.381439
C 4.039773 5.741010 6.339364
C 5.021128 5.249846 5.515389
C 5.532889 6.033874 5.521542
C 5.518161 6.580563 6.334165
C 4.976110 5.717713 6.356582
C 5.982324 5.213712 5.476484
C 6.511576 6.034094 5.495500
C 6.519452 6.602971 6.338542
C 5.985752 5.750892 6.299814
C 7.038565 5.197558 5.479241
C 7.516971 6.070457 5.507162
C 7.466465 6.672680 6.303053
C 6.982644 5.723654 6.357585
C 7.968689 5.221423 5.510543
C 8.483932 6.101921 5.551760
C 8.487958 6.666095 6.352121
C 7.984689 5.758284 6.314250
C 0.042861 6.896311 5.544517
C 0.480901 7.755066 5.463983
C 0.486848 8.394563 6.268967
C 0.002288 7.552479 6.329230
C 1.029142 6.932836 5.466555
C 1.511226 7.753879 5.502803
C 1.465701 8.351374 6.286260
C 0.971873 7.509895 6.382323
C 2.004314 6.883625 5.516710
C 2.522797 7.801189 5.499366
C 2.469545 8.401629 6.312002
C 2.013397 7.534172 6.282933
C 3.013878 6.873301 5.520651
C 3.529375 7.806916 5.493335
C 3.506110 8.376840 6.276698
C 2.986743 7.508706 6.267472
C 4.003580 6.965818 5.469068
C 4.492040 7.826218 5.565352
C 4.484547 8.374378 6.271983
C 3.977966 7.508143 6.370230
C 4.943181 6.938276 5.528799
C 5.492099 7.823894 5.512694
C 5.556131 8.324828 6.329585
C 5.023831 7.455552 6.330823
C 5.966422 6.919353 5.528368
C 6.497572 7.831769 5.503483
C 6.506181 8.367289 6.264292
C 6.043973 7.531256 6.300064
C 7.026050 6.939634 5.473362
C 7.518190 7.854609 5.520828
C 7.499511 8.346615 6.293734
C 7.015957 7.486432 6.304277
C 8.002610 6.991888 5.487917
C 8.465990 7.803533 5.498863
C 8.466479 8.399062 6.282666
C 7.977979 7.451806 6.326612
C 0.030100 0.017053 7.181458
C 0.492869 0.910785 7.200218
C 0.484194 1.469485 7.929253
C 0.049991 0.577105 7.981667
C 1.004370 0.042752 7.158199
C 1.513476 0.910686 7.175869
C 1.483600 1.484864 8.007560
C 0.991104 0.564149 7.948439
C 2.033140 0.050248 7.084126
C 2.529358 0.808959 7.134569
C 2.427027 1.445435 7.963668
C 1.955623 0.600720 7.987244
C 3.027439 0.040840 7.128010
C 3.502090 0.854103 7.132194
C 3.499017 1.478550 7.971538
C 3.018787 0.579587 8.025038
C 4.024226 0.060003 7.193464
C 4.486368 0.836634 7.172209
C 4.459811 1.443660 8.028555
C 3.999682 0.575476 7.946532
C 4.950834 0.004400 7.160645
C 5.490636 0.910678 7.132705
C 5.486650 1.453386 7.929774
C 5.019719 0.558440 7.969138
C 5.985240 0.036407 7.147951
C 6.489098 0.822018 7.158000
C 6.539323 1.477595 7.958267
C 6.017982 0.615039 7.965880
C 7.004907 0.002456 7.123957
C 7.547132 0.875035 7.162324
C 7.515187 1.440117 7.915759
C 7.022922 0.607893 7.950229
C 8.033422 0.017965 7.189036
C 8.478378 0.840731 7.166383
C 8.454743 1.451298 7.978789
C 8.036037 0.539735 7.964989
C 0.024036 1.790684 7.148048
C 0.479772 2.563469 7.125816
C 0.469076 3.199010 7.918485
C 0.009919 2.287207 7.972716
C 1.011743 1.708810 7.120076
C 1.501325 2.633633 7.180885
C 1.494491 3.124439 7.921682
C 0.995178 2.288442 7.923533
C 1.972260 1.746865 7.169674
C 2.467465 2.628354 7.088173
C 2.482365 3.153372 7.910301
C 1.977072 2.305639 7.919409
C 2.994640 1.687718 7.157042
C 3.469300 2.616388 7.131392
C 3.501170 3.209863 7.938376
C 3.010734 2.313395 7.939444
C 3.959758 1.708541 7.130928
C 4.539272 2.589939 7.185715
C 4.473066 3.123758 7.940437
C 4.002617 2.342303 7.945920
C 4.976988 1.764847 7.121714
C 5.556862 2.596508 7.184738
C 5.492131 3.217809 7.938058
C 5.006823 2.285727 8.022826
C 6.041650 1.721346 7.168592
C 6.476039 2.595524 7.150699
C 6.508228 3.140868 7.967414
C 6.007728 2.270159 7.976099
C 7.019387 1.694031 7.163711
C 7.507059 2.557264 7.132420
C 7.475291 3.163469 7.924785
C 6.979764 2.286197 7.999228
C 8.029176 1.711799 7.169487
C 8.502231 2.641556 7.137727
C 8.481037 3.168325 7.961741
C 7.997615 2.284531 7.966180
C 0.027524 3.480139 7.210017
C 0.484921 4.287868 7.113244
C 0.472396 4.914688 7.930764
C 0.054702 4.082640 7.986209
C 0.985330 3.461511 7.115087
C 1.558093 4.352179 7.139332
C 1.523446 4.947927 7.983310
C 0.976485 4.049827 7.930803
C 1.983982 3.446686 7.105377
C 2.519599 4.297280 7.129704
C 2.529768 4.901901 7.926039
C 1.997805 4.025843 7.915939
C 2.964911 3.440357 7.142800
C 3.479193 4.330023 7.132100
C 3.509228 4.915427 7.906103
C 3.015880 4.054896 7.918139
C 4.037711 3.448961 7.184259
C 4.526104 4.286415 7.145531
C 4.537772 4.923556 7.951466
C 3.980427 3.986450 7.983190
C 5.039226 3.482465 7.118534
C 5.499787 4.295182 7.196979
C 5.512583 4.961565 7.974105
C 5.014569 4.025157 7.990717
C 6.045216 3.437295 7.141309
C 6.520613 4.381263 7.169817
C 6.539647 4.893208 7.952115
C 6.046005 4.022117 7.980214
C 7.005106 3.412618 7.131799
C 7.517598 4.346495 7.200494
C 7.530435 4.915557 7.966969
C 6.959387 4.056392 7.950832
C 7.968641 3.475260 7.144912
C 8.504275 4.371858 7.161248
C 8.481304 4.879314 7.964459
C 7.959746 4.068594 7.987967
C 0.015264 5.149067 7.094586
C 0.483679 6.112954 7.178149
C 0.459606 6.674779 7.978300
C 0.022573 5.745847 7.994594
C 0.995438 5.193052 7.129413
C 1.537379 6.060112 7.119323
C 1.478692 6.576017 7.984884
C 0.980145 5.775034 7.961338
C 2.017278 5.187371 7.174114
C 2.453560 6.028587 7.142552
C 2.531419 6.628874 7.998387
C 1.972966 5.779475 7.897525
C 2.956495 5.182347 7.177454
C 3.442645 6.103068 7.164341
C 3.509734 6.681449 7.948632
C 2.997472 5.796541 7.927643
C 4.026704 5.209965 7.181978
C 4.481810 6.025741 7.115151
C 4.497283 6.656524 8.029068
C 3.952635 5.790606 7.991905
C 4.981150 5.152175 7.094529
C 5.542768 6.062983 7.098465
C 5.499508 6.600445 7.965568
C 5.017062 5.775807 8.012054
C 6.030735 5.208832 7.184060
C 6.473154 6.047377 7.113442
C 6.494362 6.605331 8.009355
C 6.014486 5.767348 7.977332
C 7.003502 5.186500 7.189218
C 7.499626 6.051638 7.164088
C 7.469654 6.597589 7.950938
C 7.014966 5.829137 7.921337
C 7.967653 5.196241 7.145115
C 8.476282 6.070836 7.102052
C 8.521451 6.611530 7.963056
C 8.034802 5.790790 8.000729
C 0.005791 6.926956 7.143729
C 0.508337 7.792612 7.122318
C 0.497570 8.382074 7.927207
C 0.028038 7.493463 7.931711
C 0.978444 6.920079 7.144215
C 1.552473 7.791775 7.119659
C 1.467113 8.418442 7.973094
C 0.984392 7.533951 8.010810
C 2.008738 6.956959 7.117099
C 2.493247 7.809078 7.074528
C 2.460650 8.387199 7.976508
C 1.969208 7.551900 7.932488
C 2.984238 6.887980 7.156079
C 3.556964 7.816579 7.133675
C 3.464644 8.412914 7.938446
C 2.974538 7.520206 7.978068
C 3.980602 6.956358 7.069373
C 4.491081 7.777755 7.159152
C 4.519271 8.339610 7.981605
C 4.008632 7.483274 7.989868
C 4.998339 6.937047 7.184331
C 5.503887 7.818750 7.125671
C 5.502949 8.402631 7.932228
C 5.061406 7.492121 7.995338
C 5.983409 6.928589 7.096741
C 6.485908 7.839528 7.141132
C 6.525852 8.338392 7.931143
C 5.995477 7.503614 7.986833
C 6.982082 6.921542 7.150978
C 7.507526 7.757766 7.171280
C 7.527427 8.379701 7.969714
C 7.025874 7.540507 7.910369
C 8.009774 6.981925 7.170644
C 8.467175 7.832430 7.118864
C 8.517765 8.375888 8.004242
C 7.956398 7.483036 7.949206
C 0.030754 0.000938 8.786912
C 0.467845 0.835124 8.797853
C 0.497107 1.463169 9.548076
C 0.058471 0.566935 9.525567
C 0.969273 0.024216 8.727628
C 1.493774 0.919155 8.769779
C 1.471450 1.405782 9.556203
C 0.989772 0.593980 9.567351
C 1.954565 0.026343 8.786983
C 2.478073 0.865797 8.740543
C 2.545973 1.405378 9.565382
C 1.961736 0.586105 9.589381
C 3.033142 0.000252 8.768903
C 3.502025 0.845392 8.790246
C 3.493375 1.409452 9.558489
C 3.027292 0.570329 9.587957
C 4.054834 0.032727 8.754058
C 4.522493 0.855634 8.776549
C 4.517407 1.463605 9.562256
C 3.993187 0.550164 9.571285
C 4.956984 0.027547 8.732532
C 5.511321 0.914146 8.792180
C 5.511067 1.435929 9.547707
C 4.999196 0.623103 9.529803
C 5.998464 0.002546 8.798411
C 6.467489 0.859213 8.799941
C 6.539466 1.485691 9.580868
C 5.943416 0.600365 9.553063
C 7.013389 0.001410 8.761925
C 7.506636 0.863458 8.763686
C 7.496748 1.439612 9.592590
C 7.001203 0.603823 9.549518
C 7.986402 0.006164 8.748501
C 8.522715 0.900397 8.825140
C 8.496452 1.399964 9.588297
C 7.949815 0.523979 9.565848
C 0.027303 1.737193 8.705679
C 0.481572 2.562504 8.746681
C 0.475849 3.197396 9.570040
C 0.086168 2.335235 9.578226
C 0.970963 1.726941 8.719175
C 1.540547 2.616844 8.802225
C 1.529792 3.124108 9.549273
C 1.005467 2.302700 9.580548
C 1.980991 1.696580 8.791031
C 2.511487 2.548897 8.756267
C 2.540446 3.165562 9.552224
C 2.055916 2.328066 9.588459
C 3.020390 1.708567 8.767845
C 3.538115 2.652855 8.812730
C 3.500872 3.200593 9.561074
C 3.020163 2.346653 9.584837
C 4.022990 1.748774 8.822905
C 4.519989 2.603134 8.765317
C 4.457048 3.158264 9.589870
C 4.032144 2.328526 9.548492
C 5.002005 1.679864 8.801078
C 5.504669 2.601650 8.725636
C 5.556973 3.178430 9.554925
C 5.031173 2.335752 9.583368
C 6.035051 1.727716 8.764471
C 6.502553 2.568883 8.777755
C 6.510218 3.130309 9.567537
C 5.962949 2.284414 9.570505
C 6.972429 1.722482 8.723941
C 7.524909 2.577343 8.721481
C 7.497303 3.136177 9.592073
C 6.921072 2.315110 9.567009
C 7.987615 1.749546 8.761922
C 8.460383 2.563631 8.791962
C 8.492599 3.170156 9.570379
C 8.009134 2.351815 9.538106
C 0.008041 3.455050 8.826240
C 0.486883 4.346322 8.734816
C 0.456558 4.919208 9.581672
C 0.063105 4.067181 9.571519
C 1.016209 3.477061 8.796295
C 1.524316 4.357459 8.829846
C 1.463050 4.923310 9.586967
C 1.029667 4.036704 9.575648
C 1.987996 3.505778 8.742252
C 2.492745 4.320193 8.779631
C 2.500447 4.898205 9.556483
C 1.954542 4.008431 9.571016
C 3.038024 3.471615 8.801378
C 3.449108 4.338515 8.828351
C 3.523510 4.949931 9.522848
C 3.049550 4.027134 9.576600
C 4.024141 3.471315 8.789462
C 4.543074 4.327638 8.838548
C 4.497889 4.984121 9.576985
C 3.972289 4.034183 9.579388
C 5.024176 3.438978 8.747778
C 5.517250 4.395681 8.766287
C 5.448965 4.943156 9.578675
C 4.988024 4.041701 9.571390
C 5.954151 3.494850 8.763391
C 6.507739 4.370304 8.757051
C 6.533820 4.858514 9.578387
C 6.051446 4.043978 9.533348
C 6.942270 3.467370 8.795597
C 7.504420 4.321361 8.757113
C 7.537074 4.903568 9.560065
C 7.011971 4.074903 9.575217
C 8.034015 3.468243 8.798313
C 8.498025 4.269909 8.766641
C 8.489330 4.943841 9.561744
C 7.949885 4.055974 9.579656
C 0.094024 5.189198 8.744765
C 0.447249 6.091164 8.806609
C 0.473408 6.632979 9.578906
C 0.024625 5.709732 9.574414
C 1.036051 5.168257 8.765426
C 1.484382 6.034289 8.791206
C 1.545297 6.654232 9.547717
C 1.007221 5.841526 9.579902
C 2.000305 5.240905 8.741148
C 2.512693 6.049609 8.789387
C 2.498047 6.598352 9.547692
C 1.941386 5.806362 9.549180
C 2.994925 5.239987 8.747988
C 3.454370 6.099687 8.815903
C 3.473787 6.656590 9.548238
C 3.007567 5.725391 9.592983
C 4.021606 5.170299 8.765637
C 4.520645 6.062541 8.720559
C 4.468910 6.685738 9.586274
C 4.002120 5.731553 9.583798
C 5.000922 5.144932 8.798072
C 5.531001 6.066986 8.816259
C 5.481201 6.656377 9.564429
C 5.018244 5.747237 9.587895
C 6.002672 5.153383 8.785531
C 6.451260 6.034468 8.803229
C 6.512648 6.678887 9.575121
C 6.038573 5.802832 9.573805
C 7.027493 5.200414 8.779828
C 7.520950 6.060731 8.814202
C 7.471611 6.632491 9.593184
C 7.029024 5.749752 9.568883
C 8.039986 5.222776 8.808934
C 8.452515 5.995945 8.764557
C 8.543257 6.618658 9.527485
C 8.047366 5.764707 9.576353
C 0.051079 6.939233 8.799663
C 0.470932 7.781234 8.731162
C 0.556843 8.395659 9.554738
C 0.003355 7.481351 9.530108
C 1.014567 6.922900 8.810604
C 1.485947 7.745468 8.793109
C 1.509608 8.356394 9.529370
C 0.976820 7.574122 9.582276
C 1.986390 6.910645 8.820677
C 2.536378 7.791641 8.782839
C 2.461267 8.359099 9.585927
C 2.012548 7.454818 9.557140
C 3.019194 6.931685 8.758672
C 3.492986 7.757007 8.807642
C 3.550128 8.376080 9.559970
C 2.990273 7.506438 9.566803
C 3.992187 6.967789 8.780448
C 4.480690 7.803609 8.753471
C 4.521163 8.351520 9.545988
C 3.963542 7.520565 9.592179
C 4.973044 6.932396 8.830009
C 5.524436 7.806566 8.816194
C 5.516165 8.360319 9.587642
C 5.090656 7.459633 9.586940
C 5.955896 6.895325 8.765476
C 6.512413 7.763447 8.807553
C 6.537321 8.423673 9.584480
C 5.950135 7.519040 9.572505
C 7.014434 6.969241 8.774051
C 7.529351 7.826244 8.764300
C 7.569944 8.325977 9.586449
C 6.965483 7.557613 9.565055
C 7.995443 6.928667 8.826955
C 8.499679 7.800573 8.826527
C 8.515894 8.307752 9.568039
C 8.003267 7.473204 9.541408
2160
Frame 4/10
C 0.099377 0.009823 0.107303
C 0.581925 0.857811 0.029408
C 0.509094 1.500562 0.823010
C 0.000265 0.632845 0.862787
C 1.095271 0.053297 0.057882
C 1.465226 0.833204 0.046342
C 1.583673 1.432686 0.831065
C 1.053428 0.612368 0.780944
C 2.025857 0.057004 0.027907
C 2.454526 0.879137 0.087691
C 2.517238 1.450035 0.880003
C 1.956071 0.570495 0.816728
C 2.929896 0.046696 0.036563
C 3.496304 0.831907 0.019087
C 3.465789 1.429395 0.792690
C 3.008405 0.632055 0.733220
C 3.941179 0.057020 0.057922
C 4.469671 0.814185 0.017774
C 4.509268 1.396408 0.793123
C 4.008275 0.506307 0.814471
C 4.929202 0.033319 0.049501
C 5.552909 0.871784 0.002188
C 5.424357 1.423626 0.806768
C 5.019591 0.565579 0.806157
C 6.051135 0.104263 0.031698
C 6.504968 0.756472 0.031394
C 6.517753 1.477532 0.829876
C 6.008444 0.496280 0.807754
C 7.089007 0.022078 0.012122
C 7.454420 0.868253 0.068896
C 7.586893 1.454764 0.831637
C 7.048756 0.597047 0.887251
C 8.025883 0.040542 0.002138
C 8.546528 0.956686 0.028174
C 8.469149 1.465553 0.765345
C 7.887182 0.597638 0.770094
C 0.152234 1.687522 0.011709
C 0.487139 2.688178 0.051680
C 0.466674 3.124434 0.817762
C 0.055685 2.221473 0.835123
C 0.944638 1.694777 0.051643
C 1.441984 2.541693 0.008963
C 1.450270 3.207646 0.826486
C 1.002134 2.351406 0.793469
C 1.958709 1.645712 0.005986
C 2.524817 2.582933 0.053667
C 2.535207 3.157604 0.847108
C 1.989308 2.289159 0.766545
C 3.008209 1.754441 0.014395
C 3.581500 2.576554 0.013363
C 3.529814 3.181828 0.751200
C 3.006195 2.278103 0.861060
C 3.930462 1.756496 0.089389
C 4.577366 2.508781 0.011103
C 4.562633 3.173076 0.871457
C 3.992203 2.365202 0.748963
C 4.899690 1.785282 0.021616
C 5.484328 2.539425 0.020627
C 5.442095 3.144097 0.889913
C 4.980595 2.359828 0.854195
C 5.990227 1.730203 0.028686
C 6.527600 2.720490 0.021540
C 6.509270 3.126277 0.776756
C 6.059550 2.299639 0.852889
C 7.029937 1.777109 0.074203
C 7.537322 2.544781 0.048861
C 7.491470 3.199284 0.891873
C 6.907477 2.290632 0.861936
C 7.958875 1.774744 0.008591
C 8.553940 2.596109 0.002000
C 8.503976 3.126206 0.821689
C 7.962325 2.244192 0.881548
C 0.015828 3.388426 0.094061
C 0.492529 4.374346 0.073641
C 0.530512 5.007030 0.801485
C 0.003877 3.987558 0.841045
C 1.025252 3.421164 0.042308
C 1.544004 4.264127 0.036957
C 1.550981 4.868077 0.851275
C 0.978920 4.002622 0.860587
C 1.980322 3.547636 0.035773
C 2.460271 4.326155 0.051616
C 2.541599 4.859785 0.875372
C 1.947830 4.037696 0.827259
C 3.023576 3.472810 0.067029
C 3.551655 4.254822 0.000434
C 3.505874 4.952058 0.870079
C 3.050277 3.999038 0.763479
C 4.032488 3.506674 0.026896
C 4.539862 4.316625 0.003561
C 4.531273 4.894419 0.804869
C 4.005355 4.135998 0.844694
C 5.004671 3.401438 0.043321
C 5.510735 4.419581 0.098725
C 5.399074 4.904836 0.842675
C 5.022414 4.099563 0.786306
C 5.957043 3.415444 0.058163
C 6.481815 4.365358 0.011238
C 6.408741 4.840299 0.848405
C 5.989214 4.074850 0.868146
C 6.983211 3.522291 0.063359
C 7.429256 4.342933 0.011916
C 7.517343 4.914560 0.772167
C 6.931902 4.046695 0.788988
C 7.967715 3.433288 0.102598
C 8.411980 4.316211 0.002097
C 8.441078 4.836415 0.770291
C 7.962157 3.949678 0.796046
C 0.077121 5.108829 0.006313
C 0.477889 6.151863 0.013828
C 0.464960 6.635332 0.749959
C 0.058547 5.798559 0.734190
C 0.985247 5.181780 0.004368
C 1.477789 6.103423 0.008873
C 1.472576 6.740359 0.781371
C 0.939174 5.800153 0.752446
C 1.955604 5.250054 0.049607
C 2.582792 6.079728 0.079288
C 2.555452 6.702023 0.825867
C 2.015839 5.822228 0.755344
C 2.996766 5.185404 0.014417
C 3.493670 6.035907 0.051322
C 3.470516 6.663795 0.830953
C 3.058523 5.791818 0.795526
C 4.074794 5.224642 0.101649
C 4.515575 6.072308 0.039578
C 4.584807 6.720607 0.829681
C 3.971351 5.750632 0.737876
C 4.954576 5.240887 0.005041
C 5.590317 6.075893 0.067035
C 5.564800 6.623136 0.809369
C 5.052836 5.794626 0.888502
C 5.925435 5.183657 0.019830
C 6.472920 6.129160 0.003008
C 6.608437 6.572553 0.832308
C 5.987016 5.774998 0.813228
C 7.075115 5.199869 0.000760
C 7.505588 5.986805 0.082192
C 7.458630 6.645258 0.764933
C 7.036612 5.779641 0.871646
C 7.957514 5.190738 0.016145
C 8.608972 6.057854 0.012910
C 8.533430 6.710705 0.783151
C 7.948142 5.761073 0.789093
C 0.001337 6.856541 0.033501
C 0.531002 7.807774 0.027557
C 0.483556 8.428348 0.761979
C 0.031447 7.470472 0.821517
C 1.056483 6.919588 0.037242
C 1.430602 7.761053 0.003985
C 1.521376 8.345987 0.804828
C 1.000036 7.438456 0.887364
C 2.051978 6.927815 0.006419
C 2.502834 7.872045 0.035890
C 2.579402 8.366468 0.825124
C 2.058439 7.493407 0.759563
C 2.975133 7.021668 0.017660
C 3.395896 7.815674 0.017438
C 3.504114 8.346567 0.766715
C 3.016662 7.532715 0.892840
C 4.038740 6.828426 0.031298
C 4.468630 7.850498 0.029447
C 4.444143 8.441432 0.772394
C 4.009724 7.512273 0.778971
C 5.008332 6.904231 0.031053
C 5.409322 7.782166 0.041979
C 5.477203 8.345105 0.734561
C 5.010970 7.538889 0.788922
C 5.906250 6.954926 0.018140
C 6.509094 7.808237 0.043317
C 6.446105 8.396112 0.766851
C 5.958928 7.533839 0.744555
C 7.093089 6.923105 0.028651
C 7.497550 7.758489 0.024999
C 7.454236 8.405011 0.831217
C 7.012387 7.572308 0.845806
C 8.000929 6.940237 0.089290
C 8.479233 7.759271 0.026925
C 8.511456 8.314077 0.835961
C 8.011522 7.529058 0.747120
C 0.007228 0.063433 1.704054
C 0.511625 0.915503 1.590289
C 0.493061 1.448597 2.408376
C 0.053966 0.523904 2.418447
C 1.052626 0.075945 1.663810
C 1.531810 0.902522 1.677880
C 1.510239 1.386275 2.422239
C 0.992438 0.577489 2.509510
C 1.947171 0.026517 1.572852
C 2.484885 0.840259 1.652980
C 2.545394 1.400709 2.430548
C 2.003807 0.509254 2.473991
C 2.940127 0.034717 1.642649
C 3.471382 0.832147 1.686637
C 3.515038 1.440264 2.433442
C 2.984165 0.540042 2.467271
C 4.005996 0.004904 1.691956
C 4.554518 0.786233 1.603106
C 4.427810 1.447008 2.510270
C 4.039313 0.545223 2.435402
C 4.941143 0.060914 1.688960
C 5.534485 0.880647 1.632386
C 5.573126 1.403555 2.390606
C 4.993421 0.608663 2.465584
C 5.933517 0.052785 1.682777
C 6.560269 0.897503 1.581789
C 6.445564 1.393914 2.456667
C 6.063254 0.614868 2.531313
C 6.972855 0.004301 1.635468
C 7.521456 0.812683 1.673242
C 7.480392 1.505154 2.499639
C 7.046053 0.588032 2.508270
C 8.076232 0.012354 1.626840
C 8.478872 0.889421 1.625623
C 8.527530 1.479911 2.357414
C 7.998426 0.610759 2.399915
C 0.035267 1.785045 1.591450
C 0.498860 2.549059 1.605974
C 0.453834 3.238854 2.502653
C 0.022983 2.300953 2.430295
C 0.939782 1.722431 1.612268
C 1.512170 2.663279 1.594522
C 1.571829 3.197135 2.510411
C 0.971700 2.233837 2.445043
C 2.019894 1.792871 1.696009
C 2.579706 2.621208 1.599916
C 2.480516 3.197215 2.389265
C 1.925908 2.258971 2.483091
C 2.991120 1.713180 1.681885
C 3.559973 2.542308 1.631409
C 3.472744 3.213280 2.508349
C 2.948273 2.233136 2.398046
C 4.023826 1.767252 1.704977
C 4.477293 2.663508 1.665986
C 4.505026 3.196675 2.496740
C 3.975118 2.297093 2.410030
C 4.994872 1.745427 1.639970
C 5.542613 2.619288 1.625722
C 5.442960 3.187447 2.381431
C 5.032003 2.314122 2.439495
C 6.028308 1.786111 1.704541
C 6.551598 2.621144 1.575703
C 6.480918 3.171074 2.506812
C 6.068778 2.326858 2.511070
C 6.994400 1.678594 1.606939
C 7.507618 2.630287 1.573610
C 7.450619 3.185476 2.487030
C 6.939906 2.221289 2.398826
C 8.024553 1.710523 1.568361
C 8.507520 2.549081 1.646413
C 8.525837 3.170730 2.422085
C 7.967151 2.340659 2.519480
C 0.001833 3.468119 1.720035
C 0.465383 4.321956 1.687142
C 0.512354 4.866762 2.415357
C 0.003849 4.025246 2.545956
C 1.017394 3.395672 1.682400
C 1.415869 4.418429 1.629052
C 1.475180 4.952220 2.441766
C 0.983789 4.098088 2.524376
C 2.052579 3.507985 1.704896
C 2.510486 4.267143 1.641155
C 2.553892 4.899110 2.468277
C 2.016223 4.080108 2.415435
C 2.956767 3.507855 1.579252
C 3.441318 4.310179 1.651970
C 3.461763 4.963535 2.458518
C 3.026028 4.066265 2.501503
C 3.995146 3.493898 1.698225
C 4.502157 4.391334 1.608908
C 4.470202 4.819593 2.403213
C 3.975823 4.036132 2.526234
C 5.044369 3.498244 1.616305
C 5.468048 4.405549 1.601434
C 5.469240 4.823522 2.470762
C 4.942927 3.999197 2.472727
C 5.958995 3.526993 1.689704
C 6.567751 4.295928 1.711109
C 6.448670 4.857873 2.400960
C 5.979647 4.005181 2.474422
C 6.953377 3.418612 1.634646
C 7.472012 4.349040 1.614667
C 7.501177 4.908375 2.383271
C 7.077568 3.967767 2.469473
C 8.070837 3.414437 1.610395
C 8.444604 4.336825 1.667881
C 8.459719 4.831888 2.509051
C 7.990210 4.058758 2.481578
C 0.054832 5.203895 1.670833
C 0.516065 6.058209 1.722622
C 0.542701 6.607279 2.522596
C 0.030873 5.769353 2.449127
C 1.042861 5.189599 1.643665
C 1.419693 6.050605 1.559800
C 1.537357 6.647392 2.423149
C 1.010627 5.750510 2.465175
C 1.952507 5.182513 1.597761
C 2.498980 6.017286 1.615277
C 2.550754 6.718481 2.454443
C 1.995929 5.694897 2.488246
C 2.942840 5.243245 1.607702
C 3.528297 6.059801 1.641189
C 3.494505 6.596403 2.413690
C 2.952768 5.788062 2.509975
C 4.005539 5.176318 1.682891
C 4.473981 6.037798 1.628765
C 4.548978 6.634971 2.477724
C 4.012012 5.835194 2.471411
C 4.908847 5.176344 1.669574
C 5.507690 6.068639 1.597156
C 5.456646 6.671888 2.488508
C 5.015135 5.717971 2.415974
C 5.974171 5.150787 1.659225
C 6.495842 6.128719 1.599661
C 6.558811 6.602789 2.401452
C 6.083639 5.760384 2.475687
C 6.997087 5.221499 1.617678
C 7.558942 6.032973 1.617407
C 7.401865 6.586880 2.443017
C 6.906362 5.791384 2.460114
C 8.027738 5.173398 1.538029
C 8.469394 6.002258 1.687419
C 8.500293 6.595466 2.503177
C 8.052256 5.778620 2.546003
C 0.005021 6.943854 1.722949
C 0.483412 7.721485 1.616791
C 0.505170 8.445135 2.393275
C 0.044049 7.556920 2.346675
C 0.989404 6.826676 1.650886
C 1.565932 7.763431 1.683452
C 1.454269 8.404586 2.425835
C 1.045116 7.455886 2.425161
C 1.938807 6.968070 1.665232
C 2.507724 7.780519 1.698765
C 2.522061 8.384817 2.475438
C 1.991986 7.481334 2.423291
C 2.997618 6.870928 1.625324
C 3.398311 7.790539 1.688147
C 3.586542 8.422153 2.425932
C 3.007404 7.503574 2.484459
C 4.028346 6.890124 1.610882
C 4.497480 7.712084 1.648022
C 4.486537 8.421496 2.362406
C 3.969930 7.412336 2.433801
C 4.959166 6.843779 1.633814
C 5.530432 7.752747 1.707076
C 5.498534 8.408852 2.431569
C 4.950729 7.563034 2.410700
C 5.978735 6.900463 1.618351
C 6.460601 7.822201 1.597058
C 6.451646 8.312083 2.478530
C 5.957479 7.513753 2.531084
C 6.993761 6.956197 1.587318
C 7.573898 7.787961 1.622410
C 7.563307 8.334459 2.453379
C 7.005021 7.547271 2.438927
C 8.008206 6.967295 1.590467
C 8.561684 7.795536 1.649127
C 8.533048 8.416623 2.357568
C 7.986676 7.536694 2.471339
C 0.012720 0.010239 3.223639
C 0.507131 0.826958 3.283935
C 0.478450 1.419538 4.137775
C 0.084164 0.619950 4.012693
C 0.967454 0.049747 3.230627
C 1.494433 0.923003 3.322701
C 1.424301 1.437729 4.131509
C 1.037178 0.635097 4.133479
C 2.062631 0.051449 3.232391
C 2.559295 0.907165 3.226064
C 2.525673 1.487740 4.022181
C 1.981902 0.552837 4.138357
C 2.989651 0.034366 3.366996
C 3.541116 0.865844 3.231149
C 3.586481 1.431182 4.119093
C 3.105406 0.596107 4.056447
C 3.957294 0.019974 3.318507
C 4.490911 0.956239 3.334136
C 4.427197 1.502663 4.075996
C 3.929163 0.511663 4.047432
C 5.043196 0.047797 3.225316
C 5.544059 0.903171 3.311735
C 5.535504 1.466408 4.079903
C 5.017190 0.524217 4.079487
C 6.038886 0.019441 3.206550
C 6.517843 0.951187 3.300758
C 6.602789 1.420978 4.109017
C 6.000311 0.618488 3.997412
C 6.965967 0.033349 3.361690
C 7.489685 0.869400 3.152996
C 7.515441 1.514405 4.129384
C 7.050127 0.625548 4.163856
C 7.954866 0.037752 3.266148
C 8.547758 0.962945 3.287875
C 8.540293 1.445971 4.009977
C 8.006181 0.587937 4.079816
C 0.103784 1.797873 3.311038
C 0.444964 2.542434 3.319834
C 0.449839 3.185723 4.052351
C 0.082163 2.366176 4.138744
C 1.056572 1.671561 3.296014
C 1.547450 2.689963 3.265455
C 1.514664 3.202969 4.108693
C 1.040344 2.313926 4.145516
C 2.033314 1.784562 3.333040
C 2.464913 2.649678 3.344315
C 2.500227 3.130458 4.006960
C 2.062446 2.242265 4.119597
C 3.019853 1.792320 3.351978
C 3.445586 2.638523 3.303581
C 3.516036 3.209003 4.105984
C 2.939226 2.304794 4.007580
C 4.035352 1.716435 3.180070
C 4.497629 2.644224 3.213792
C 4.435111 3.181575 4.067030
C 4.077779 2.248829 4.044017
C 5.070076 1.714384 3.243314
C 5.486386 2.595372 3.343793
C 5.577763 3.127295 4.060370
C 5.009964 2.371979 4.001376
C 6.076862 1.673066 3.265885
C 6.496339 2.585958 3.289572
C 6.524632 3.149547 4.101487
C 5.952216 2.259318 4.118878
C 6.983442 1.748988 3.216719
C 7.464937 2.673980 3.217560
C 7.500728 3.196545 4.085007
C 7.048786 2.249424 4.068284
C 7.936022 1.774567 3.238183
C 8.468482 2.597858 3.246509
C 8.490701 3.195219 4.154911
C 7.994255 2.348801 4.115787
C 0.063391 3.421845 3.270442
C 0.511841 4.251172 3.189184
C 0.516131 4.824037 4.070400
C 0.037205 4.112596 4.045474
C 0.940888 3.466116 3.243787
C 1.516383 4.303690 3.303007
C 1.509680 4.848251 4.059812
C 0.975429 3.986675 4.090444
C 1.963499 3.428186 3.256644
C 2.492136 4.340284 3.359832
C 2.558259 4.916262 4.040196
C 1.970504 4.083758 4.017486
C 3.027008 3.375745 3.316871
C 3.466266 4.274170 3.245329
C 3.524757 4.888623 3.999283
C 3.009122 3.980372 4.157613
C 3.965984 3.490349 3.298561
C 4.468334 4.316065 3.342417
C 4.438349 4.881197 4.125646
C 4.041877 4.046477 4.054412
C 4.995138 3.491377 3.236264
C 5.492653 4.313726 3.245782
C 5.553357 4.855792 4.141763
C 5.025264 3.968616 4.054259
C 6.074042 3.437885 3.300974
C 6.412282 4.340291 3.223232
C 6.526458 4.863460 4.018974
C 5.954698 3.981967 4.031464
C 7.066642 3.510396 3.331416
C 7.493291 4.341258 3.241312
C 7.460087 4.892894 3.997888
C 7.020028 4.049908 4.119632
C 8.047039 3.450487 3.204250
C 8.548997 4.285425 3.240358
C 8.546820 4.933786 4.001309
C 7.972764 4.031263 4.159321
C 0.046236 5.213960 3.298278
C 0.433963 6.087108 3.288775
C 0.509773 6.733688 4.066346
C 0.039586 5.758220 4.178268
C 1.013392 5.257360 3.251540
C 1.506787 6.114689 3.228151
C 1.427328 6.629153 4.090441
C 0.924607 5.826234 4.093524
C 1.952094 5.215164 3.299838
C 2.440633 6.103097 3.229649
C 2.465531 6.595204 4.106423
C 1.985690 5.775470 4.088948
C 3.005378 5.186786 3.296957
C 3.584219 6.092728 3.203676
C 3.520291 6.693113 4.149000
C 2.988104 5.840961 4.072883
C 4.026541 5.221050 3.215468
C 4.470189 5.993690 3.263996
C 4.512055 6.613184 4.132983
C 3.968000 5.777052 4.101551
C 4.998151 5.216601 3.324340
C 5.485355 5.999830 3.324832
C 5.463524 6.594840 4.051653
C 4.968744 5.723621 4.071926
C 5.973313 5.258826 3.228410
C 6.560219 6.002749 3.295042
C 6.554018 6.684708 4.068241
C 5.941752 5.775356 4.035028
C 6.947824 5.211056 3.235089
C 7.473185 6.049548 3.343707
C 7.535966 6.613925 4.006927
C 7.043509 5.752331 4.068214
C 8.056763 5.173244 3.187353
C 8.539534 6.040585 3.215345
C 8.483233 6.631996 4.099303
C 8.061313 5.775160 4.080786
C 0.085257 6.956873 3.326438
C 0.425145 7.745917 3.284284
C 0.432298 8.387647 4.092105
C 0.083207 7.535695 4.067566
C 0.959155 6.861370 3.304037
C 1.470058 7.780671 3.264473
C 1.544007 8.304592 4.058118
C 0.978416 7.487301 3.995616
C 1.940914 6.878339 3.296835
C 2.517831 7.769067 3.192479
C 2.459866 8.414624 4.023029
C 2.060864 7.463556 4.052323
C 3.027271 6.920755 3.299774
C 3.503246 7.857677 3.326473
C 3.513864 8.337995 4.051618
C 2.955590 7.479618 4.070139
C 3.997631 6.933116 3.264165
C 4.555976 7.768094 3.204961
C 4.513701 8.300077 4.116015
C 4.044372 7.477647 4.085513
C 4.964429 6.889490 3.222710
C 5.473993 7.799689 3.217499
C 5.487335 8.434655 4.159488
C 5.051609 7.511929 4.076056
C 5.962304 6.959459 3.202748
C 6.513784 7.734115 3.272826
C 6.588382 8.403777 4.072130
C 5.967685 7.483122 4.172707
C 7.004244 7.005240 3.296838
C 7.518917 7.838042 3.255313
C 7.556723 8.368948 4.153630
C 7.044187 7.530254 4.014049
C 7.987451 6.978499 3.287528
C 8.517650 7.725449 3.289766
C 8.457080 8.395808 4.064246
C 8.002676 7.523805 4.171424
C 0.073655 0.033988 4.881836
C 0.420773 0.889030 4.923110
C 0.585659 1.461498 5.722066
C 0.013010 0.640256 5.691742
C 1.023857 0.011643 5.002430
C 1.505190 0.890770 4.989672
C 1.579630 1.458985 5.667930
C 1.016934 0.575188 5.667499
C 1.935754 0.019018 4.887231
C 2.457102 0.889720 4.833398
C 2.538495 1.428324 5.702535
C 2.009197 0.631574 5.679642
C 3.018316 0.056573 4.817197
C 3.417130 0.922975 4.906587
C 3.518745 1.457905 5.690963
C 2.946307 0.605809 5.703342
C 4.023498 0.033656 4.889382
C 4.530943 0.851408 4.860347
C 4.563995 1.390561 5.745489
C 3.955059 0.608646 5.781996
C 5.061795 0.002643 4.973383
C 5.488917 0.863275 4.907227
C 5.530505 1.391142 5.766096
C 5.006150 0.523674 5.733919
C 5.939182 0.001469 4.882341
C 6.502526 0.821670 4.953418
C 6.551539 1.497075 5.743361
C 5.991946 0.651492 5.656610
C 7.056697 0.034866 4.961202
C 7.485217 0.925384 4.962506
C 7.557034 1.471067 5.697470
C 7.074428 0.536615 5.707850
C 8.003588 0.083875 4.807411
C 8.461562 0.864480 4.827717
C 8.483023 1.433251 5.706250
C 7.975614 0.559396 5.754641
C 0.007137 1.708732 4.850396
C 0.474052 2.623435 4.947930
C 0.476881 3.174307 5.673909
C 0.003866 2.362767 5.677696
C 0.937728 1.786254 4.946362
C 1.520651 2.552013 4.870371
C 1.458003 3.096843 5.710986
C 1.024708 2.288073 5.631318
C 1.995575 1.759970 4.841579
C 2.466853 2.620973 4.868830
C 2.571144 3.178566 5.768086
C 2.080068 2.290616 5.683038
C 3.031047 1.787015 4.913147
C 3.440435 2.672687 4.893780
C 3.521418 3.137216 5.682457
C 3.014128 2.237263 5.692428
C 3.994848 1.716028 4.872203
C 4.513019 2.545576 4.869557
C 4.472726 3.169508 5.660053
C 4.014344 2.338916 5.790310
C 4.982052 1.712812 4.841400
C 5.461571 2.557850 4.920005
C 5.517658 3.200801 5.790488
C 4.966293 2.336743 5.709285
C 5.925797 1.766879 4.851292
C 6.498572 2.605938 4.861102
C 6.553543 3.215972 5.686257
C 5.977308 2.373043 5.715084
C 7.030085 1.755553 4.938673
C 7.493214 2.646109 4.825112
C 7.483335 3.258974 5.708704
C 6.937489 2.308638 5.714579
C 8.003925 1.756321 4.918471
C 8.469464 2.665693 4.892439
C 8.451129 3.173373 5.725167
C 8.055746 2.312011 5.668619
C 0.037867 3.402979 4.893444
C 0.540542 4.278229 4.886696
C 0.551964 4.895054 5.742748
C 0.065695 3.990011 5.790302
C 1.021703 3.430756 4.852311
C 1.486788 4.372504 4.929848
C 1.460818 5.006922 5.741946
C 0.939590 4.057450 5.753366
C 2.054102 3.422349 4.861500
C 2.496540 4.344298 4.995859
C 2.489197 4.855601 5.708918
C 2.022559 4.019093 5.657210
C 2.942564 3.471541 4.833405
C 3.490113 4.376096 4.872729
C 3.573790 4.936155 5.679441
C 2.975601 3.982325 5.663206
C 3.978138 3.431586 4.872623
C 4.521223 4.340499 4.900927
C 4.519504 4.965734 5.741455
C 3.917658 4.099620 5.661276
C 5.051521 3.404282 4.889882
C 5.567549 4.372097 4.866127
C 5.501987 4.970874 5.792593
C 5.020259 4.015361 5.769104
C 6.010499 3.525213 4.830720
C 6.446757 4.378004 4.886175
C 6.481334 4.881356 5.743358
C 5.931950 4.012666 5.722978
C 6.950719 3.469628 4.882851
C 7.506330 4.368131 4.946815
C 7.504893 4.964610 5.716763
C 7.086243 3.987588 5.721403
C 8.057930 3.446345 4.909397
C 8.523428 4.374512 4.910314
C 8.480332 4.984656 5.668143
C 7.986900 4.073580 5.684146
C 0.007047 5.240430 4.945878
C 0.492159 6.020650 4.935746
C 0.505176 6.724852 5.760573
C 0.055644 5.752950 5.733652
C 1.043923 5.177821 4.948949
C 1.436772 6.020188 4.869943
C 1.469285 6.693449 5.652109
C 1.078409 5.736941 5.712604
C 2.030866 5.241819 4.954838
C 2.467605 6.082764 4.913829
C 2.453909 6.681316 5.726709
C 2.010596 5.743713 5.784695
C 3.084657 5.196071 4.886128
C 3.475613 5.997299 4.960210
C 3.506493 6.651304 5.661006
C 3.035004 5.775983 5.737390
C 4.052401 5.253154 4.902408
C 4.476995 6.146395 4.897213
C 4.512008 6.684028 5.762733
C 3.987856 5.807426 5.630711
C 5.020663 5.229274 4.936738
C 5.531688 6.112280 4.848290
C 5.483041 6.570155 5.723129
C 5.036531 5.805203 5.680701
C 6.023527 5.137557 4.960914
C 6.465962 6.140316 4.886413
C 6.446732 6.596668 5.766193
C 6.001690 5.817066 5.775998
C 7.046941 5.135764 4.932652
C 7.505612 5.965189 4.942604
C 7.517500 6.664430 5.718382
C 7.002011 5.780328 5.696620
C 8.025931 5.170809 4.873727
C 8.538215 6.006332 4.849831
C 8.545186 6.602825 5.663370
C 7.948905 5.764137 5.690519
C 0.044485 7.004309 4.886621
C 0.481683 7.804852 4.862834
C 0.464222 8.424866 5.677037
C 0.060444 7.420708 5.708033
C 0.986284 7.002069 4.839710
C 1.483727 7.699034 4.916651
C 1.547167 8.432796 5.707823
C 1.060046 7.584922 5.687592
C 1.978682 6.961601 4.856129
C 2.481961 7.874443 4.923505
C 2.422221 8.444885 5.707199
C 1.983828 7.470728 5.632316
C 3.032433 6.951329 4.952587
C 3.481905 7.774119 4.902012
C 3.515125 8.346312 5.673762
C 3.050351 7.492036 5.697240
C 4.068479 6.987273 4.885685
C 4.468419 7.726456 4.899330
C 4.444806 8.403914 5.689198
C 4.080791 7.457460 5.722561
C 5.000854 6.989744 4.904810
C 5.556249 7.697661 4.886489
C 5.490246 8.440692 5.711543
C 5.072288 7.545340 5.741219
C 6.025638 7.036861 4.922908
C 6.501147 7.824932 4.954808
C 6.532705 8.362464 5.595903
C 6.081085 7.524402 5.729955
C 6.916171 6.973958 4.927461
C 7.446606 7.841772 4.904635
C 7.460125 8.408518 5.721783
C 6.939139 7.520526 5.774207
C 8.013923 7.002471 4.942716
C 8.552160 7.813149 4.941554
C 8.534660 8.400617 5.713637
C 7.959149 7.512223 5.785190
C 0.064751 0.026338 6.559413
C 0.506730 0.924975 6.504812
C 0.439795 1.494410 7.332970
C 0.105281 0.620821 7.343593
C 1.025327 0.018922 6.426418
C 1.461015 0.900217 6.595089
C 1.467922 1.502465 7.388553
C 0.971396 0.508487 7.413066
C 1.940113 0.056739 6.539167
C 2.465187 0.835062 6.534093
C 2.492783 1.505344 7.311379
C 1.962320 0.564099 7.455677
C 3.060997 0.045772 6.452558
C 3.571830 0.870762 6.600786
C 3.461841 1.434331 7.283263
C 3.003562 0.501735 7.363059
C 4.014025 0.049131 6.593941
C 4.543246 0.796384 6.510597
C 4.516739 1.409860 7.416073
C 3.920742 0.617289 7.373398
C 5.042655 0.049344 6.473990
C 5.454068 0.791647 6.513893
C 5.540619 1.483307 7.292845
C 4.947792 0.537764 7.371067
C 5.962653 0.012125 6.479366
C 6.472773 0.824857 6.488175
C 6.515828 1.487109 7.300578
C 5.988295 0.578713 7.336719
C 6.976595 0.084929 6.564985
C 7.467584 0.883242 6.619321
C 7.446609 1.508919 7.395533
C 7.027580 0.620703 7.307710
C 7.937816 0.050176 6.500031
C 8.555263 0.883842 6.506011
C 8.521672 1.515757 7.421283
C 8.018272 0.586724 7.372993
C 0.087911 1.755871 6.511720
C 0.564478 2.605973 6.557553
C 0.455357 3.121018 7.347869
C 0.097236 2.331316 7.382896
C 0.998491 1.771018 6.512647
C 1.511415 2.582766 6.586276
C 1.574435 3.166654 7.375705
C 1.013739 2.374328 7.271677
C 2.047410 1.669003 6.512038
C 2.493725 2.646221 6.492817
C 2.509107 3.169344 7.338747
C 1.998320 2.312373 7.349800
C 3.041750 1.670184 6.515466
C 3.425809 2.554881 6.511410
C 3.564096 3.206917 7.364259
C 2.966575 2.352181 7.278471
C 3.987223 1.744191 6.495391
C 4.428412 2.587638 6.461861
C 4.519223 3.132174 7.396393
C 3.921399 2.301808 7.368570
C 4.911782 1.704145 6.576382
C 5.473910 2.588963 6.516689
C 5.535111 3.181625 7.400117
C 5.081235 2.301908 7.300469
C 6.035204 1.776887 6.534574
C 6.541059 2.596141 6.634212
C 6.442485 3.174380 7.431676
C 6.046137 2.212184 7.382226
C 7.058662 1.757471 6.526235
C 7.456671 2.502512 6.540671
C 7.477899 3.097999 7.319400
C 6.945122 2.364514 7.394057
C 7.915691 1.798743 6.549951
C 8.435569 2.623297 6.576314
C 8.524952 3.206942 7.401094
C 8.011189 2.236536 7.283605
C 0.051157 3.497174 6.544456
C 0.437179 4.349798 6.580186
C 0.478212 4.901569 7.262950
C 0.032524 4.117516 7.293742
C 0.997991 3.402463 6.551931
C 1.449594 4.293869 6.524887
C 1.501275 4.838424 7.298049
C 1.028602 4.068545 7.376255
C 1.998062 3.528460 6.485710
C 2.489105 4.369653 6.560183
C 2.461962 4.897081 7.407250
C 1.930402 4.040633 7.336833
C 2.947745 3.507175 6.535652
C 3.539955 4.391470 6.569477
C 3.450196 4.963939 7.373026
C 2.945101 4.020619 7.392331
C 4.008615 3.407941 6.478582
C 4.543597 4.330966 6.525751
C 4.486866 4.971508 7.328000
C 4.060807 3.994846 7.282388
C 4.983951 3.396632 6.594112
C 5.515914 4.321098 6.587568
C 5.498444 4.813536 7.344783
C 5.056935 4.021817 7.281187
C 5.923433 3.490684 6.521430
C 6.485454 4.400299 6.542596
C 6.397955 4.895575 7.401875
C 5.976253 4.059204 7.471071
C 7.005544 3.486915 6.583125
C 7.498474 4.337487 6.457446
C 7.524992 4.900811 7.332318
C 6.979693 4.044673 7.310058
C 8.019752 3.405420 6.481180
C 8.490955 4.382080 6.498097
C 8.426017 4.899215 7.320250
C 8.029751 4.076321 7.296957
C 0.056568 5.257715 6.499526
C 0.486214 6.097270 6.452584
C 0.482818 6.694039 7.416963
C 0.048229 5.781557 7.336958
C 1.023710 5.168399 6.443964
C 1.518473 6.152081 6.575791
C 1.497194 6.697693 7.326710
C 1.005712 5.782442 7.318046
C 2.023883 5.214136 6.492870
C 2.537817 6.072077 6.506738
C 2.462139 6.692672 7.341842
C 2.081882 5.781987 7.408301
C 2.984769 5.144050 6.544899
C 3.556517 6.083422 6.630403
C 3.505829 6.687042 7.365487
C 2.939710 5.794451 7.339817
C 3.974115 5.110027 6.532514
C 4.475155 5.992371 6.549339
C 4.488762 6.544025 7.365793
C 3.963183 5.843180 7.308551
C 4.978166 5.152206 6.530443
C 5.441764 6.037177 6.540987
C 5.436739 6.640004 7.395080
C 5.084959 5.769273 7.348151
C 5.949403 5.206425 6.471455
C 6.591174 6.043762 6.565163
C 6.468544 6.646196 7.288793
C 5.995461 5.779109 7.404478
C 6.935007 5.159737 6.531979
C 7.464941 6.028626 6.475283
C 7.472019 6.689395 7.275635
C 6.989580 5.831524 7.373251
C 7.986674 5.177081 6.499777
C 8.490640 6.044779 6.546703
C 8.453118 6.663374 7.298592
C 8.069756 5.767624 7.367463
C 0.078688 6.955015 6.506846
C 0.453372 7.805295 6.562972
C 0.529924 8.281618 7.316516
C 0.004136 7.494116 7.345559
C 1.072470 6.930660 6.518087
C 1.476371 7.696602 6.494369
C 1.587264 8.329420 7.340084
C 1.003827 7.521188 7.271121
C 1.941242 6.898137 6.554822
C 2.542271 7.765287 6.478391
C 2.551454 8.382620 7.425099
C 2.017892 7.596676 7.313506
C 2.966532 6.977981 6.497433
C 3.531784 7.788849 6.512328
C 3.577340 8.389679 7.334395
C 2.957697 7.478069 7.299210
C 4.063609 6.907102 6.502734
C 4.554247 7.741582 6.476286
C 4.497594 8.342927 7.410099
C 4.024343 7.416321 7.346603
C 4.997229 6.925784 6.498298
C 5.482529 7.710941 6.579994
C 5.456216 8.362246 7.326673
C 4.912804 7.459103 7.387575
C 5.918539 6.995399 6.505823
C 6.480732 7.837469 6.453294
C 6.466673 8.384930 7.339197
C 6.064565 7.460402 7.333921
C 6.993057 6.976823 6.572451
C 7.560948 7.802193 6.544187
C 7.532975 8.382675 7.426521
C 6.999244 7.548627 7.346663
C 8.018981 6.949158 6.652986
C 8.455953 7.737293 6.507430
C 8.499714 8.395560 7.311259
C 7.943462 7.493061 7.393360
C 0.043718 0.011781 8.206847
C 0.495575 0.894209 8.165317
C 0.481028 1.458697 8.966097
C 0.085024 0.502310 8.969688
C 1.024228 0.073877 8.162147
C 1.490067 0.871410 8.228040
C 1.481968 1.482845 8.964453
C 0.992138 0.637800 9.005121
C 2.014406 0.070164 8.074308
C 2.531724 0.836598 8.192883
C 2.505558 1.498009 9.040215
C 2.041107 0.647084 8.965648
C 2.914067 0.035161 8.164608
C 3.467280 0.847438 8.199777
C 3.539793 1.480305 8.961422
C 2.971875 0.539718 8.971847
C 3.919539 0.043137 8.138520
C 4.557439 0.961306 8.143477
C 4.517141 1.488488 8.921323
C 3.961866 0.666618 8.980646
C 5.040768 0.046194 8.210600
C 5.530327 0.868039 8.142143
C 5.560610 1.486793 8.979916
C 4.967868 0.536336 8.918477
C 5.972960 0.095624 8.185237
C 6.499483 0.791546 8.203406
C 6.538263 1.468116 8.929060
C 5.966775 0.555491 8.909537
C 6.955722 0.027209 8.197615
C 7.515051 0.864437 8.117075
C 7.527489 1.429008 8.896889
C 7.038903 0.509947 8.935668
C 7.907994 0.004910 8.212468
C 8.486567 0.818543 8.092588
C 8.483227 1.439509 9.010851
C 8.015727 0.518924 9.049205
C 0.009579 1.666993 8.150327
C 0.515904 2.575957 8.133023
C 0.472462 3.184960 9.023295
C 0.012745 2.240842 8.903136
C 0.956071 1.717784 8.073505
C 1.553346 2.588556 8.162343
C 1.549589 3.217605 9.008435
C 1.032012 2.372551 8.946415
C 1.985636 1.638632 8.206936
C 2.421764 2.548648 8.162603
C 2.523784 3.082916 8.985442
C 2.072948 2.369807 9.019911
C 3.013353 1.777477 8.195718
C 3.534504 2.660102 8.182882
C 3.519801 3.208736 8.960480
C 2.978141 2.372283 8.919105
C 3.946536 1.721950 8.185977
C 4.442767 2.667409 8.193712
C 4.497329 3.199058 8.935676
C 3.959991 2.365933 8.943555
C 4.967434 1.686628 8.108126
C 5.530085 2.679586 8.162398
C 5.527549 3.185065 8.934023
C 5.002384 2.350057 8.950025
C 6.053508 1.708748 8.185774
C 6.427743 2.560489 8.157084
C 6.484899 3.217279 9.025033
C 6.011830 2.399313 8.983933
C 7.035716 1.711593 8.103790
C 7.429884 2.637586 8.225907
C 7.535562 3.213053 9.027566
C 6.980222 2.319028 8.956393
C 7.940649 1.779425 8.191582
C 8.452506 2.542260 8.160242
C 8.475203 3.196611 8.916750
C 7.977645 2.366107 8.979353
C 0.012552 3.454142 8.210356
C 0.508229 4.420393 8.151606
C 0.506329 4.856898 8.986407
C 0.000066 3.969048 8.923060
C 0.942457 3.455481 8.180376
C 1.481218 4.286594 8.138969
C 1.482155 4.892606 9.034917
C 0.932835 4.046986 9.010258
C 1.980599 3.413561 8.194652
C 2.458000 4.344362 8.230784
C 2.528182 4.853764 8.982800
C 1.957362 4.015416 8.922922
C 2.992066 3.485749 8.129551
C 3.561397 4.296509 8.244206
C 3.491565 4.828734 8.965233
C 2.940252 4.102772 9.044579
C 3.969347 3.397762 8.136540
C 4.515519 4.339305 8.129608
C 4.538404 4.886120 9.032670
C 4.045402 4.028171 9.041419
C 5.017631 3.545332 8.228856
C 5.509292 4.388296 8.182296
C 5.469277 4.933986 9.031129
C 4.999669 3.970354 8.923590
C 6.068766 3.433477 8.187787
C 6.496523 4.311427 8.205405
C 6.456343 4.869003 8.946917
C 6.046389 4.010202 8.978421
C 6.970744 3.456802 8.168555
C 7.484259 4.258664 8.179840
C 7.492398 4.867029 8.975167
C 7.025937 3.984704 8.955242
C 7.987900 3.506904 8.085748
C 8.580809 4.289391 8.205833
C 8.461118 4.869009 8.961542
C 7.969164 3.982168 9.032859
C 0.023805 5.260613 8.241610
C 0.555832 6.127767 8.111418
C 0.476573 6.659613 9.012488
C 0.023886 5.817632 9.070968
C 1.001543 5.139173 8.219759
C 1.486646 5.980452 8.129057
C 1.516320 6.578076 8.960130
C 1.036191 5.754959 8.940361
C 2.075718 5.248718 8.171829
C 2.509221 6.115429 8.098868
C 2.567305 6.638873 8.952036
C 2.002566 5.709839 8.986409
C 3.090934 5.186188 8.120703
C 3.463727 6.137357 8.162487
C 3.560417 6.657931 8.940676
C 2.993449 5.824190 9.021453
C 4.011315 5.195939 8.104013
C 4.537064 6.083108 8.148312
C 4.456606 6.611439 8.972624
C 4.017211 5.692760 8.930977
C 5.028629 5.238115 8.200546
C 5.541676 6.020686 8.134199
C 5.512684 6.591790 8.923037
C 5.033766 5.885174 8.933788
C 5.956292 5.132826 8.198650
C 6.466117 6.023143 8.163172
C 6.468622 6.669676 9.036391
C 5.953797 5.704040 8.961113
C 6.982700 5.244892 8.227956
C 7.439278 6.020838 8.181673
C 7.491643 6.567273 8.996566
C 6.931561 5.779974 9.004338
C 7.977393 5.224629 8.144363
C 8.480410 6.035146 8.252916
C 8.549087 6.699262 8.963337
C 7.964967 5.753392 9.058374
C 0.005312 6.939840 8.177905
C 0.521083 7.757733 8.156144
C 0.457141 8.402739 9.054259
C 0.008191 7.551978 8.945985
C 1.058686 6.885626 8.116849
C 1.514977 7.845126 8.114746
C 1.435736 8.338221 8.905183
C 0.935739 7.470004 8.967294
C 1.953070 6.873243 8.171884
C 2.500294 7.724559 8.158767
C 2.588052 8.415310 9.040505
C 1.973745 7.576579 8.981924
C 3.028714 6.924163 8.103946
C 3.437562 7.740478 8.131463
C 3.555373 8.314717 8.962714
C 2.985112 7.580889 8.995558
C 4.040643 6.966126 8.223563
C 4.538119 7.770583 8.179894
C 4.455298 8.405326 8.996114
C 3.952111 7.582420 8.950036
C 4.994696 6.898683 8.218990
C 5.518813 7.859057 8.148912
C 5.509531 8.318028 9.006497
C 4.937518 7.538726 9.006368
C 6.033332 6.875374 8.110714
C 6.559153 7.804130 8.171337
C 6.550564 8.297411 8.964380
C 5.965815 7.441218 8.953014
C 6.957286 6.874643 8.124066
C 7.496637 7.865174 8.125496
C 7.490928 8.355591 8.906396
C 6.962690 7.536509 9.028668
C 8.051387 6.922459 8.168352
C 8.416937 7.783491 8.171509
C 8.555892 8.356483 9.035725
C 7.995067 7.552334 9.015208
C 0.043112 0.083132 0.637378
C 0.461556 0.829484 0.653343
C 0.484807 1.454732 1.390708
C 0.029554 0.530725 1.345346
C 1.003259 0.003050 0.687085
C 1.507556 0.861829 0.571238
C 1.521047 1.443296 1.380247
C 0.972782 0.517960 1.416104
C 2.007458 0.001952 0.563995
C 2.515368 0.937843 0.661468
C 2.546617 1.420562 1.462204
C 2.075904 0.550831 1.445337
C 3.014590 0.008304 0.530358
C 3.496981 0.910019 0.623014
C 3.496464 1.474900 1.409621
C 3.058055 0.586469 1.377960
C 4.028704 0.002720 0.587145
C 4.457813 0.863212 0.657093
C 4.441252 1.486580 1.446357
C 4.003400 0.548082 1.401201
C 5.009687 0.007240 0.675099
C 5.455769 0.909102 0.657056
C 5.498294 1.479504 1.430672
C 4.977480 0.557015 1.376191
C 6.064870 0.044409 0.554118
C 6.484326 0.819441 0.546504
C 6.532623 1.498280 1.401317
C 6.084659 0.591811 1.482150
C 6.982330 0.069153 0.569709
C 7.446482 0.869546 0.644082
C 7.493121 1.412300 1.355821
C 6.940745 0.587470 1.429155
C 8.039664 0.036126 0.694006
C 8.479547 0.876547 0.552944
C 8.445953 1.395679 1.441951
C 8.004642 0.656108 1.482992
C 0.018615 1.690239 0.706477
C 0.460331 2.557270 0.613976
C 0.497380 3.160795 1.469785
C 0.012742 2.341359 1.488032
C 0.992375 1.699743 0.590824
C 1.456336 2.564265 0.647624
C 1.543826 3.258057 1.376985
C 0.955125 2.269036 1.421266
C 2.020804 1.648944 0.613956
C 2.436221 2.567201 0.558340
C 2.529584 3.158783 1.430463
C 1.988244 2.327918 1.353560
C 3.028073 1.708995 0.653291
C 3.545511 2.622918 0.570087
C 3.451037 3.131349 1.459334
C 2.915921 2.278727 1.497706
C 4.002409 1.698987 0.604969
C 4.470963 2.564869 0.593293
C 4.484399 3.109449 1.413752
C 4.071244 2.323243 1.509922
C 4.934073 1.752088 0.559431
C 5.450477 2.574574 0.667654
C 5.468998 3.152381 1.504901
C 5.000080 2.294796 1.416414
C 6.056095 1.736468 0.626741
C 6.447000 2.543468 0.601338
C 6.516771 3.176612 1.444272
C 5.964997 2.235381 1.431765
C 7.011813 1.628900 0.618993
C 7.431578 2.581107 0.611415
C 7.512236 3.155562 1.454235
C 7.015334 2.386009 1.428302
C 8.053913 1.724675 0.548354
C 8.538213 2.618364 0.560816
C 8.525317 3.105791 1.389853
C 8.078416 2.279212 1.438905
C 0.077664 3.433470 0.643530
C 0.481318 4.400704 0.667192
C 0.500723 4.842745 1.338738
C 0.000249 4.008043 1.471309
C 1.007206 3.386986 0.620811
C 1.482364 4.364229 0.680166
C 1.530275 4.863206 1.432070
C 0.915355 4.032750 1.432651
C 1.975076 3.396980 0.589937
C 2.517027 4.242535 0.610611
C 2.512778 4.933633 1.460004
C 2.055906 4.071496 1.379086
C 3.080225 3.416338 0.639905
C 3.422707 4.362335 0.602261
C 3.506381 4.943186 1.544848
C 2.999691 4.056146 1.328933
C 3.998419 3.434157 0.591881
C 4.430092 4.289453 0.636019
C 4.436844 4.872927 1.409193
C 4.015762 4.041912 1.400716
C 5.012038 3.503188 0.541218
C 5.540242 4.394197 0.675160
C 5.587995 4.926290 1.378672
C 5.034942 4.084355 1.450314
C 6.046326 3.470366 0.614122
C 6.464160 4.284019 0.585802
C 6.434485 4.886361 1.457364
C 5.945269 3.984689 1.421350
C 7.015564 3.499076 0.615961
C 7.555864 4.309468 0.594763
C 7.459647 4.870849 1.462527
C 6.973939 4.020242 1.434562
C 8.084791 3.427169 0.666352
C 8.470725 4.323635 0.529553
C 8.493092 4.977746 1.487957
C 8.027464 4.011912 1.428687
C 0.005871 5.254999 0.672078
C 0.497172 6.052711 0.634487
C 0.478015 6.707278 1.420926
C 0.033850 5.741581 1.357870
C 0.944103 5.289668 0.633303
C 1.549294 6.061813 0.556166
C 1.503371 6.606972 1.384853
C 0.995766 5.761124 1.397990
C 1.969192 5.150834 0.662330
C 2.490559 6.079638 0.601303
C 2.515408 6.696091 1.367432
C 1.945977 5.825625 1.428919
C 3.013367 5.212347 0.594557
C 3.470526 6.071240 0.579896
C 3.477991 6.664808 1.448679
C 3.008782 5.790299 1.440456
C 3.924449 5.176509 0.632752
C 4.427099 6.025998 0.655680
C 4.477748 6.632808 1.332628
C 3.966270 5.752952 1.372571
C 4.982421 5.128003 0.588916
C 5.500461 6.005698 0.682825
C 5.530250 6.664382 1.522081
C 5.022867 5.833224 1.486901
C 5.966810 5.249610 0.534415
C 6.532490 6.081493 0.592421
C 6.485191 6.698652 1.349502
C 6.049959 5.735263 1.451932
C 6.924678 5.217696 0.659037
C 7.449797 6.028991 0.643130
C 7.511280 6.619845 1.460754
C 7.023259 5.779648 1.430712
C 8.005785 5.157615 0.659586
C 8.487780 6.002020 0.609303
C 8.470788 6.649889 1.503749
C 8.021678 5.808419 1.479403
C 0.059597 6.936947 0.592810
C 0.440882 7.797704 0.674759
C 0.559470 8.382399 1.448615
C 0.041823 7.447546 1.399219
C 1.009961 6.901794 0.665837
C 1.542175 7.824952 0.660406
C 1.454736 8.420155 1.402896
C 1.031672 7.494803 1.453465
C 1.976716 6.908089 0.683713
C 2.501465 7.785420 0.618765
C 2.492179 8.395596 1.493746
C 2.050136 7.504906 1.478966
C 2.970944 6.929607 0.595276
C 3.445287 7.768320 0.531673
C 3.513314 8.395309 1.474902
C 3.025118 7.489882 1.484077
C 4.004169 6.855530 0.694013
C 4.571565 7.810002 0.609597
C 4.461963 8.349776 1.435947
C 4.046786 7.431324 1.449983
C 4.980181 7.036221 0.575362
C 5.437300 7.817190 0.592871
C 5.446471 8.382729 1.408874
C 5.087049 7.535251 1.395068
C 5.998508 6.907161 0.520094
C 6.545290 7.846013 0.626131
C 6.426213 8.387726 1.445716
C 5.977228 7.562607 1.439360
C 6.963657 6.924688 0.616616
C 7.542678 7.820145 0.532340
C 7.546417 8.430640 1.450227
C 6.947387 7.570680 1.377969
C 8.031049 6.931146 0.633714
C 8.487861 7.795326 0.597363
C 8.493761 8.396991 1.350355
C 7.961357 7.472798 1.468135
C 0.146412 0.069407 2.191434
C 0.494301 0.874747 2.278420
C 0.491122 1.493696 3.135329
C 0.052447 0.581168 3.130882
C 0.923424 0.068547 2.269275
C 1.450788 0.873235 2.227198
C 1.501690 1.426072 3.077325
C 0.981450 0.569456 3.062388
C 2.002795 0.031049 2.164692
C 2.525972 0.857772 2.235233
C 2.541233 1.416256 3.024589
C 1.957584 0.527316 3.071076
C 2.926179 0.005159 2.258944
C 3.550656 0.945016 2.235661
C 3.479163 1.456429 3.039553
C 2.920683 0.558987 3.109058
C 4.107634 0.031546 2.232443
C 4.510916 0.914264 2.264723
C 4.519021 1.441968 3.001146
C 4.049789 0.598811 3.073791
C 4.936424 0.005463 2.270836
C 5.426320 0.875505 2.301789
C 5.488169 1.389880 3.111786
C 5.026429 0.548674 2.988210
C 5.986888 0.066863 2.280730
C 6.423302 0.888616 2.226024
C 6.494290 1.389662 3.052788
C 6.037899 0.597709 3.102388
C 6.963980 0.003239 2.178441
C 7.513972 0.830469 2.310398
C 7.504341 1.476379 3.046772
C 6.923566 0.593996 3.047968
C 7.980655 0.027460 2.153818
C 8.557587 0.803620 2.248773
C 8.511241 1.456435 3.092616
C 7.949106 0.640729 3.062684
C 0.012354 1.780628 2.188708
C 0.555383 2.651560 2.290828
C 0.587229 3.139450 3.020208
C 0.035491 2.272997 3.065740
C 0.954393 1.695044 2.186162
C 1.587374 2.609511 2.210481
C 1.423773 3.234501 3.015643
C 1.015372 2.276656 3.083513
C 1.966179 1.682810 2.278779
C 2.528103 2.527709 2.296457
C 2.562807 3.227927 3.062214
C 1.987265 2.305409 3.014073
C 2.950684 1.699200 2.235756
C 3.505217 2.629716 2.174926
C 3.542411 3.102977 3.083352
C 3.065606 2.357169 3.081535
C 3.948086 1.728488 2.219498
C 4.513751 2.632197 2.252559
C 4.528704 3.198066 3.074732
C 3.956979 2.257204 2.978243
C 5.012413 1.720449 2.290989
C 5.514014 2.658044 2.245181
C 5.587499 3.196127 3.085332
C 5.000581 2.207734 3.041039
C 6.058840 1.714887 2.239701
C 6.488943 2.581222 2.191198
C 6.591453 3.188507 3.088735
C 5.987873 2.379062 2.999608
C 7.022950 1.721164 2.335013
C 7.520878 2.637847 2.228663
C 7.533477 3.254021 3.080028
C 6.930600 2.304886 3.017131
C 7.979761 1.713123 2.261226
C 8.499534 2.640405 2.169978
C 8.540128 3.193104 3.054928
C 7.917319 2.333611 3.100998
C 0.073087 3.558917 2.210040
C 0.546095 4.366949 2.215622
C 0.514446 4.833380 3.079194
C 0.064174 4.046277 3.121616
C 1.048819 3.482993 2.222560
C 1.462760 4.388736 2.191584
C 1.529950 4.838642 3.083577
C 0.960018 3.984244 3.041349
C 1.985009 3.476497 2.247651
C 2.494812 4.299145 2.285664
C 2.524308 4.965125 3.089801
C 2.031673 4.009631 3.052993
C 3.004266 3.486980 2.322074
C 3.431078 4.314831 2.218422
C 3.475388 4.883976 2.967710
C 3.039439 3.943970 3.087722
C 4.085101 3.406470 2.257039
C 4.564748 4.321942 2.228919
C 4.434265 4.840026 3.038812
C 4.026183 4.080543 3.076353
C 5.046997 3.508141 2.280212
C 5.549497 4.384476 2.245887
C 5.543351 4.947275 3.121647
C 4.938118 4.053434 3.041071
C 5.964641 3.466852 2.324975
C 6.497741 4.357792 2.217354
C 6.523818 4.804599 3.083268
C 6.068848 4.022292 3.013289
C 6.953770 3.424679 2.199363
C 7.440360 4.328018 2.203160
C 7.460377 4.912136 3.032771
C 6.948569 4.088297 3.105046
C 7.970158 3.537829 2.235889
C 8.447119 4.314918 2.261321
C 8.583900 4.920235 3.079557
C 7.995314 4.119707 3.128369
C 0.047323 5.280829 2.246534
C 0.516184 6.028573 2.255488
C 0.454424 6.678020 3.110536
C 0.087844 5.769294 3.161971
C 0.976277 5.239385 2.275862
C 1.426677 6.111468 2.290730
C 1.476841 6.655890 3.157796
C 1.011093 5.789667 3.153399
C 2.041172 5.215869 2.226929
C 2.488999 6.142579 2.267726
C 2.478295 6.611360 3.124217
C 1.942616 5.699183 3.046107
C 2.981167 5.222847 2.219563
C 3.577501 6.014771 2.253104
C 3.476044 6.645706 3.138421
C 3.025126 5.715129 3.119475
C 3.955670 5.121285 2.299828
C 4.476434 6.021749 2.303640
C 4.471179 6.664438 3.098682
C 4.014808 5.800781 3.009945
C 4.911270 5.162141 2.244586
C 5.468437 5.995671 2.288441
C 5.545752 6.599400 3.058786
C 4.965124 5.700297 3.025527
C 5.999992 5.196009 2.336658
C 6.416778 6.064574 2.249290
C 6.541232 6.604979 2.976158
C 5.981851 5.783175 2.985733
C 6.972577 5.279391 2.268311
C 7.493860 6.108390 2.265904
C 7.519092 6.617770 3.015635
C 7.076938 5.779456 3.049679
C 7.977072 5.174702 2.264967
C 8.504310 6.086812 2.198670
C 8.575471 6.606558 3.015521
C 7.970902 5.714069 3.087683
C 0.106039 6.914081 2.297474
C 0.522508 7.835886 2.266006
C 0.539139 8.315925 3.108838
C 0.005582 7.429981 3.091722
C 1.037473 6.892064 2.300103
C 1.450113 7.775324 2.256778
C 1.512971 8.349002 3.067412
C 0.983075 7.419825 3.089441
C 1.984292 6.857816 2.239462
C 2.458315 7.754495 2.285937
C 2.449335 8.328202 2.999324
C 2.020867 7.488826 3.133775
C 2.962057 6.943809 2.223011
C 3.489809 7.806527 2.237841
C 3.505223 8.468369 3.026522
C 2.993952 7.521681 3.120527
C 3.994534 6.887046 2.350828
C 4.498139 7.812681 2.218628
C 4.451383 8.380097 3.115350
C 3.985848 7.486927 3.037902
C 4.951380 6.939397 2.223239
C 5.423046 7.749522 2.287822
C 5.483876 8.421923 3.121318
C 4.955118 7.422189 3.033821
C 5.911319 6.907510 2.232796
C 6.441473 7.816266 2.276942
C 6.473632 8.365334 3.010417
C 6.012462 7.465732 3.159136
C 6.936848 6.916636 2.228571
C 7.463013 7.735626 2.307798
C 7.474343 8.375374 3.145216
C 7.071836 7.542104 3.086019
C 8.082084 6.879966 2.242535
C 8.456775 7.779183 2.307031
C 8.517809 8.419558 2.992509
C 8.068487 7.563193 3.081608
C 0.025312 0.023133 3.794226
C 0.532155 0.798998 3.822995
C 0.463842 1.437511 4.706017
C 0.012282 0.616256 4.723344
C 1.018865 0.057257 3.766232
C 1.435651 0.846750 3.838504
C 1.516600 1.533008 4.666733
C 0.953220 0.598154 4.762520
C 1.968308 0.007362 3.927815
C 2.510277 0.831708 3.876243
C 2.468960 1.438418 4.704122
C 2.076117 0.564137 4.716875
C 3.092840 0.008423 3.920432
C 3.440063 0.923510 3.930145
C 3.467451 1.416638 4.667576
C 2.955852 0.598163 4.621363
C 4.009611 0.088373 3.824612
C 4.569385 0.866834 3.814257
C 4.548747 1.394878 4.717693
C 4.002801 0.570776 4.658061
C 5.022987 0.039122 3.870427
C 5.522951 0.813261 3.852206
C 5.551703 1.434662 4.651151
C 5.074456 0.610089 4.683504
C 6.009362 0.041100 3.836704
C 6.443985 0.876279 3.907346
C 6.461650 1.387693 4.617500
C 5.962974 0.532313 4.707060
C 7.006021 0.009977 3.886765
C 7.478201 0.859652 3.827268
C 7.516645 1.414570 4.749030
C 6.964861 0.620419 4.676116
C 7.984430 0.028190 3.882637
C 8.537663 0.859103 3.874148
C 8.514649 1.395909 4.630040
C 7.916357 0.604884 4.762776
C 0.013856 1.724897 3.788871
C 0.470634 2.523386 3.888096
C 0.529168 3.188606 4.748251
C 0.030619 2.297384 4.758569
C 0.933852 1.746453 3.804641
C 1.580994 2.625250 3.893743
C 1.473636 3.234030 4.767315
C 0.983646 2.265016 4.697424
C 2.060147 1.717817 3.919121
C 2.496172 2.621767 3.930239
C 2.530840 3.176235 4.741714
C 1.974302 2.273501 4.655808
C 3.037128 1.775597 3.960437
C 3.457960 2.640892 3.853192
C 3.469907 3.171053 4.674400
C 2.931917 2.320307 4.742801
C 3.932386 1.697551 3.819968
C 4.553309 2.543089 3.868981
C 4.535982 3.264360 4.705673
C 4.008962 2.303609 4.721186
C 4.977484 1.697243 3.886629
C 5.550017 2.569992 3.881302
C 5.520068 3.174864 4.655163
C 4.971115 2.347299 4.673544
C 6.011617 1.817023 3.853632
C 6.545055 2.542949 3.905573
C 6.517601 3.190561 4.701721
C 5.990258 2.319473 4.752354
C 6.947898 1.779982 3.947955
C 7.440468 2.607687 3.865302
C 7.448607 3.150313 4.617852
C 7.014204 2.258136 4.706204
C 7.996526 1.774155 3.842895
C 8.522163 2.524694 3.878348
C 8.486259 3.167154 4.701377
C 8.033307 2.295833 4.723129
C 0.002547 3.506701 3.961178
C 0.571084 4.309290 3.927195
C 0.440697 4.830526 4.642272
C 0.027991 4.031909 4.716895
C 0.973522 3.491446 3.825139
C 1.450777 4.364597 3.831018
C 1.510095 4.845475 4.675325
C 1.004176 3.988169 4.620866
C 2.005192 3.495387 3.880068
C 2.572263 4.358120 3.875205
C 2.455760 4.870433 4.617169
C 1.938881 4.016880 4.666825
C 3.040340 3.529268 3.892099
C 3.455330 4.388317 3.828586
C 3.573459 4.976142 4.734212
C 3.025788 3.962758 4.721240
C 4.003608 3.465592 3.963246
C 4.551654 4.263525 3.888220
C 4.493449 4.965758 4.713531
C 4.032351 4.052582 4.758621
C 4.983844 3.429611 3.872162
C 5.487907 4.295694 3.881346
C 5.529650 4.862534 4.675828
C 4.992921 3.974363 4.713063
C 5.914267 3.462849 3.942434
C 6.447068 4.292606 3.842569
C 6.541606 4.914413 4.639317
C 6.016996 4.090279 4.684108
C 7.053709 3.480643 3.911516
C 7.460250 4.378167 3.872702
C 7.519368 4.929651 4.597310
C 6.968434 3.997538 4.746992
C 7.921678 3.479378 3.870464
C 8.447353 4.409640 3.892920
C 8.461581 4.855476 4.693450
C 7.922104 4.047813 4.679126
C 0.013649 5.206307 3.868708
C 0.493715 6.021863 3.822642
C 0.513402 6.692669 4.704037
C 0.101539 5.728905 4.692623
C 1.008184 5.245172 3.911374
C 1.441236 6.099435 3.923122
C 1.550093 6.722120 4.658328
C 0.983211 5.763150 4.708738
C 2.003957 5.219076 3.894196
C 2.453596 6.093572 3.911043
C 2.513409 6.713353 4.692781
C 1.978993 5.836227 4.670976
C 2.927023 5.212834 3.842463
C 3.474592 6.114293 3.861445
C 3.470872 6.599735 4.680544
C 3.065213 5.844459 4.710336
C 3.956364 5.196330 3.818045
C 4.503622 6.126142 3.866019
C 4.443252 6.662770 4.710325
C 3.970203 5.769952 4.654524
C 5.022343 5.142466 3.935729
C 5.535039 6.089655 3.899382
C 5.499424 6.623575 4.614224
C 4.938073 5.821240 4.730828
C 5.964946 5.260692 3.890498
C 6.508774 6.002277 3.882698
C 6.461436 6.685318 4.654918
C 6.008339 5.776127 4.797710
C 6.995375 5.260977 3.860166
C 7.461300 6.047107 3.927555
C 7.440204 6.689648 4.711985
C 7.016030 5.827664 4.672322
C 7.966502 5.212775 3.829355
C 8.518137 6.032539 3.944719
C 8.436106 6.637308 4.689580
C 7.914458 5.701413 4.659983
C 0.028353 6.952705 3.928507
C 0.516017 7.717469 3.855138
C 0.479683 8.373465 4.728853
C 0.000303 7.536096 4.720889
C 1.004560 6.918523 3.855060
C 1.491359 7.817862 3.825343
C 1.411307 8.389474 4.675311
C 0.938748 7.572444 4.725252
C 1.943040 6.916922 3.907058
C 2.494282 7.727579 3.826528
C 2.497279 8.435952 4.736723
C 2.012578 7.484012 4.710851
C 2.982123 6.909505 3.900167
C 3.487906 7.748728 3.794704
C 3.488564 8.304403 4.635552
C 2.906824 7.479500 4.677738
C 3.973415 6.868538 3.872305
C 4.422107 7.807781 3.878716
C 4.528910 8.353248 4.636927
C 4.027842 7.496626 4.694386
C 4.996386 6.894590 3.886270
C 5.426485 7.826957 3.859782
C 5.494239 8.333004 4.683198
C 4.921299 7.469724 4.713957
C 5.984348 6.988476 3.832505
C 6.433836 7.790124 3.905312
C 6.460377 8.330262 4.629359
C 5.963296 7.590503 4.663029
C 6.976153 6.920999 3.839178
C 7.475275 7.876305 3.844963
C 7.499207 8.427251 4.654080
C 7.031015 7.550134 4.761741
C 8.054150 6.955442 3.835632
C 8.573574 7.763956 3.876166
C 8.475414 8.315905 4.620174
C 7.990057 7.514328 4.752248
C 0.025638 0.101019 5.567961
C 0.445619 0.869858 5.470770
C 0.482431 1.435490 6.250562
C 0.026754 0.642073 6.292340
C 1.015382 0.067494 5.546175
C 1.517207 0.832951 5.522818
C 1.476848 1.443087 6.267942
C 1.015537 0.582604 6.310078
C 1.984321 0.078384 5.572265
C 2.481603 0.867345 5.559725
C 2.492737 1.422346 6.384814
C 1.965450 0.582673 6.239820
C 3.054590 0.059373 5.432498
C 3.507374 0.855828 5.576668
C 3.580903 1.438807 6.286184
C 2.974180 0.576524 6.283487
C 4.008421 0.008358 5.564466
C 4.527652 0.846810 5.510176
C 4.475040 1.527401 6.322015
C 3.918492 0.618557 6.326875
C 5.082322 0.010735 5.573037
C 5.428132 0.826946 5.533204
C 5.496596 1.486907 6.311629
C 5.010900 0.638695 6.317378
C 6.065695 0.016294 5.506892
C 6.517138 0.802973 5.530621
C 6.469381 1.400749 6.309044
C 6.014895 0.577358 6.263471
C 7.013831 0.050498 5.510345
C 7.463828 0.846059 5.570139
C 7.494003 1.494739 6.345118
C 7.019411 0.558816 6.227295
C 8.039678 0.025087 5.454248
C 8.513782 0.867335 5.530562
C 8.613344 1.432051 6.345003
C 8.060600 0.513902 6.290492
C 0.013044 1.728182 5.437599
C 0.455777 2.579612 5.563427
C 0.499410 3.257244 6.377096
C 0.022217 2.230553 6.266588
C 0.957299 1.699284 5.469399
C 1.444765 2.644196 5.473134
C 1.473644 3.190929 6.393963
C 1.088029 2.335910 6.378210
C 1.980028 1.751359 5.579217
C 2.497074 2.582192 5.537544
C 2.577537 3.253041 6.294210
C 1.927385 2.326851 6.383017
C 2.940113 1.722423 5.505037
C 3.391080 2.587775 5.499308
C 3.484421 3.266493 6.354942
C 3.041863 2.235389 6.302135
C 4.022902 1.672635 5.452945
C 4.566996 2.629848 5.537640
C 4.500443 3.176799 6.414702
C 3.974391 2.297568 6.344543
C 5.000312 1.674806 5.497025
C 5.395802 2.614416 5.555551
C 5.450015 3.216436 6.348212
C 4.941946 2.312245 6.370246
C 5.985493 1.801450 5.447985
C 6.445026 2.659514 5.470113
C 6.510467 3.079206 6.324914
C 6.045951 2.327450 6.385035
C 6.962537 1.754913 5.524488
C 7.476267 2.597955 5.489014
C 7.470483 3.172610 6.245670
C 6.956467 2.369241 6.276916
C 8.007276 1.770268 5.516196
C 8.549604 2.585877 5.547989
C 8.518975 3.221239 6.331651
C 8.004353 2.250990 6.356212
C 0.085509 3.468974 5.477979
C 0.433961 4.318971 5.500870
C 0.470083 4.879579 6.247073
C 0.001114 4.090901 6.357368
C 1.057507 3.409951 5.471309
C 1.491017 4.354346 5.473356
C 1.478876 4.905493 6.285996
C 0.975055 4.017102 6.391514
C 1.913274 3.511051 5.481815
C 2.542955 4.311148 5.518289
C 2.519941 4.937407 6.361018
C 1.960706 4.083505 6.330608
C 3.057097 3.475260 5.539248
C 3.494505 4.346596 5.597384
C 3.462721 4.970504 6.338216
C 2.965290 4.136881 6.290224
C 4.020238 3.506367 5.463824
C 4.474232 4.267235 5.452767
C 4.465671 4.905993 6.322694
C 3.976437 4.040130 6.283750
C 5.027331 3.398558 5.525737
C 5.487305 4.273895 5.582089
C 5.525456 4.913542 6.321247
C 4.966560 4.062651 6.338824
C 6.010194 3.526811 5.469921
C 6.503611 4.270729 5.533400
C 6.390999 4.907561 6.387860
C 6.016023 4.044681 6.277221
C 7.025455 3.486805 5.449350
C 7.558687 4.410291 5.508877
C 7.523554 4.953026 6.331684
C 7.023386 3.969271 6.332850
C 7.944735 3.450923 5.590258
C 8.438203 4.302098 5.549228
C 8.584654 4.882916 6.311565
C 7.999383 3.985669 6.281843
C 0.016018 5.186106 5.553144
C 0.485328 6.089488 5.581439
C 0.475884 6.577037 6.409284
C 0.025709 5.797418 6.316566
C 0.954449 5.200881 5.596914
C 1.494548 6.124361 5.526196
C 1.572462 6.632001 6.297045
C 0.922354 5.717051 6.340069
C 2.040202 5.122667 5.504294
C 2.462036 6.059583 5.584672
C 2.499306 6.683180 6.338912
C 2.042850 5.780669 6.336961
C 2.968792 5.205402 5.504551
C 3.557503 6.075267 5.569190
C 3.500606 6.639317 6.253021
C 3.030217 5.828304 6.329572
C 4.036448 5.146051 5.494655
C 4.495844 6.043726 5.598271
C 4.527877 6.707747 6.408234
C 4.059659 5.724765 6.345121
C 5.031691 5.276694 5.517408
C 5.549334 6.019722 5.526638
C 5.527242 6.551079 6.337322
C 4.964164 5.689819 6.370947
C 5.973485 5.222493 5.459050
C 6.517363 6.020052 5.487576
C 6.529179 6.584692 6.343889
C 5.978628 5.739588 6.285795
C 7.057848 5.198262 5.463187
C 7.525456 6.074595 5.505067
C 7.449697 6.689256 6.290655
C 6.973966 5.698730 6.372452
C 7.953034 5.234059 5.510140
C 8.475898 6.121792 5.571965
C 8.481937 6.679378 6.364256
C 7.977033 5.750676 6.307450
C 0.064291 6.880367 5.561101
C 0.471351 7.735484 5.440300
C 0.480272 8.406055 6.239526
C 0.003432 7.575944 6.329919
C 1.043712 6.935154 5.444158
C 1.516839 7.733704 5.498529
C 1.448551 8.341271 6.265464
C 0.957810 7.512068 6.409559
C 2.006472 6.861338 5.519390
C 2.534196 7.804668 5.493374
C 2.454318 8.416654 6.304077
C 2.020095 7.548483 6.260475
C 3.020817 6.845851 5.525301
C 3.544063 7.813258 5.484328
C 3.509165 8.379471 6.251122
C 2.980114 7.510284 6.237283
C 4.005370 6.984628 5.447927
C 4.488060 7.842212 5.592353
C 4.476821 8.375777 6.244050
C 3.966948 7.509439 6.391420
C 4.914772 6.943314 5.537523
C 5.488148 7.838726 5.513366
C 5.584197 8.301452 6.330452
C 5.035746 7.430554 6.332309
C 5.949634 6.914930 5.536878
C 6.496357 7.850538 5.499549
C 6.509272 8.365144 6.232512
C 6.065959 7.544109 6.286171
C 7.039075 6.945351 5.454368
C 7.527285 7.884799 5.525567
C 7.499266 8.334133 6.276676
C 7.023936 7.476872 6.292490
C 8.003915 7.023732 5.476201
C 8.448985 7.808185 5.492620
C 8.449719 8.412803 6.260075
C 7.966968 7.424935 6.325993
C 0.045150 0.025579 7.200012
C 0.489303 0.933165 7.228152
C 0.476291 1.482538 7.913460
C 0.074986 0.576983 7.992080
C 1.006555 0.064128 7.165123
C 1.520214 0.933017 7.191629
C 1.475400 1.505606 8.030920
C 0.986657 0.557549 7.942239
C 2.049710 0.075373 7.054013
C 2.544038 0.780426 7.129678
C 2.390541 1.446462 7.965081
C 1.933434 0.612405 8.000446
C 3.041158 0.061259 7.119839
C 3.503135 0.848143 7.126116
C 3.498526 1.496136 7.976887
C 3.028180 0.580706 8.057137
C 4.036339 0.090004 7.218021
C 4.479553 0.821938 7.186139
C 4.439717 1.443799 8.062412
C 3.999522 0.574539 7.939378
C 4.926251 0.006600 7.168792
C 5.485953 0.933004 7.126882
C 5.479976 1.458388 7.914240
C 5.029579 0.548985 7.973287
C 5.977859 0.054610 7.149752
C 6.483646 0.800015 7.164825
C 6.558984 1.494703 7.956980
C 6.026973 0.633883 7.968400
C 7.007360 0.003683 7.113760
C 7.570699 0.879540 7.171311
C 7.522780 1.438485 7.893218
C 7.034383 0.623165 7.944924
C 8.050132 0.026948 7.211379
C 8.467567 0.828084 7.177400
C 8.432115 1.455257 7.987764
C 8.054056 0.520928 7.967064
C 0.036054 1.820001 7.149897
C 0.469658 2.546163 7.116549
C 0.453614 3.210800 7.897308
C 0.014878 2.276110 7.978655
C 1.017615 1.697191 7.107939
C 1.501988 2.651410 7.199153
C 1.491737 3.098944 7.902102
C 0.992766 2.277962 7.904879
C 1.958390 1.754272 7.182336
C 2.451197 2.643491 7.060084
C 2.473548 3.142343 7.885031
C 1.965609 2.303759 7.898694
C 2.991959 1.665552 7.163388
C 3.453949 2.625542 7.124912
C 3.501755 3.227079 7.927144
C 3.016101 2.315392 7.928746
C 3.939637 1.696787 7.124217
C 4.558908 2.585868 7.206397
C 4.459599 3.097923 7.930236
C 4.003926 2.358755 7.938460
C 4.965482 1.781245 7.110395
C 5.585294 2.595722 7.204932
C 5.488196 3.238999 7.926667
C 5.010235 2.273891 8.053819
C 6.062475 1.715994 7.180713
C 6.464058 2.594247 7.153874
C 6.512342 3.123586 7.970701
C 6.011592 2.250539 7.983728
C 7.029081 1.675021 7.173392
C 7.510588 2.536857 7.126455
C 7.462936 3.157488 7.906758
C 6.969646 2.274596 8.018422
C 8.043764 1.701674 7.182056
C 8.503346 2.663295 7.134415
C 8.471555 3.164772 7.962191
C 7.996422 2.272096 7.968849
C 0.041286 3.488159 7.242850
C 0.477382 4.266737 7.097692
C 0.458594 4.918292 7.915727
C 0.082054 4.103235 7.998894
C 0.977994 3.460217 7.100456
C 1.587139 4.363204 7.136823
C 1.535169 4.968151 7.994546
C 0.964728 4.054016 7.915784
C 1.975973 3.437979 7.085890
C 2.529399 4.280856 7.122381
C 2.544651 4.899112 7.908638
C 1.996708 4.018040 7.893489
C 2.947367 3.428486 7.142025
C 3.468790 4.329970 7.125975
C 3.513843 4.919401 7.878734
C 3.023820 4.061619 7.896789
C 4.056566 3.441391 7.204214
C 4.539155 4.264558 7.146122
C 4.556659 4.931595 7.946779
C 3.970640 3.958950 7.994364
C 5.058839 3.491648 7.105626
C 5.499680 4.277709 7.223293
C 5.518874 4.988608 7.980737
C 5.021854 4.017010 8.005656
C 6.067825 3.423892 7.139789
C 6.530919 4.406830 7.182551
C 6.559471 4.886072 7.947753
C 6.069007 4.012451 7.989901
C 7.007658 3.386878 7.125524
C 7.526397 4.354677 7.228566
C 7.545652 4.919596 7.970033
C 6.939081 4.063863 7.945828
C 7.952961 3.480840 7.145193
C 8.506412 4.392721 7.169697
C 8.471955 4.865232 7.966268
C 7.939620 4.082165 8.001530
C 0.022895 5.125526 7.069704
C 0.475519 6.138342 7.195048
C 0.439409 6.692404 7.987030
C 0.033860 5.732021 8.011470
C 0.993156 5.191503 7.121944
C 1.556069 6.059078 7.106809
C 1.468038 6.544260 7.996905
C 0.970218 5.775800 7.961588
C 2.025918 5.182982 7.188995
C 2.430340 6.011790 7.141653
C 2.547128 6.623546 8.017161
C 1.959448 5.782463 7.865868
C 2.934743 5.175446 7.194006
C 3.413967 6.123512 7.174337
C 3.514601 6.702409 7.942529
C 2.996209 5.808061 7.911045
C 4.040055 5.216872 7.200792
C 4.472714 6.007522 7.100551
C 4.495925 6.665021 8.063182
C 3.928953 5.799159 8.007437
C 4.971725 5.130188 7.069619
C 5.564153 6.063384 7.075523
C 5.499262 6.580902 7.967932
C 5.025593 5.776960 8.037661
C 6.046102 5.215173 7.203915
C 6.459730 6.039975 7.097987
C 6.491543 6.588231 8.033612
C 6.021730 5.764272 7.985578
C 7.005253 5.181675 7.211652
C 7.499439 6.046367 7.173957
C 7.454482 6.576619 7.945986
C 7.022449 5.856955 7.901585
C 7.951479 5.196286 7.145498
C 8.464423 6.075164 7.080902
C 8.532177 6.597530 7.964164
C 8.052203 5.799434 8.020674
C 0.008686 6.926334 7.143418
C 0.512505 7.791804 7.111302
C 0.496355 8.387321 7.910390
C 0.042056 7.487419 7.917147
C 0.967666 6.916019 7.144148
C 1.578710 7.790547 7.107313
C 1.450669 8.441872 7.979221
C 0.976588 7.548151 8.035795
C 2.013107 6.971338 7.103473
C 2.489870 7.816502 7.039617
C 2.440975 8.395008 7.984342
C 1.953812 7.575075 7.918312
C 2.976357 6.867870 7.161944
C 3.585446 7.827753 7.128338
C 3.446967 8.433581 7.927249
C 2.961807 7.527534 7.986683
C 3.970903 6.970437 7.031884
C 4.486621 7.769517 7.166554
C 4.528907 8.323625 7.991987
C 4.012947 7.472135 8.004382
C 4.997509 6.941471 7.204322
C 5.505830 7.831010 7.116332
C 5.504423 8.418157 7.917922
C 5.092110 7.485407 8.012587
C 5.975114 6.928783 7.072936
C 6.478862 7.862178 7.139523
C 6.538778 8.321798 7.916294
C 5.993216 7.502647 7.999830
C 6.973123 6.918213 7.154292
C 7.511289 7.739534 7.184745
C 7.541140 8.383761 7.974151
C 7.038811 7.557985 7.885134
C 8.014661 7.008787 7.183792
C 8.450763 7.851530 7.106121
C 8.526647 8.378041 8.025942
C 7.934597 7.471779 7.943389
C 0.046130 0.001408 8.791697
C 0.451768 0.819674 8.808109
C 0.495661 1.473064 9.525198
C 0.087706 0.561727 9.491436
C 0.953909 0.036325 8.702772
C 1.490661 0.945720 8.765999
C 1.457176 1.386982 9.537389
C 0.984659 0.602295 9.554112
C 1.931847 0.039514 8.791805
C 2.467109 0.865683 8.722145
C 2.568959 1.386377 9.551158
C 1.942605 0.590482 9.587157
C 3.049713 0.000378 8.764684
C 3.503038 0.835076 8.796699
C 3.490063 1.392488 9.540819
C 3.040938 0.566819 9.585021
C 4.082252 0.049090 8.742417
C 4.533739 0.850438 8.776154
C 4.526110 1.473718 9.546469
C 3.989780 0.536571 9.560013
C 4.935476 0.041320 8.710129
C 5.516982 0.938207 8.799600
C 5.516601 1.432204 9.524646
C 4.998793 0.645980 9.497790
C 5.997696 0.003819 8.808947
C 6.451234 0.855807 8.811242
C 6.559198 1.506846 9.574388
C 5.915125 0.611873 9.532680
C 7.020084 0.002114 8.754217
C 7.509954 0.862175 8.756859
C 7.495122 1.437728 9.591970
C 7.001804 0.617059 9.527362
C 7.979604 0.009246 8.734081
C 8.534072 0.917583 8.849039
C 8.494678 1.378256 9.585530
C 7.924723 0.497294 9.551857
C 0.040955 1.739765 8.669849
C 0.472358 2.544716 8.731352
C 0.463773 3.208379 9.558146
C 0.129251 2.348152 9.570424
C 0.956445 1.724386 8.690092
C 1.560821 2.626227 8.814667
C 1.544688 3.098447 9.526995
C 1.008200 2.299349 9.573907
C 1.971487 1.678846 8.797876
C 2.517231 2.524306 8.745730
C 2.560669 3.160628 9.531421
C 2.083874 2.337399 9.585773
C 3.030584 1.696826 8.763098
C 3.557172 2.680243 8.830425
C 3.501308 3.213174 9.544696
C 3.030245 2.365279 9.580341
C 4.034485 1.757136 8.845688
C 4.529984 2.605661 8.759306
C 4.435571 3.149681 9.587891
C 4.048216 2.338090 9.525824
C 5.003008 1.653772 8.812948
C 5.507003 2.603435 8.699785
C 5.585460 3.179930 9.535473
C 5.046760 2.348928 9.578136
C 6.052576 1.725549 8.758036
C 6.503830 2.554284 8.777962
C 6.515327 3.107748 9.554391
C 5.944423 2.271921 9.558843
C 6.958643 1.717697 8.697241
C 7.537363 2.566974 8.693552
C 7.495954 3.116551 9.591194
C 6.881608 2.317965 9.553598
C 7.981422 1.758293 8.754212
C 8.440575 2.546406 8.799273
C 8.488899 3.167519 9.558653
C 8.013701 2.373023 9.510244
C 0.012062 3.450525 8.850689
C 0.480325 4.354417 8.713553
C 0.434837 4.925072 9.575593
C 0.094658 4.080047 9.560363
C 1.024313 3.483542 8.805772
C 1.536474 4.371123 8.856099
C 1.444575 4.931225 9.583535
C 1.044500 4.034332 9.566557
C 1.981993 3.526617 8.724707
C 2.489117 4.315225 8.780777
C 2.500671 4.893567 9.537810
C 1.931813 3.991922 9.559608
C 3.057036 3.475372 8.813398
C 3.423662 4.342707 8.853857
C 3.535265 4.971156 9.487356
C 3.074325 4.019977 9.567984
C 4.036212 3.474922 8.795523
C 4.564611 4.326392 8.869152
C 4.496834 5.022441 9.568562
C 3.958434 4.030549 9.572166
C 5.036264 3.426417 8.732997
C 5.525876 4.428456 8.760761
C 5.423448 4.960994 9.571097
C 4.982036 4.041826 9.560170
C 5.931226 3.510226 8.756416
C 6.511609 4.390392 8.746907
C 6.550731 4.834031 9.570666
C 6.077169 4.045243 9.503108
C 6.913406 3.469005 8.804726
C 7.506630 4.316976 8.746999
C 7.555611 4.901612 9.543182
C 7.017956 4.091629 9.565910
C 8.051022 3.470314 8.808800
C 8.497038 4.239799 8.761292
C 8.483995 4.962022 9.545701
C 7.924828 4.063235 9.572570
C 0.141035 5.185722 8.728478
C 0.420874 6.105656 8.821243
C 0.460113 6.629703 9.571444
C 0.036937 5.677848 9.564706
C 1.054076 5.154311 8.759469
C 1.476574 6.020344 8.798139
C 1.567946 6.661583 9.524661
C 1.010832 5.875539 9.572939
C 2.000457 5.263282 8.723053
C 2.519040 6.043324 8.795410
C 2.497070 6.577764 9.524623
C 1.912079 5.822794 9.526855
C 2.992387 5.261905 8.733313
C 3.431555 6.118441 8.835185
C 3.460681 6.665120 9.525442
C 3.011350 5.701336 9.592559
C 4.032410 5.157373 8.759785
C 4.530968 6.062722 8.692169
C 4.453365 6.708841 9.582496
C 4.003181 5.710579 9.578782
C 5.001383 5.119323 8.808438
C 5.546501 6.069388 8.835718
C 5.471802 6.664800 9.549729
C 5.027367 5.734106 9.584928
C 6.004009 5.132000 8.789626
C 6.426890 6.020612 8.816174
C 6.518972 6.698566 9.565766
C 6.057860 5.817498 9.563792
C 7.041239 5.202546 8.781071
C 7.531426 6.060007 8.832633
C 7.457417 6.628971 9.592861
C 7.043536 5.737877 9.556409
C 8.059979 5.236089 8.824732
C 8.428773 5.962828 8.758165
C 8.564885 6.608223 9.494312
C 8.071050 5.760311 9.567615
C 0.076619 6.944750 8.810824
C 0.456398 7.774736 8.708074
C 0.585264 8.407698 9.535192
C 0.005032 7.469251 9.498246
C 1.021850 6.920250 8.827237
C 1.478921 7.721088 8.800993
C 1.514412 8.348801 9.497140
C 0.965229 7.608408 9.576499
C 1.979586 6.901867 8.842345
C 2.554566 7.790347 8.785589
C 2.441900 8.352858 9.581975
C 2.018822 7.429452 9.538795
C 3.028791 6.933428 8.749338
C 3.489479 7.738396 8.822793
C 3.575192 8.378330 9.543040
C 2.985410 7.506882 9.553289
C 3.988280 6.987583 8.782003
C 4.471034 7.808299 8.741536
C 4.531745 8.341490 9.522066
C 3.945314 7.528072 9.591354
C 4.959567 6.934494 8.856344
C 5.536654 7.812734 8.835621
C 5.524248 8.354689 9.584548
C 5.135984 7.436675 9.583496
C 5.933845 6.878887 8.759545
C 6.518620 7.748055 8.822660
C 6.555981 8.449720 9.579805
C 5.925203 7.525785 9.561842
C 7.021651 6.989762 8.772407
C 7.544026 7.842251 8.757779
C 7.604916 8.303176 9.582758
C 6.948224 7.583644 9.550667
C 7.993164 6.928900 8.851762
C 8.499519 7.803744 8.851120
C 8.523841 8.275838 9.555144
C 8.004900 7.457032 9.515197
2160
Frame 5/10
C 0.132503 0.013098 0.143070
C 0.609233 0.855073 0.039210
C 0.512125 1.519623 0.825181
C 0.000354 0.651343 0.878217
C 1.127028 0.071062 0.077176
C 1.453634 0.822264 0.061789
C 1.611564 1.429122 0.835921
C 1.071238 0.624040 0.769093
C 2.034476 0.076005 0.037209
C 2.439368 0.883508 0.116922
C 2.522985 1.452254 0.901172
C 1.941428 0.568209 0.816806
C 2.906528 0.062261 0.048751
C 3.495071 0.820534 0.025449
C 3.454385 1.424734 0.784754
C 3.011206 0.650289 0.705461
C 3.921572 0.076027 0.077230
C 4.459562 0.796905 0.023699
C 4.512357 1.380750 0.785331
C 4.011033 0.482625 0.813796
C 4.905602 0.044425 0.066001
C 5.570546 0.873704 0.002917
C 5.399142 1.417041 0.803525
C 5.026122 0.561655 0.802710
C 6.068180 0.139018 0.042263
C 6.506624 0.719954 0.041859
C 6.523670 1.488916 0.834335
C 6.011258 0.469257 0.804840
C 7.118675 0.029437 0.016162
C 7.439227 0.868996 0.091861
C 7.615858 1.458558 0.836683
C 7.065008 0.603613 0.910835
C 8.034511 0.054055 0.002850
C 8.562038 0.986907 0.037566
C 8.458865 1.472944 0.748295
C 7.849576 0.604401 0.754627
C 0.202978 1.672680 0.015612
C 0.482852 2.718211 0.068907
C 0.455566 3.107435 0.818183
C 0.074247 2.192164 0.841332
C 0.926184 1.682353 0.068858
C 1.422645 2.522897 0.011951
C 1.433694 3.218385 0.829815
C 1.002846 2.365408 0.785793
C 1.944945 1.616932 0.007981
C 2.533089 2.577884 0.071556
C 2.546943 3.151661 0.857312
C 1.985744 2.282413 0.749894
C 3.010945 1.761905 0.019193
C 3.608667 2.569379 0.017817
C 3.539753 3.183960 0.729435
C 3.008260 2.267671 0.875915
C 3.907283 1.764645 0.119185
C 4.603155 2.479015 0.014804
C 4.583511 3.172292 0.889777
C 3.989604 2.383803 0.726452
C 4.866253 1.803026 0.028822
C 5.479104 2.519873 0.027502
C 5.422793 3.133653 0.914386
C 4.974127 2.376637 0.866761
C 5.986970 1.729587 0.038247
C 6.536800 2.761293 0.028719
C 6.512359 3.109893 0.763510
C 6.079400 2.296385 0.865019
C 7.039916 1.792128 0.098938
C 7.549762 2.527015 0.065148
C 7.488626 3.207236 0.916998
C 6.876636 2.284375 0.877082
C 7.945166 1.788975 0.011455
C 8.571920 2.595452 0.002667
C 8.505302 3.109798 0.823419
C 7.949766 2.222456 0.903232
C 0.021104 3.363201 0.125414
C 0.490039 4.389084 0.098188
C 0.540682 5.040213 0.796482
C 0.005169 3.969594 0.849227
C 1.033670 3.406851 0.056411
C 1.558672 4.242126 0.049276
C 1.567975 4.854943 0.862868
C 0.971893 3.989679 0.875283
C 1.973762 3.575482 0.047698
C 2.447028 4.324830 0.068822
C 2.555465 4.843887 0.894997
C 1.930440 4.036445 0.830847
C 3.031434 3.475713 0.089372
C 3.568873 4.229719 0.000579
C 3.507833 4.966917 0.887940
C 3.067036 3.984901 0.745806
C 4.043318 3.520865 0.035861
C 4.553150 4.312123 0.004748
C 4.541697 4.890066 0.800993
C 4.007140 4.167513 0.854092
C 5.006229 3.380550 0.057761
C 5.514314 4.449398 0.131633
C 5.365432 4.903955 0.851401
C 5.029885 4.118934 0.776242
C 5.942724 3.399225 0.077550
C 6.475754 4.377101 0.014984
C 6.378321 4.817905 0.859041
C 5.985619 4.085984 0.885362
C 6.977615 3.541688 0.084479
C 7.405675 4.347200 0.015888
C 7.523125 4.916920 0.757391
C 6.909203 4.048444 0.779818
C 7.956953 3.423017 0.136798
C 8.382640 4.311571 0.002796
C 8.421437 4.812727 0.754889
C 7.949543 3.919088 0.789229
C 0.102828 5.079722 0.008418
C 0.470519 6.181757 0.018437
C 0.453281 6.633933 0.727780
C 0.078063 5.806912 0.706754
C 0.980330 5.176990 0.005824
C 1.470386 6.117171 0.011831
C 1.463435 6.773968 0.769663
C 0.918898 5.809037 0.731095
C 1.940806 5.268023 0.066143
C 2.610390 6.085577 0.105717
C 2.573935 6.722854 0.828990
C 2.021118 5.838471 0.734960
C 2.995687 5.181822 0.019222
C 3.491559 6.027149 0.068429
C 3.460688 6.671884 0.835771
C 3.078030 5.797924 0.788536
C 4.099725 5.234139 0.135533
C 4.520767 6.075685 0.052771
C 4.613076 6.747633 0.834075
C 3.961802 5.743009 0.711668
C 4.939435 5.255799 0.006721
C 5.620422 6.080464 0.089380
C 5.586400 6.617671 0.806993
C 5.070448 5.801667 0.912504
C 5.900580 5.179493 0.026440
C 6.463893 6.151486 0.004011
C 6.644582 6.550227 0.837579
C 5.982688 5.775498 0.812138
C 7.100154 5.201108 0.001013
C 7.507451 5.961680 0.109590
C 7.444840 6.647168 0.747745
C 7.048816 5.781688 0.890030
C 7.943352 5.188934 0.021527
C 8.645296 6.056412 0.017213
C 8.544574 6.734429 0.772035
C 7.930855 5.756930 0.779959
C 0.001783 6.832655 0.044668
C 0.541336 7.812289 0.036742
C 0.478074 8.447271 0.743806
C 0.041930 7.458779 0.823191
C 1.075310 6.916717 0.049656
C 1.407469 7.749994 0.005313
C 1.528501 8.337457 0.800939
C 1.000048 7.416092 0.910987
C 2.069304 6.927686 0.008558
C 2.503778 7.897984 0.047853
C 2.605869 8.364764 0.827999
C 2.077919 7.489359 0.740585
C 2.966844 7.052824 0.023547
C 3.361194 7.822822 0.023250
C 3.505485 8.338229 0.750121
C 3.022216 7.541770 0.918288
C 4.051654 6.795168 0.041731
C 4.458174 7.869254 0.039262
C 4.425523 8.464716 0.757693
C 4.012965 7.514515 0.766462
C 5.011109 6.896241 0.041404
C 5.379096 7.778144 0.055971
C 5.469604 8.336279 0.707249
C 5.014626 7.550002 0.779730
C 5.875000 6.963834 0.024187
C 6.512126 7.812906 0.057757
C 6.428140 8.404290 0.750302
C 5.945237 7.543269 0.720574
C 7.124119 6.921407 0.038201
C 7.496734 7.746576 0.033332
C 7.438982 8.416154 0.836124
C 7.016516 7.594561 0.855576
C 8.001239 6.944250 0.119053
C 8.472311 7.747618 0.035900
C 8.515275 8.294909 0.842449
C 8.015362 7.536894 0.723994
C 0.009637 0.084577 1.727742
C 0.515499 0.931996 1.576056
C 0.490749 1.450336 2.394671
C 0.071955 0.506088 2.408099
C 1.070168 0.101260 1.674083
C 1.542413 0.914687 1.692843
C 1.513653 1.367241 2.413156
C 0.989917 0.577536 2.529517
C 1.929561 0.035357 1.552806
C 2.479846 0.831671 1.659644
C 2.560525 1.386486 2.424234
C 2.005077 0.486555 2.482158
C 2.920170 0.046290 1.645869
C 3.461843 0.820854 1.704520
C 3.520051 1.439225 2.428093
C 2.978887 0.527606 2.473198
C 4.007995 0.006539 1.711611
C 4.572690 0.759635 1.593144
C 4.403746 1.448218 2.530530
C 4.052417 0.534515 2.430706
C 4.921524 0.081219 1.707616
C 5.545981 0.885521 1.632185
C 5.597502 1.390280 2.370978
C 4.991228 0.619101 2.470948
C 5.911356 0.070380 1.699372
C 6.580358 0.907996 1.564722
C 6.427418 1.377425 2.459059
C 6.084338 0.627374 2.558587
C 6.963807 0.005735 1.636294
C 7.528609 0.794903 1.686660
C 7.473857 1.525746 2.516356
C 7.061404 0.591593 2.527863
C 8.101643 0.016472 1.624790
C 8.471829 0.897219 1.623167
C 8.536707 1.492088 2.326722
C 7.997901 0.621895 2.383390
C 0.047022 1.802710 1.577604
C 0.498479 2.532718 1.596969
C 0.438446 3.259996 2.520374
C 0.030644 2.298137 2.423897
C 0.919710 1.719224 1.605360
C 1.516226 2.685012 1.581700
C 1.595772 3.204370 2.530717
C 0.962267 2.208650 2.443561
C 2.026526 1.813144 1.717016
C 2.606274 2.628917 1.588891
C 2.474022 3.204476 2.369190
C 1.901210 2.242162 2.494291
C 2.988160 1.706890 1.698183
C 3.579965 2.523718 1.630882
C 3.463658 3.225897 2.527968
C 2.931031 2.207714 2.380899
C 4.031768 1.778986 1.728973
C 4.469724 2.685317 1.676984
C 4.506702 3.203756 2.512491
C 3.966824 2.292990 2.396877
C 4.993163 1.749887 1.642297
C 5.556817 2.626357 1.623299
C 5.423947 3.191453 2.358744
C 5.042670 2.315696 2.436163
C 6.037744 1.804131 1.728392
C 6.568797 2.628831 1.556607
C 6.474558 3.169622 2.525919
C 6.091704 2.332678 2.531597
C 6.992533 1.660776 1.598255
C 7.510157 2.641022 1.553817
C 7.434158 3.188825 2.499544
C 6.919874 2.191919 2.381938
C 8.032737 1.703348 1.546817
C 8.510026 2.532748 1.650888
C 8.534449 3.169163 2.412950
C 7.956201 2.351078 2.542810
C 0.002444 3.469458 1.749049
C 0.453844 4.319231 1.705192
C 0.516472 4.853190 2.403979
C 0.005132 4.019845 2.578112
C 1.023192 3.372863 1.698870
C 1.387825 4.447862 1.627739
C 1.466906 4.967133 2.439191
C 0.978385 4.116968 2.549338
C 2.070105 3.522613 1.728865
C 2.513981 4.246147 1.643876
C 2.571857 4.896319 2.474539
C 2.021630 4.092994 2.404084
C 2.942357 3.522441 1.561340
C 3.421758 4.303529 1.658297
C 3.449017 4.982219 2.461527
C 3.034704 4.074536 2.518841
C 3.993528 3.503831 1.719971
C 4.502876 4.411735 1.600881
C 4.460270 4.790298 2.387788
C 3.967764 4.034359 2.551815
C 5.059158 3.509626 1.610744
C 5.457397 4.430688 1.590916
C 5.458986 4.795536 2.477853
C 4.923903 3.985112 2.480473
C 5.945327 3.547958 1.708609
C 6.590335 4.284527 1.737149
C 6.431560 4.841337 2.384784
C 5.972862 3.993092 2.482733
C 6.937836 3.403450 1.635197
C 7.462683 4.355343 1.608559
C 7.501569 4.908674 2.361197
C 7.103423 3.943206 2.476134
C 8.094450 3.397882 1.602864
C 8.426139 4.339057 1.679512
C 8.446292 4.806691 2.528905
C 7.986947 4.064527 2.492274
C 0.073110 5.206476 1.683448
C 0.521420 6.056885 1.752499
C 0.556935 6.596529 2.546965
C 0.041164 5.767971 2.449006
C 1.057148 5.187415 1.647224
C 1.392924 6.046747 1.535403
C 1.549810 6.650012 2.414369
C 1.014170 5.742846 2.470404
C 1.936676 5.177967 1.586019
C 2.498641 6.002321 1.609372
C 2.567672 6.744798 2.456094
C 1.994572 5.668695 2.501165
C 2.923786 5.258944 1.599272
C 3.537729 6.059008 1.643923
C 3.492674 6.582027 2.401757
C 2.937024 5.792916 2.530137
C 4.007385 5.169708 1.699524
C 4.465308 6.029671 1.627356
C 4.565304 6.633451 2.487135
C 4.016016 5.855759 2.478718
C 4.878463 5.169743 1.681768
C 5.510254 6.070791 1.585211
C 5.442195 6.682675 2.501515
C 5.020180 5.699462 2.404803
C 5.965562 5.135666 1.667970
C 6.494456 6.150899 1.588552
C 6.578414 6.590542 2.385439
C 6.111519 5.756012 2.484419
C 6.996116 5.229949 1.612574
C 7.578589 6.023237 1.612212
C 7.369153 6.569330 2.440859
C 6.875149 5.797345 2.463656
C 8.036984 5.165814 1.506375
C 8.459192 5.982285 1.705562
C 8.500390 6.580777 2.521072
C 8.069674 5.780326 2.578174
C 0.006694 6.949072 1.752935
C 0.477883 7.697237 1.611392
C 0.506893 8.469653 2.374537
C 0.058732 7.574043 2.312403
C 0.985872 6.792835 1.656851
C 1.587910 7.753165 1.700272
C 1.439026 8.415587 2.417951
C 1.060155 7.439332 2.417051
C 1.918410 6.981360 1.675979
C 2.510299 7.775949 1.720690
C 2.529415 8.389229 2.484087
C 1.989315 7.473263 2.414558
C 2.996824 6.851837 1.622768
C 3.364415 7.789309 1.706532
C 3.615390 8.439011 2.418079
C 3.009871 7.502915 2.496115
C 4.037795 6.877432 1.603512
C 4.496640 7.684701 1.653032
C 4.482049 8.438135 2.333378
C 3.959907 7.381264 2.428572
C 4.945554 6.815638 1.634089
C 5.540576 7.738919 1.731772
C 5.498046 8.421276 2.425595
C 4.934305 7.582195 2.397770
C 5.971647 6.891217 1.613471
C 6.447468 7.831525 1.585080
C 6.435528 8.292251 2.488210
C 5.943305 7.516488 2.558282
C 6.991682 6.965529 1.572095
C 7.598531 7.785871 1.618884
C 7.584409 8.322086 2.454675
C 7.006695 7.561179 2.435406
C 8.010941 6.980326 1.576293
C 8.582246 7.795971 1.654506
C 8.544064 8.431637 2.326927
C 7.982235 7.547076 2.478622
C 0.016961 0.013653 3.209522
C 0.509507 0.813935 3.289916
C 0.471267 1.411591 4.156207
C 0.112219 0.634151 3.989430
C 0.956606 0.066330 3.218839
C 1.492578 0.941995 3.341604
C 1.399068 1.435846 4.147853
C 1.049571 0.654346 4.150478
C 2.083508 0.068599 3.221192
C 2.579060 0.920878 3.212756
C 2.534231 1.502526 4.002082
C 1.975870 0.544666 4.156982
C 2.986202 0.045821 3.400664
C 3.554821 0.865784 3.219536
C 3.615308 1.427116 4.131298
C 3.140542 0.602360 4.047769
C 3.943059 0.026632 3.336013
C 4.487881 0.986311 3.356851
C 4.402929 1.522423 4.073835
C 3.905551 0.489767 4.035749
C 5.057595 0.063730 3.211758
C 5.558746 0.915554 3.326984
C 5.547339 1.474084 4.079044
C 5.022920 0.506506 4.078489
C 6.051849 0.025922 3.186736
C 6.523790 0.979574 3.312347
C 6.637052 1.413511 4.117863
C 6.000414 0.632201 3.969057
C 6.954623 0.044465 3.393590
C 7.486247 0.870526 3.115332
C 7.520588 1.538080 4.145018
C 7.066835 0.641614 4.190982
C 7.939822 0.050336 3.266200
C 8.563677 0.995251 3.295170
C 8.553724 1.446834 3.985809
C 8.008241 0.591466 4.078927
C 0.138379 1.819815 3.326054
C 0.426619 2.523885 3.337781
C 0.433118 3.189154 4.042308
C 0.109551 2.385102 4.157499
C 1.075430 1.651398 3.306022
C 1.563267 2.720591 3.265277
C 1.519552 3.212149 4.117431
C 1.053791 2.315434 4.166528
C 2.044418 1.802067 3.355390
C 2.453217 2.666878 3.370423
C 2.500303 3.115467 3.981787
C 2.083262 2.219886 4.131969
C 3.026471 1.812410 3.380640
C 3.427448 2.652004 3.316111
C 3.521382 3.220194 4.113818
C 2.918968 2.303259 3.982614
C 4.047136 1.711230 3.151429
C 4.496839 2.659605 3.196392
C 4.413482 3.183623 4.061880
C 4.103706 2.228638 4.031196
C 5.093435 1.708495 3.235756
C 5.481848 2.594469 3.369727
C 5.603684 3.111250 4.053000
C 5.013285 2.392839 3.974341
C 6.102483 1.653404 3.265850
C 6.495119 2.581917 3.297432
C 6.532842 3.140920 4.107823
C 5.936288 2.242624 4.131011
C 6.977923 1.754634 3.200295
C 7.453249 2.699280 3.201416
C 7.500970 3.203584 4.085849
C 7.065048 2.229431 4.063552
C 7.914696 1.788739 3.228914
C 8.457976 2.597784 3.240015
C 8.487602 3.201816 4.179055
C 7.992339 2.361934 4.126890
C 0.084521 3.407760 3.271926
C 0.515788 4.224852 3.163582
C 0.521509 4.796223 4.066373
C 0.049606 4.136311 4.033139
C 0.921184 3.466788 3.236386
C 1.521844 4.294876 3.315346
C 1.512907 4.828508 4.052255
C 0.967238 3.968417 4.093099
C 1.951332 3.416215 3.253529
C 2.489514 4.343668 3.391112
C 2.577678 4.919189 4.026102
C 1.960672 4.097861 3.995821
C 3.036011 3.346294 3.333831
C 3.455021 4.255517 3.238442
C 3.533009 4.882338 3.971550
C 3.012162 3.960013 4.182657
C 3.954645 3.499098 3.309418
C 4.457778 4.311377 3.367892
C 4.417798 4.872436 4.140035
C 4.055835 4.048152 4.045056
C 4.993517 3.500469 3.226355
C 5.490204 4.308258 3.239046
C 5.571143 4.838563 4.161524
C 5.033685 3.944338 4.044852
C 6.098723 3.429146 3.312636
C 6.383042 4.343678 3.208980
C 6.535277 4.848787 3.997806
C 5.939597 3.962140 4.014459
C 7.088856 3.525828 3.353224
C 7.491055 4.344967 3.233086
C 7.446783 4.888032 3.969691
C 7.026704 4.052727 4.132016
C 8.062718 3.445950 3.183670
C 8.565330 4.270524 3.231813
C 8.562426 4.942554 3.974252
C 7.963685 4.027868 4.184935
C 0.061648 5.219896 3.309041
C 0.411950 6.095417 3.296370
C 0.513031 6.765073 4.060968
C 0.052781 5.753127 4.210197
C 1.017856 5.277763 3.246723
C 1.509050 6.132192 3.215538
C 1.403103 6.625694 4.093095
C 0.899476 5.843813 4.097205
C 1.936126 5.221502 3.311120
C 2.420844 6.116736 3.217535
C 2.454041 6.580428 4.114404
C 1.980919 5.776126 4.091104
C 3.007170 5.183665 3.307279
C 3.612293 6.102911 3.182904
C 3.527054 6.710974 4.171174
C 2.984138 5.863448 4.069684
C 4.035388 5.229350 3.198628
C 4.460252 5.970860 3.263331
C 4.516074 6.604402 4.149817
C 3.957333 5.778236 4.107909
C 4.997534 5.223417 3.343790
C 5.480473 5.979046 3.344445
C 5.451365 6.579943 4.041377
C 4.958326 5.706995 4.068408
C 5.964418 5.279718 3.215883
C 6.580292 5.982939 3.304726
C 6.572024 6.699767 4.063495
C 5.922336 5.775974 4.019211
C 6.930432 5.216024 3.224788
C 7.464247 6.045338 3.369613
C 7.547955 6.605390 3.981743
C 7.058012 5.745275 4.063458
C 8.075684 5.165608 3.161140
C 8.552712 6.033386 3.198464
C 8.477644 6.629484 4.104911
C 8.081751 5.775713 4.080222
C 0.113676 6.966430 3.346587
C 0.400194 7.729813 3.290383
C 0.409731 8.393003 4.095313
C 0.110943 7.545743 4.062595
C 0.945540 6.839093 3.316720
C 1.460078 7.776152 3.263967
C 1.558676 8.282262 4.049998
C 0.971221 7.481219 3.966661
C 1.921219 6.861719 3.307117
C 2.523775 7.760680 3.167975
C 2.446488 8.428972 4.003211
C 2.081152 7.449558 4.042271
C 3.036361 6.918273 3.311035
C 3.504328 7.878826 3.346634
C 3.518485 8.326801 4.041330
C 2.940786 7.470973 4.066025
C 3.996841 6.934754 3.263557
C 4.574634 7.759381 3.184618
C 4.518268 8.276243 4.127193
C 4.059162 7.468347 4.086523
C 4.952572 6.876587 3.208283
C 5.465324 7.801508 3.201335
C 5.483113 8.455680 4.185157
C 5.068812 7.514056 4.073915
C 5.949739 6.969878 3.181667
C 6.518378 7.714077 3.275105
C 6.617842 8.414509 4.068680
C 5.956914 7.475646 4.202783
C 7.005659 7.030920 3.307120
C 7.525223 7.852646 3.251754
C 7.575630 8.368070 4.177347
C 7.058917 7.538489 3.991239
C 7.983269 6.995265 3.294707
C 8.523533 7.702522 3.297692
C 8.442773 8.403884 4.058168
C 8.003569 7.529890 4.201072
C 0.098206 0.045318 4.876122
C 0.394364 0.896698 4.931154
C 0.614213 1.467537 5.724261
C 0.017347 0.661225 5.683829
C 1.031809 0.015523 5.036913
C 1.506920 0.899018 5.019902
C 1.606174 1.464186 5.652081
C 1.022579 0.574468 5.651505
C 1.914339 0.025357 4.883315
C 2.442803 0.897618 4.811537
C 2.551327 1.423305 5.698220
C 2.012262 0.649648 5.667695
C 3.024421 0.075431 4.789937
C 3.389507 0.941959 4.909122
C 3.524994 1.462747 5.682791
C 2.928409 0.615295 5.699296
C 4.031331 0.044874 4.886182
C 4.541258 0.846535 4.847469
C 4.585326 1.372954 5.755491
C 3.940078 0.619078 5.804168
C 5.082393 0.003525 4.998184
C 5.485222 0.862359 4.909977
C 5.540673 1.373730 5.782968
C 5.008199 0.505782 5.740066
C 5.918909 0.001959 4.876795
C 6.503368 0.806885 4.971564
C 6.568719 1.514973 5.752654
C 5.989262 0.676205 5.636986
C 7.075595 0.046488 4.981942
C 7.480289 0.945170 4.983681
C 7.576046 1.480296 5.691466
C 7.099238 0.523037 5.705307
C 8.004784 0.111834 4.776888
C 8.448749 0.863965 4.803963
C 8.477364 1.429875 5.703173
C 7.967485 0.553412 5.767694
C 0.009516 1.700959 4.834201
C 0.465403 2.631886 4.964247
C 0.469175 3.173933 5.660053
C 0.005155 2.380556 5.665102
C 0.916971 1.804322 4.962155
C 1.527535 2.536657 4.860835
C 1.444003 3.070647 5.709489
C 1.032944 2.280964 5.603264
C 1.994100 1.769277 4.822446
C 2.455804 2.628604 4.858780
C 2.594859 3.179611 5.785621
C 2.106757 2.284355 5.672224
C 3.041396 1.805336 4.917870
C 3.420581 2.697556 4.892047
C 3.528558 3.124478 5.671450
C 3.018837 2.213217 5.684744
C 3.993131 1.710688 4.863277
C 4.517359 2.528075 4.859750
C 4.463635 3.167534 5.641578
C 4.019126 2.348755 5.815253
C 4.976069 1.706400 4.822206
C 5.448762 2.544440 4.927014
C 5.523544 3.209258 5.815491
C 4.955058 2.345858 5.707221
C 5.901063 1.778489 4.835396
C 6.498096 2.608557 4.848476
C 6.571390 3.229485 5.676515
C 5.969744 2.394257 5.714951
C 7.040114 1.763387 4.951904
C 7.490952 2.662118 4.800489
C 7.477780 3.286823 5.706446
C 6.916652 2.308384 5.714278
C 8.005234 1.764411 4.924968
C 8.459285 2.688230 4.890259
C 8.434838 3.172687 5.728396
C 8.074328 2.312881 5.652998
C 0.050489 3.382606 4.891599
C 0.554055 4.260929 4.882601
C 0.569285 4.890913 5.751837
C 0.087594 3.972865 5.815242
C 1.028938 3.419641 4.836755
C 1.482384 4.386629 4.940137
C 1.447758 5.040070 5.750769
C 0.919453 4.062783 5.765995
C 2.072135 3.408432 4.849007
C 2.495387 4.349020 5.028152
C 2.485597 4.838308 5.706731
C 2.030079 4.011641 5.637786
C 2.923419 3.474021 4.811546
C 3.486817 4.391418 4.863978
C 3.598387 4.945714 5.667428
C 2.967468 3.962617 5.645781
C 3.970851 3.420747 4.863838
C 4.528297 4.343955 4.901576
C 4.526006 4.985151 5.750113
C 3.890211 4.119010 5.643208
C 5.068695 3.384343 4.886849
C 5.590066 4.386086 4.855176
C 5.502650 4.992005 5.818297
C 5.027011 4.006665 5.786979
C 6.013998 3.545584 4.807967
C 6.429010 4.393962 4.881906
C 6.475111 4.872648 5.752651
C 5.909266 4.003071 5.725477
C 6.934292 3.471470 4.877475
C 7.508439 4.380798 4.962760
C 7.506524 4.983654 5.717191
C 7.114991 3.969634 5.723377
C 8.077240 3.440426 4.912870
C 8.531237 4.389307 4.914093
C 8.473775 5.010381 5.652364
C 7.982534 4.084290 5.673702
C 0.009396 5.255190 4.961511
C 0.489546 6.006807 4.948002
C 0.506902 6.753292 5.775604
C 0.074193 5.746100 5.739709
C 1.058564 5.171711 4.965605
C 1.415696 6.006190 4.860264
C 1.459046 6.711423 5.630985
C 1.104546 5.724754 5.711645
C 2.041155 5.257042 4.973457
C 2.456807 6.089625 4.918779
C 2.438546 6.695244 5.730452
C 2.014129 5.733785 5.807766
C 3.112875 5.196044 4.881844
C 3.467483 5.975671 4.980620
C 3.508657 6.655228 5.642848
C 3.046673 5.776810 5.744693
C 4.069868 5.272156 4.903551
C 4.469327 6.174467 4.896624
C 4.516010 6.698861 5.778485
C 3.983808 5.818735 5.602455
C 5.027550 5.240315 4.949324
C 5.542251 6.128980 4.831393
C 5.477387 6.547030 5.725679
C 5.048707 5.815770 5.669108
C 6.031369 5.118026 4.981559
C 6.454616 6.166362 4.882224
C 6.428976 6.582380 5.783098
C 6.002253 5.831588 5.796171
C 7.062588 5.115635 4.943876
C 7.507483 5.932858 4.957145
C 7.523333 6.672730 5.719349
C 7.002682 5.782604 5.690333
C 8.034574 5.162362 4.865310
C 8.550954 5.987716 4.833448
C 8.560248 6.590590 5.645999
C 7.931873 5.761016 5.682199
C 0.059313 7.029678 4.882502
C 0.475577 7.808393 4.850785
C 0.452296 8.442628 5.664223
C 0.080591 7.392428 5.705551
C 0.981712 7.026692 4.819953
C 1.478303 7.667302 4.922541
C 1.562890 8.453201 5.705270
C 1.080061 7.611380 5.678296
C 1.971577 6.972735 4.841845
C 2.475948 7.901180 4.931681
C 2.396294 8.469320 5.704438
C 1.978437 7.459120 5.604595
C 3.043244 6.959039 4.970456
C 3.475873 7.767416 4.903023
C 3.520166 8.337890 5.659855
C 3.067134 7.487532 5.691159
C 4.091305 7.006964 4.881253
C 4.457892 7.703865 4.899447
C 4.426408 8.414692 5.680438
C 4.107722 7.441430 5.724922
C 5.001138 7.010258 4.906753
C 5.574999 7.665471 4.882325
C 5.486995 8.463730 5.710231
C 5.096384 7.558604 5.749799
C 6.034184 7.073081 4.930884
C 6.501530 7.835167 4.973417
C 6.543607 8.359426 5.556044
C 6.108113 7.530685 5.734781
C 6.888227 6.989210 4.936954
C 7.428808 7.857619 4.906520
C 7.446833 8.420830 5.723884
C 6.918851 7.525517 5.793783
C 8.018564 7.027228 4.957295
C 8.569547 7.819456 4.955745
C 8.546214 8.410296 5.713023
C 7.945532 7.514447 5.808426
C 0.086334 0.035117 6.568561
C 0.508973 0.944626 6.495759
C 0.419727 1.511419 7.327804
C 0.140374 0.635312 7.341967
C 1.033769 0.025230 6.391233
C 1.448020 0.911614 6.616129
C 1.457230 1.522160 7.401914
C 0.961861 0.485533 7.434597
C 1.920150 0.075652 6.541566
C 2.453582 0.824741 6.534800
C 2.490377 1.525998 7.299015
C 1.949759 0.559682 7.491413
C 3.081329 0.061029 6.426088
C 3.595774 0.872341 6.623725
C 3.449122 1.431315 7.261527
C 3.004750 0.476530 7.367921
C 4.018700 0.065508 6.614598
C 4.557661 0.773170 6.503473
C 4.522318 1.398686 7.438608
C 3.894322 0.630602 7.381708
C 5.056873 0.065792 6.454664
C 5.438758 0.766855 6.507867
C 5.554158 1.496616 7.274304
C 4.930389 0.524568 7.378600
C 5.950204 0.016167 6.461831
C 6.463697 0.811134 6.473577
C 6.521104 1.501686 7.284614
C 5.984394 0.579167 7.332802
C 6.968794 0.113239 6.575990
C 7.456779 0.888980 6.648438
C 7.428812 1.530765 7.411220
C 7.036774 0.635154 7.294124
C 7.917088 0.066901 6.489385
C 8.573685 0.889781 6.497358
C 8.528895 1.539883 7.445554
C 8.024363 0.589849 7.381167
C 0.117214 1.763812 6.504970
C 0.585970 2.608604 6.566081
C 0.440477 3.102880 7.347668
C 0.129648 2.338621 7.394372
C 0.997988 1.784008 6.506206
C 1.515220 2.577661 6.604378
C 1.599246 3.163728 7.384784
C 1.018319 2.395971 7.246080
C 2.063213 1.647988 6.505394
C 2.491634 2.662268 6.479766
C 2.512143 3.167316 7.335506
C 1.997760 2.313364 7.350243
C 3.055667 1.649562 6.509965
C 3.401079 2.540481 6.504556
C 3.585462 3.217412 7.369521
C 2.955434 2.366441 7.255138
C 3.982964 1.748238 6.483198
C 4.404550 2.584157 6.438491
C 4.525631 3.117756 7.412367
C 3.895199 2.299278 7.375270
C 4.882376 1.694843 6.591186
C 5.465213 2.585924 6.511596
C 5.546815 3.183690 7.417332
C 5.108314 2.299411 7.284469
C 6.046938 1.791833 6.535442
C 6.554745 2.595495 6.668293
C 6.423313 3.174030 7.459411
C 6.061516 2.179779 7.393479
C 7.078216 1.765945 6.524323
C 7.442228 2.470656 6.543571
C 7.470533 3.072189 7.309710
C 6.926829 2.382885 7.409253
C 7.887588 1.820974 6.555944
C 8.414091 2.631702 6.591096
C 8.533269 3.217446 7.418635
C 8.014919 2.212247 7.261984
C 0.068209 3.508198 6.548619
C 0.416238 4.356354 6.596259
C 0.470949 4.899598 7.234443
C 0.043366 4.142872 7.275500
C 0.997322 3.381917 6.558585
C 1.432792 4.281782 6.522526
C 1.501700 4.815406 7.281242
C 1.038135 4.077577 7.385517
C 1.997416 3.549913 6.470291
C 2.485473 4.382828 6.569587
C 2.449283 4.893614 7.426843
C 1.907203 4.040361 7.332954
C 2.930327 3.521533 6.536879
C 3.553273 4.411917 6.581980
C 3.433595 4.982758 7.381211
C 2.926801 4.013675 7.406951
C 4.011487 3.389222 6.460786
C 4.558129 4.331244 6.523677
C 4.482488 4.992851 7.321177
C 4.081076 3.979311 7.260360
C 4.978601 3.374143 6.614827
C 5.521219 4.318087 6.606101
C 5.497925 4.782221 7.343554
C 5.075913 4.015273 7.258759
C 5.897910 3.499545 6.517917
C 6.480605 4.423688 6.546138
C 6.363940 4.891606 7.419677
C 5.968338 4.065122 7.511939
C 7.007391 3.494519 6.600177
C 7.497965 4.339939 6.432604
C 7.533322 4.898588 7.326934
C 6.972924 4.045748 7.297253
C 8.026336 3.385860 6.464251
C 8.487939 4.399396 6.486805
C 8.401357 4.896460 7.310843
C 8.039668 4.087945 7.279786
C 0.075424 5.278237 6.488711
C 0.481619 6.108967 6.426122
C 0.477090 6.712209 7.439794
C 0.064306 5.784243 7.333121
C 1.031613 5.159149 6.414628
C 1.524631 6.182048 6.590398
C 1.496259 6.717081 7.319457
C 1.007616 5.785423 7.307905
C 2.031844 5.220132 6.479836
C 2.550423 6.075376 6.498327
C 2.449518 6.710385 7.339633
C 2.109176 5.784817 7.428245
C 2.979691 5.126684 6.549208
C 3.575356 6.090502 6.663214
C 3.507772 6.702879 7.371160
C 2.919614 5.801434 7.336933
C 3.965487 5.081319 6.532695
C 4.466874 5.969102 6.555128
C 4.485016 6.512191 7.371568
C 3.950911 5.866407 7.295244
C 4.970888 5.137557 6.529933
C 5.422352 6.028843 6.543993
C 5.415652 6.640162 7.410617
C 5.113279 5.767864 7.348044
C 5.932537 5.209850 6.451284
C 6.621565 6.037623 6.576228
C 6.458058 6.648418 7.268900
C 5.993948 5.780979 7.423148
C 6.913343 5.147600 6.531981
C 7.453254 6.017441 6.456388
C 7.462692 6.706017 7.251357
C 6.986107 5.850865 7.381512
C 7.982232 5.170725 6.489046
C 8.487520 6.038979 6.551614
C 8.437491 6.671322 7.281967
C 8.093008 5.765665 7.373794
C 0.104917 6.963953 6.498471
C 0.437829 7.808983 6.573306
C 0.539899 8.251630 7.305864
C 0.005514 7.490305 7.344589
C 1.096626 6.931480 6.513459
C 1.468494 7.664060 6.481835
C 1.616352 8.315367 7.337289
C 1.005103 7.526401 7.245338
C 1.921656 6.888115 6.562439
C 2.556361 7.755639 6.460531
C 2.568605 8.386300 7.450642
C 2.023856 7.627052 7.301852
C 2.955376 6.994575 6.485921
C 3.542379 7.787055 6.505781
C 3.603120 8.395712 7.329704
C 2.943596 7.468908 7.282790
C 4.084812 6.900069 6.492989
C 4.572329 7.724033 6.457725
C 4.496792 8.333376 7.430642
C 4.032458 7.386578 7.345981
C 4.996306 6.924978 6.487074
C 5.476706 7.683178 6.596002
C 5.441621 8.359135 7.319407
C 4.883739 7.443620 7.400610
C 5.891385 7.017798 6.497107
C 6.474309 7.851881 6.427068
C 6.455564 8.389380 7.336106
C 6.086086 7.445353 7.329072
C 6.990742 6.993031 6.585945
C 7.581264 7.804847 6.548259
C 7.543966 8.386374 7.452538
C 6.998992 7.562985 7.346061
C 8.025308 6.956144 6.693324
C 8.441271 7.718314 6.499250
C 8.499619 8.403554 7.298856
C 7.924616 7.488898 7.408323
C 0.058291 0.015708 8.220806
C 0.494100 0.903604 8.165433
C 0.474704 1.463803 8.960976
C 0.113365 0.477297 8.965764
C 1.032303 0.098502 8.161206
C 1.486756 0.873205 8.249064
C 1.475957 1.496000 8.958785
C 0.989518 0.657950 9.013008
C 2.019208 0.093552 8.044088
C 2.542299 0.826790 8.202187
C 2.507411 1.516218 9.059800
C 2.054809 0.670329 8.960377
C 2.885422 0.046881 8.164488
C 3.456373 0.841242 8.211379
C 3.553057 1.492613 8.954743
C 2.962501 0.527175 8.968642
C 3.892719 0.057516 8.129703
C 4.576585 0.993067 8.136313
C 4.522854 1.503524 8.901278
C 3.949155 0.696375 8.980375
C 5.054358 0.061591 8.225810
C 5.540437 0.868710 8.134534
C 5.580813 1.501264 8.979402
C 4.957157 0.522665 8.897482
C 5.963946 0.127498 8.191993
C 6.499310 0.766720 8.216218
C 6.551018 1.476362 8.911593
C 5.955700 0.548204 8.885562
C 6.940963 0.036279 8.208497
C 7.520068 0.863907 8.101110
C 7.536653 1.424217 8.868698
C 7.051871 0.487479 8.920403
C 7.877326 0.006547 8.228301
C 8.482090 0.802715 8.068461
C 8.477636 1.438218 9.020648
C 8.020969 0.499449 9.071786
C 0.012772 1.645308 8.145447
C 0.521205 2.568583 8.122375
C 0.463283 3.188137 9.037240
C 0.016993 2.217990 8.877028
C 0.941428 1.713029 8.043017
C 1.571129 2.585381 8.161467
C 1.566119 3.231663 9.017427
C 1.042683 2.393602 8.934733
C 1.980848 1.607492 8.220925
C 2.395685 2.532171 8.161814
C 2.531712 3.052078 8.986770
C 2.097264 2.389942 9.032727
C 3.017804 1.792619 8.205968
C 3.546005 2.680777 8.188853
C 3.526401 3.219838 8.953487
C 2.970855 2.393244 8.898320
C 3.928715 1.718584 8.192980
C 4.423689 2.690519 8.203293
C 4.496438 3.206934 8.920415
C 3.946654 2.384778 8.930920
C 4.956579 1.671488 8.089178
C 5.540113 2.706755 8.161541
C 5.536732 3.188276 8.918210
C 5.003178 2.363610 8.939547
C 6.071343 1.700980 8.192709
C 6.403657 2.547958 8.154455
C 6.479865 3.231228 9.039558
C 6.015773 2.429285 8.984758
C 7.047622 1.704774 8.083396
C 7.406512 2.650754 8.246219
C 7.547416 3.225594 9.042934
C 6.973630 2.322238 8.948037
C 7.920866 1.795217 8.200453
C 8.436674 2.523654 8.158666
C 8.466937 3.203671 8.895180
C 7.970193 2.385009 8.978650
C 0.016737 3.450823 8.225485
C 0.510972 4.450481 8.147151
C 0.508439 4.840038 8.988055
C 0.000088 3.944914 8.903593
C 0.923276 3.452607 8.185511
C 1.474957 4.272082 8.130301
C 1.476207 4.887648 9.052736
C 0.910447 4.048831 9.019857
C 1.974131 3.396715 8.204546
C 2.444000 4.349105 8.252722
C 2.537576 4.835858 8.983247
C 1.943150 4.006738 8.903409
C 2.989421 3.492965 8.117745
C 3.581862 4.285302 8.270618
C 3.488753 4.802485 8.959823
C 2.920337 4.123213 9.065619
C 3.959129 3.375649 8.127063
C 4.520692 4.342364 8.117821
C 4.551205 4.878999 9.049741
C 4.060537 4.023745 9.061405
C 5.023508 3.572409 8.250151
C 5.512390 4.407685 8.188072
C 5.459036 4.942821 9.047685
C 4.999558 3.946656 8.904299
C 6.091689 3.423269 8.195392
C 6.495365 4.305192 8.218883
C 6.441791 4.856177 8.935403
C 6.061852 3.999787 8.977409
C 6.960992 3.454370 8.169750
C 7.479011 4.234841 8.184797
C 7.489864 4.853546 8.973070
C 7.034583 3.965788 8.946502
C 7.983867 3.521172 8.059340
C 8.607745 4.275812 8.219454
C 8.448157 4.856185 8.954902
C 7.958885 3.962408 9.049993
C 0.031740 5.282100 8.267156
C 0.574443 6.149629 8.093567
C 0.468764 6.666307 9.022831
C 0.031848 5.832343 9.100804
C 1.002058 5.120181 8.238022
C 1.482194 5.953209 8.117086
C 1.521760 6.557591 8.953021
C 1.048255 5.748779 8.926661
C 2.100957 5.266241 8.174116
C 2.512294 6.133179 8.076834
C 2.589741 6.638655 8.942228
C 2.003421 5.688618 8.988058
C 3.121246 5.182867 8.105947
C 3.451635 6.162416 8.161660
C 3.580556 6.664064 8.927082
C 2.991266 5.841086 9.034784
C 4.015087 5.195868 8.083694
C 4.549419 6.090085 8.142760
C 4.442141 6.602076 8.969679
C 4.022947 5.665846 8.914149
C 5.038173 5.252104 8.212404
C 5.555568 6.006855 8.123942
C 5.516912 6.575876 8.903562
C 5.045021 5.922399 8.917897
C 5.941723 5.111718 8.209877
C 6.454823 6.010130 8.162572
C 6.458163 6.679725 9.054701
C 5.938396 5.680887 8.954331
C 6.976933 5.261139 8.248951
C 7.419038 6.007057 8.187241
C 7.488858 6.543188 9.001601
C 6.908747 5.782132 9.011964
C 7.969858 5.234122 8.137494
C 8.473880 6.026135 8.282231
C 8.565450 6.719173 8.957296
C 7.953289 5.746689 9.084011
C 0.007083 6.943720 8.182217
C 0.528110 7.745567 8.153203
C 0.442855 8.413125 9.078525
C 0.010922 7.567454 8.934160
C 1.078248 6.871435 8.100809
C 1.519970 7.862091 8.098005
C 1.414315 8.327101 8.879757
C 0.914318 7.458155 8.962572
C 1.937427 6.854924 8.174188
C 2.500392 7.701336 8.156699
C 2.617403 8.429887 9.060187
C 1.964993 7.600256 8.982079
C 3.038285 6.922817 8.083605
C 3.416749 7.722560 8.120294
C 3.573831 8.295763 8.956465
C 2.980149 7.606003 9.000258
C 4.054191 6.978768 8.243094
C 4.550825 7.762701 8.184868
C 4.440398 8.416574 9.000999
C 3.936148 7.608044 8.939562
C 4.992928 6.888844 8.236997
C 5.525083 7.880667 8.143560
C 5.512708 8.300177 9.014842
C 4.916690 7.549785 9.014671
C 6.044443 6.857765 8.092629
C 6.578871 7.807429 8.173459
C 6.567418 8.272689 8.958686
C 5.954421 7.419774 8.943532
C 6.943048 6.856791 8.110432
C 7.495516 7.888821 8.112338
C 7.487904 8.350261 8.881374
C 6.950253 7.546828 9.044404
C 8.068516 6.920545 8.169480
C 8.389249 7.779912 8.173689
C 8.574523 8.351451 9.053813
C 7.993423 7.567929 9.026457
C 0.057483 0.110843 0.645713
C 0.448741 0.817303 0.667000
C 0.479742 1.458516 1.377988
C 0.039405 0.515183 1.317504
C 1.004345 0.004066 0.711990
C 1.510075 0.860431 0.557527
C 1.528062 1.443268 1.364039
C 0.963709 0.498164 1.411849
C 2.009943 0.002603 0.547869
C 2.520490 0.961782 0.677833
C 2.562156 1.412956 1.473315
C 2.101205 0.541992 1.450826
C 3.019454 0.011071 0.503020
C 3.495975 0.924684 0.626562
C 3.495286 1.485406 1.403204
C 3.077407 0.589508 1.360989
C 4.038272 0.003627 0.578737
C 4.443750 0.862274 0.672000
C 4.421669 1.500981 1.452186
C 4.004534 0.538326 1.391977
C 5.012916 0.009653 0.696008
C 5.441025 0.923461 0.671950
C 5.497725 1.491546 1.431273
C 4.969973 0.550236 1.358632
C 6.086493 0.059212 0.534699
C 6.479101 0.803913 0.524548
C 6.543497 1.516579 1.392132
C 6.112878 0.596631 1.499910
C 6.976440 0.092204 0.555488
C 7.428643 0.870720 0.654652
C 7.490829 1.401940 1.331471
C 6.920993 0.590843 1.429250
C 8.052886 0.048168 0.721218
C 8.472729 0.880054 0.533135
C 8.427938 1.379779 1.446311
C 8.006189 0.682361 1.501033
C 0.024820 1.676301 0.737846
C 0.447108 2.543666 0.614510
C 0.496507 3.155916 1.483424
C 0.016989 2.352012 1.507752
C 0.989834 1.688974 0.583641
C 1.441782 2.552993 0.659375
C 1.558435 3.285600 1.359689
C 0.940167 2.255581 1.418731
C 2.027739 1.621242 0.614484
C 2.414961 2.556908 0.540329
C 2.539446 3.153234 1.430994
C 1.984326 2.334091 1.328457
C 3.037431 1.701311 0.666931
C 3.560682 2.631197 0.555993
C 3.434717 3.116656 1.469489
C 2.887894 2.268503 1.520651
C 4.003212 1.687966 0.602501
C 4.461284 2.553799 0.586933
C 4.479198 3.087455 1.408713
C 4.094993 2.327857 1.536939
C 4.912098 1.758767 0.541785
C 5.433969 2.566738 0.686081
C 5.458664 3.144698 1.530244
C 5.000107 2.289928 1.412261
C 6.074794 1.737941 0.631531
C 6.429333 2.525264 0.597659
C 6.522361 3.177006 1.449407
C 5.953329 2.210708 1.432729
C 7.015751 1.594516 0.621200
C 7.408771 2.575449 0.611095
C 7.516315 3.148939 1.462689
C 7.020445 2.411546 1.428112
C 8.071884 1.722216 0.527015
C 8.550950 2.625125 0.543630
C 8.533756 3.082577 1.376847
C 8.104554 2.269149 1.442250
C 0.103552 3.423260 0.653916
C 0.475090 4.424229 0.685466
C 0.500965 4.821166 1.308694
C 0.000332 3.996907 1.485456
C 1.009607 3.361281 0.623624
C 1.476486 4.375596 0.702765
C 1.540366 4.848448 1.433137
C 0.887140 4.029850 1.433912
C 1.966768 3.374607 0.582459
C 2.522703 4.213336 0.610024
C 2.517037 4.942351 1.470382
C 2.074541 4.081511 1.362491
C 3.106967 3.400418 0.649083
C 3.396943 4.373070 0.598890
C 3.508508 4.955089 1.583507
C 2.999588 4.061044 1.295620
C 3.997893 3.424176 0.585050
C 4.406790 4.275894 0.643902
C 4.415792 4.861409 1.402634
C 4.021016 4.042066 1.391331
C 5.016051 3.516218 0.517500
C 5.553656 4.415553 0.696090
C 5.617327 4.932560 1.361939
C 5.046590 4.098657 1.457462
C 6.061768 3.472455 0.614705
C 6.452214 4.268649 0.576945
C 6.412647 4.879322 1.466861
C 5.927025 3.965769 1.418844
C 7.020752 3.510735 0.617158
C 7.574485 4.302581 0.588894
C 7.446196 4.858638 1.473747
C 6.965252 4.013173 1.436459
C 8.113054 3.414858 0.684346
C 8.460967 4.321471 0.501946
C 8.490789 5.001168 1.507653
C 8.036618 4.002066 1.428626
C 0.007827 5.274615 0.691979
C 0.496229 6.049554 0.641858
C 0.470687 6.729861 1.418278
C 0.045133 5.730941 1.334203
C 0.925470 5.320840 0.640281
C 1.565726 6.061691 0.537430
C 1.504494 6.596119 1.370180
C 0.994355 5.756999 1.387696
C 1.958923 5.135729 0.678983
C 2.487411 6.085457 0.597613
C 2.520544 6.714945 1.346953
C 1.927969 5.843000 1.428936
C 3.017822 5.217746 0.588619
C 3.460701 6.074261 0.569071
C 3.470654 6.673235 1.455283
C 3.011709 5.795899 1.444318
C 3.899266 5.169961 0.639545
C 4.402798 6.013937 0.670116
C 4.470331 6.630567 1.300547
C 3.955027 5.746102 1.353804
C 4.976562 5.105287 0.581098
C 5.500614 5.986870 0.706309
C 5.540333 6.672666 1.553151
C 5.030489 5.853133 1.506245
C 5.955747 5.267430 0.508429
C 6.543320 6.087930 0.585770
C 6.480255 6.718359 1.323047
C 6.066612 5.722517 1.459619
C 6.899571 5.224878 0.674593
C 7.433063 6.017928 0.653382
C 7.515040 6.613283 1.471382
C 7.031012 5.781698 1.431326
C 8.007713 5.144770 0.675323
C 8.483707 5.981966 0.608280
C 8.461051 6.653342 1.528708
C 8.028904 5.820058 1.496247
C 0.079463 6.939863 0.586289
C 0.421177 7.798862 0.695555
C 0.579293 8.386006 1.455197
C 0.055763 7.428211 1.389335
C 1.013281 6.892992 0.683659
C 1.556233 7.835193 0.676418
C 1.439648 8.436347 1.394238
C 1.042229 7.491221 1.461663
C 1.968955 6.901385 0.707494
C 2.501954 7.782483 0.620896
C 2.489572 8.403601 1.515371
C 2.066848 7.504692 1.495665
C 2.961258 6.930075 0.589578
C 3.427049 7.759683 0.504773
C 3.517752 8.403219 1.490246
C 3.033491 7.484659 1.502479
C 4.005558 6.831307 0.721227
C 4.595420 7.815260 0.608673
C 4.449285 8.342509 1.438306
C 4.062382 7.406582 1.457021
C 4.973574 7.072228 0.563026
C 5.416400 7.824843 0.586371
C 5.428628 8.386445 1.402209
C 5.116066 7.545152 1.383801
C 5.998010 6.900148 0.489334
C 6.560387 7.863274 0.630718
C 6.401617 8.393108 1.451332
C 5.969638 7.581625 1.442857
C 6.951543 6.923517 0.618031
C 7.556904 7.828783 0.505662
C 7.561890 8.450327 1.457345
C 6.929850 7.592390 1.361002
C 8.041399 6.932128 0.640828
C 8.483815 7.795692 0.592360
C 8.491682 8.405461 1.324184
C 7.948476 7.461881 1.481224
C 0.195216 0.092543 2.173456
C 0.492402 0.877655 2.289437
C 0.488162 1.510468 3.159819
C 0.069929 0.582441 3.153890
C 0.897899 0.091396 2.277243
C 1.434384 0.875638 2.221141
C 1.502254 1.420302 3.082480
C 0.975267 0.566824 3.062564
C 2.003727 0.041398 2.137799
C 2.534629 0.855021 2.231853
C 2.554978 1.407215 3.012165
C 1.943445 0.510638 3.074148
C 2.901571 0.006878 2.263469
C 3.567541 0.971347 2.232425
C 3.472218 1.460779 3.032118
C 2.894245 0.552866 3.124791
C 4.143513 0.042061 2.228134
C 4.514555 0.930344 2.271175
C 4.525361 1.441498 2.980908
C 4.066385 0.605965 3.077767
C 4.915233 0.007284 2.279325
C 5.401760 0.878665 2.320595
C 5.484225 1.372046 3.128428
C 5.035238 0.539115 2.963660
C 5.982517 0.089151 2.292517
C 6.397736 0.896147 2.219575
C 6.492386 1.371756 3.049764
C 6.050533 0.604495 3.115897
C 6.951974 0.004319 2.156131
C 7.518630 0.818618 2.332074
C 7.505787 1.487379 3.041742
C 6.898089 0.599545 3.043337
C 7.974206 0.036613 2.123301
C 8.576783 0.782819 2.249907
C 8.514988 1.460787 3.102868
C 7.932141 0.661856 3.062958
C 0.016473 1.796821 2.169821
C 0.573843 2.669386 2.305981
C 0.616305 3.127457 3.006324
C 0.047321 2.260862 3.067033
C 0.939190 1.682709 2.166426
C 1.616498 2.613321 2.198852
C 1.398365 3.254191 3.000238
C 1.020496 2.265741 3.090730
C 1.954905 1.666397 2.289915
C 2.537470 2.504252 2.313487
C 2.583742 3.245426 3.062332
C 1.983020 2.304078 2.998145
C 2.934245 1.688249 2.232551
C 3.506956 2.640262 2.151445
C 3.556548 3.078826 3.090516
C 3.087474 2.373092 3.088093
C 3.930782 1.727300 2.210874
C 4.518334 2.643569 2.254955
C 4.538272 3.205611 3.079022
C 3.942639 2.239805 2.950370
C 5.016551 1.716583 2.306195
C 5.518685 2.678032 2.245118
C 5.616665 3.203026 3.093156
C 5.000775 2.173845 3.034099
C 6.078453 1.709167 2.237811
C 6.485257 2.575603 2.173141
C 6.621937 3.192866 3.097693
C 5.983831 2.402282 2.978857
C 7.030600 1.717535 2.364893
C 7.527837 2.651102 2.223093
C 7.544635 3.280218 3.086084
C 6.907467 2.303381 3.002221
C 7.973015 1.706813 2.266511
C 8.499379 2.654513 2.144847
C 8.553504 3.198995 3.052617
C 7.889758 2.341681 3.114043
C 0.097450 3.590523 2.198263
C 0.561460 4.379223 2.205706
C 0.519262 4.808680 3.084972
C 0.085566 4.047887 3.141535
C 1.065091 3.489290 2.214957
C 1.450347 4.408272 2.173656
C 1.539933 4.815695 3.090817
C 0.946691 3.965175 3.034513
C 1.980012 3.480630 2.248412
C 2.493082 4.288816 2.299095
C 2.532410 4.984341 3.099115
C 2.042231 3.999025 3.050037
C 3.005688 3.494606 2.347643
C 3.408104 4.309732 2.209439
C 3.467184 4.876141 2.936327
C 3.052585 3.911476 3.096342
C 4.113468 3.387260 2.260929
C 4.586331 4.319213 2.223436
C 4.412353 4.817542 3.031129
C 4.034911 4.093573 3.081183
C 5.062663 3.522821 2.291826
C 5.565996 4.402591 2.246059
C 5.557801 4.960540 3.141576
C 4.917491 4.057429 3.034141
C 5.952855 3.467769 2.351510
C 6.496988 4.367012 2.208015
C 6.531757 4.770305 3.090404
C 6.091797 4.015906 2.997099
C 6.938359 3.411538 2.184027
C 7.420480 4.327314 2.189090
C 7.447169 4.913688 3.023074
C 6.931425 4.103912 3.119442
C 7.960210 3.562406 2.232729
C 8.429492 4.309848 2.266639
C 8.611867 4.924486 3.085456
C 7.993753 4.145793 3.150539
C 0.063097 5.309056 2.246922
C 0.521579 6.017371 2.258861
C 0.439232 6.690850 3.126761
C 0.117125 5.767892 3.195342
C 0.968369 5.253796 2.286026
C 1.402236 6.127897 2.305850
C 1.469121 6.661343 3.189775
C 1.014791 5.795056 3.183912
C 2.054897 5.222442 2.220782
C 2.485332 6.169379 2.275178
C 2.471060 6.601970 3.145003
C 1.923489 5.674410 3.040856
C 2.974889 5.231746 2.210960
C 3.603335 5.998968 2.255683
C 3.468059 6.647764 3.163942
C 3.033502 5.695672 3.138680
C 3.940893 5.096330 2.317980
C 4.468578 6.008272 2.323063
C 4.461572 6.672740 3.110956
C 4.019743 5.809874 2.992640
C 4.881693 5.150804 2.244325
C 5.457915 5.973501 2.302798
C 5.561002 6.586023 3.057762
C 4.953498 5.675896 3.013416
C 5.999990 5.195962 2.367087
C 6.389038 6.065372 2.250597
C 6.554976 6.593461 2.947590
C 5.975802 5.786400 2.960358
C 6.963435 5.307138 2.275958
C 7.491814 6.123793 2.272749
C 7.525456 6.610517 3.000227
C 7.102584 5.781441 3.045618
C 7.969430 5.167552 2.271500
C 8.505747 6.095022 2.183103
C 8.600628 6.595568 3.000075
C 7.961203 5.694259 3.096290
C 0.141385 6.909375 2.314842
C 0.530011 7.849772 2.272884
C 0.552185 8.297374 3.124498
C 0.007443 7.404792 3.101676
C 1.049964 6.880018 2.318347
C 1.433484 7.769021 2.260581
C 1.517295 8.341476 3.069262
C 0.977434 7.391250 3.098635
C 1.979056 6.834355 2.237492
C 2.444420 7.741249 2.299459
C 2.432446 8.313743 2.978478
C 2.027822 7.483251 3.157747
C 2.949409 6.949012 2.215557
C 3.486412 7.810626 2.235332
C 3.506964 8.500632 3.014743
C 2.991936 7.527058 3.140082
C 3.992711 6.873328 2.385981
C 4.497518 7.818832 2.209714
C 4.435178 8.382936 3.133180
C 3.981131 7.480719 3.029916
C 4.935174 6.943129 2.215862
C 5.397395 7.734620 2.301972
C 5.478502 8.438704 3.141137
C 4.940157 7.394402 3.024474
C 5.881758 6.900613 2.228604
C 6.421964 7.823611 2.287466
C 6.464843 8.363252 2.993270
C 6.016616 7.452460 3.191561
C 6.915797 6.912781 2.222971
C 7.450684 7.716091 2.328607
C 7.465791 8.376639 3.173001
C 7.095782 7.554288 3.094072
C 8.109446 6.863888 2.241589
C 8.442366 7.774168 2.327585
C 8.523745 8.435551 2.969392
C 8.091316 7.582407 3.088191
C 0.033749 0.030844 3.766182
C 0.542874 0.776656 3.804540
C 0.451790 1.435554 4.709735
C 0.016375 0.629225 4.732839
C 1.025153 0.076343 3.728856
C 1.414201 0.840325 3.825218
C 1.522133 1.562883 4.657357
C 0.937626 0.605089 4.785073
C 1.957744 0.009816 3.944299
C 2.513703 0.820269 3.875537
C 2.458614 1.436764 4.707209
C 2.101490 0.559732 4.724214
C 3.123787 0.011231 3.934456
C 3.420084 0.942671 3.947407
C 3.456601 1.407724 4.658481
C 2.941137 0.605101 4.596864
C 4.012814 0.117831 3.806696
C 4.592514 0.867104 3.792889
C 4.564996 1.378711 4.725304
C 4.003735 0.568585 4.645795
C 5.030649 0.052163 3.867783
C 5.530601 0.795674 3.843488
C 5.568937 1.431756 4.636581
C 5.099275 0.621003 4.679719
C 6.012482 0.054800 3.822818
C 6.425313 0.879698 3.917007
C 6.448866 1.369131 4.591714
C 5.950631 0.517301 4.711127
C 7.008028 0.013303 3.889567
C 7.470935 0.857528 3.810238
C 7.522193 1.404967 4.767087
C 6.953148 0.634775 4.669869
C 7.979240 0.037587 3.884062
C 8.550217 0.856796 3.872744
C 8.519533 1.380086 4.608433
C 7.888476 0.614063 4.785414
C 0.018474 1.722513 3.759041
C 0.460845 2.498488 3.891342
C 0.538890 3.192998 4.766048
C 0.040825 2.293379 4.779805
C 0.911803 1.751255 3.780068
C 1.607991 2.634307 3.898870
C 1.464848 3.253563 4.791467
C 0.978194 2.250221 4.698278
C 2.080196 1.713072 3.932708
C 2.494896 2.629662 3.947532
C 2.541120 3.176503 4.757332
C 1.965736 2.261534 4.642791
C 3.049504 1.790113 3.987797
C 3.443947 2.655163 3.844803
C 3.459876 3.169594 4.667580
C 2.909222 2.323942 4.758782
C 3.909848 1.686052 3.800504
C 4.571079 2.524759 3.865855
C 4.547976 3.294003 4.709277
C 4.011950 2.301678 4.729961
C 4.969979 1.685641 3.889385
C 5.566689 2.560629 3.882282
C 5.526758 3.174676 4.641931
C 4.961486 2.359932 4.666439
C 6.015490 1.845348 3.845389
C 6.560073 2.524571 3.914644
C 6.523468 3.195604 4.704008
C 5.987010 2.322830 4.771518
C 6.930530 1.795960 3.971154
C 7.420623 2.610889 3.860949
C 7.431476 3.141941 4.592183
C 7.018939 2.241048 4.709985
C 7.995368 1.788191 3.831073
C 8.529551 2.500232 3.878343
C 8.481679 3.164395 4.703549
C 8.044409 2.291310 4.732551
C 0.003396 3.520901 3.988784
C 0.594778 4.302344 3.943473
C 0.420930 4.804874 4.624743
C 0.037321 4.028729 4.724239
C 0.964696 3.500561 3.807399
C 1.434369 4.376086 3.815238
C 1.513460 4.824807 4.668813
C 1.005569 3.970409 4.596201
C 2.006923 3.505816 3.880637
C 2.596350 4.367450 3.874153
C 2.441013 4.858085 4.591271
C 1.918508 4.008690 4.657480
C 3.053786 3.550991 3.896679
C 3.440440 4.407713 3.811995
C 3.597945 4.999029 4.747330
C 3.034384 3.936528 4.730034
C 4.004810 3.466089 3.991541
C 4.568872 4.241324 3.891507
C 4.491265 4.985184 4.719755
C 4.043134 4.056292 4.779874
C 4.978458 3.418114 3.870096
C 5.483876 4.284215 3.882341
C 5.539534 4.847551 4.669483
C 4.990561 3.952000 4.719131
C 5.885689 3.462432 3.963792
C 6.429424 4.280098 3.830639
C 6.555474 4.916724 4.620802
C 6.022661 4.106555 4.680525
C 7.071612 3.486158 3.922568
C 7.446999 4.394180 3.870816
C 7.525824 4.937042 4.564794
C 6.957912 3.982900 4.764369
C 7.895570 3.484471 3.867832
C 8.429803 4.436144 3.897773
C 8.448775 4.838141 4.692979
C 7.896138 4.049935 4.673882
C 0.018199 5.209693 3.865491
C 0.491619 6.008424 3.804069
C 0.517869 6.710382 4.707096
C 0.135385 5.714040 4.691878
C 1.010912 5.261512 3.922378
C 1.421648 6.111853 3.938043
C 1.566791 6.749650 4.646150
C 0.977614 5.759700 4.713364
C 2.005276 5.226718 3.899475
C 2.438128 6.104036 3.921938
C 2.517879 6.737961 4.692088
C 1.971991 5.857136 4.663015
C 2.902697 5.218395 3.830497
C 3.466122 6.131664 3.855807
C 3.461162 6.586470 4.675771
C 3.086951 5.868112 4.715494
C 3.941818 5.196390 3.797940
C 4.504829 6.147462 3.861906
C 4.424336 6.670516 4.715480
C 3.960271 5.768769 4.641078
C 5.029790 5.124572 3.954852
C 5.546719 6.098813 3.906389
C 5.499232 6.618256 4.587345
C 4.917430 5.837153 4.742818
C 5.953262 5.282206 3.894544
C 6.511698 5.982309 3.884144
C 6.448581 6.700581 4.641604
C 6.011118 5.777003 4.831994
C 6.993833 5.282586 3.854102
C 7.448400 6.042082 3.943954
C 7.420272 6.706354 4.717694
C 7.021374 5.845718 4.664809
C 7.955336 5.218316 3.813020
C 8.524183 6.022658 3.966839
C 8.414808 6.636568 4.687819
C 7.885945 5.677385 4.648357
C 0.037804 6.960873 3.945223
C 0.521356 7.691882 3.847398
C 0.472910 8.374093 4.740184
C 0.000404 7.546278 4.729565
C 1.006080 6.915298 3.847294
C 1.488479 7.825739 3.807670
C 1.381743 8.395438 4.668795
C 0.918331 7.594742 4.735382
C 1.924053 6.913162 3.916624
C 2.492376 7.705362 3.809251
C 2.496372 8.457409 4.750677
C 2.016771 7.476833 4.716181
C 2.976164 6.903274 3.907436
C 3.483875 7.733561 3.766819
C 3.484752 8.282011 4.615783
C 2.875765 7.470816 4.672031
C 3.964553 6.848651 3.870286
C 4.396143 7.812298 3.878834
C 4.538546 8.347138 4.617617
C 4.037123 7.493651 4.694228
C 4.995181 6.883386 3.888906
C 5.401980 7.837866 3.853589
C 5.492318 8.320146 4.679310
C 4.895066 7.457782 4.720323
C 5.979131 7.008567 3.817220
C 6.411781 7.788756 3.914295
C 6.447170 8.316489 4.607526
C 5.951062 7.618821 4.652418
C 6.968204 6.918599 3.826117
C 7.467033 7.903663 3.833830
C 7.498943 8.445808 4.640486
C 7.041353 7.564996 4.784034
C 8.072199 6.964523 3.821390
C 8.598099 7.753865 3.875435
C 8.467219 8.297347 4.595279
C 7.986742 7.517254 4.771377
C 0.034184 0.134692 5.586832
C 0.427492 0.871136 5.457243
C 0.476575 1.432860 6.224799
C 0.035672 0.663647 6.280503
C 1.020509 0.089992 5.557783
C 1.522943 0.821926 5.526640
C 1.469130 1.442989 6.247972
C 1.020715 0.584355 6.304154
C 1.979094 0.104512 5.592570
C 2.475470 0.867785 5.575850
C 2.490316 1.415335 6.403802
C 1.953933 0.584448 6.210477
C 3.072786 0.079164 5.406214
C 3.509833 0.852428 5.598440
C 3.607871 1.437282 6.272295
C 2.965573 0.576248 6.268699
C 4.011228 0.011144 5.582171
C 4.536869 0.840404 5.509785
C 4.466719 1.555408 6.320070
C 3.891322 0.632292 6.326551
C 5.109763 0.014313 5.593599
C 5.404176 0.813920 5.540488
C 5.495461 1.501416 6.306222
C 5.014533 0.659144 6.313887
C 6.087594 0.021725 5.505406
C 6.522851 0.781956 5.537045
C 6.459175 1.386538 6.302775
C 6.019860 0.577361 6.242011
C 7.018441 0.067330 5.510010
C 7.451771 0.839403 5.589735
C 7.492004 1.511859 6.350874
C 7.025882 0.552637 6.193777
C 8.052904 0.033450 5.435215
C 8.518376 0.867772 5.536967
C 8.651125 1.428274 6.350721
C 8.080801 0.492753 6.278040
C 0.017392 1.726892 5.413016
C 0.441036 2.573456 5.580786
C 0.499213 3.284515 6.393511
C 0.029623 2.204270 6.246167
C 0.943065 1.688362 5.455415
C 1.426353 2.659568 5.460396
C 1.464858 3.196096 6.416001
C 1.117372 2.344747 6.394996
C 1.973370 1.757795 5.601839
C 2.496098 2.576896 5.546275
C 2.603383 3.278911 6.282997
C 1.903181 2.332668 6.401406
C 2.920150 1.719214 5.502933
C 3.354773 2.584340 5.495294
C 3.479228 3.296847 6.363973
C 3.055818 2.210718 6.293564
C 4.030536 1.652829 5.433476
C 4.589327 2.640438 5.546404
C 4.500590 3.177255 6.443653
C 3.965854 2.293624 6.350107
C 5.000416 1.655724 5.492250
C 5.361069 2.619862 5.570285
C 5.433354 3.230104 6.354999
C 4.922595 2.313194 6.384378
C 5.980657 1.824583 5.426864
C 6.426702 2.679991 5.456367
C 6.513956 3.047132 6.323936
C 6.061268 2.333467 6.404097
C 6.950050 1.762534 5.528867
C 7.468357 2.597913 5.481569
C 7.460644 3.171670 6.218277
C 6.941956 2.389188 6.259938
C 8.009701 1.783007 5.517811
C 8.566138 2.581809 5.560202
C 8.525299 3.236509 6.332917
C 8.005804 2.231520 6.365666
C 0.114012 3.470599 5.466856
C 0.411948 4.315252 5.497377
C 0.460111 4.870279 6.220147
C 0.001486 4.107384 6.367207
C 1.076676 3.391902 5.457962
C 1.488023 4.362417 5.460692
C 1.471834 4.904830 6.272044
C 0.966740 4.008986 6.412735
C 1.884365 3.526702 5.471969
C 2.557273 4.304820 5.520603
C 2.526588 4.947383 6.372074
C 1.947608 4.097524 6.331527
C 3.076130 3.478980 5.548548
C 3.492674 4.352085 5.626062
C 3.450295 4.991512 6.341672
C 2.953719 4.168692 6.277681
C 4.026984 3.520456 5.447982
C 4.465643 4.246269 5.433239
C 4.454227 4.905497 6.320975
C 3.968583 4.039690 6.269051
C 5.036442 3.376711 5.530533
C 5.483073 4.255150 5.605669
C 5.533941 4.915562 6.319046
C 4.955413 4.069718 6.342482
C 6.013592 3.547714 5.456111
C 6.504815 4.250928 5.540750
C 6.354665 4.907588 6.407864
C 6.021364 4.045758 6.260345
C 7.033940 3.494374 5.428684
C 7.578249 4.437012 5.508053
C 7.531406 4.968208 6.332962
C 7.031181 3.945211 6.334517
C 7.926314 3.446530 5.616560
C 8.417604 4.292753 5.561853
C 8.612872 4.874728 6.306137
C 7.999177 3.967075 6.266508
C 0.021358 5.182759 5.567076
C 0.480437 6.098590 5.604802
C 0.467845 6.556206 6.436429
C 0.034279 5.805391 6.312805
C 0.939266 5.202458 5.625435
C 1.492730 6.145088 5.531144
C 1.596616 6.629491 6.286777
C 0.896472 5.698235 6.344141
C 2.053603 5.098172 5.501943
C 2.449382 6.058718 5.609113
C 2.499075 6.697730 6.342599
C 2.057133 5.783059 6.339998
C 2.958389 5.208486 5.502284
C 3.576670 6.079630 5.588471
C 3.500808 6.639246 6.228078
C 3.040289 5.846572 6.330146
C 4.048597 5.129352 5.489090
C 4.494458 6.037575 5.627244
C 4.537169 6.730486 6.435028
C 4.079545 5.708520 6.350877
C 5.042255 5.303542 5.519428
C 5.565779 6.005569 5.531734
C 5.536322 6.521595 6.340480
C 4.952219 5.661925 6.385313
C 5.964647 5.231274 5.441617
C 6.523151 6.006009 5.479651
C 6.538905 6.566413 6.349235
C 5.971504 5.728285 6.271777
C 7.077130 5.198967 5.447132
C 7.533942 6.078733 5.502973
C 7.432929 6.705831 6.278257
C 6.965288 5.673807 6.387319
C 7.937378 5.246696 5.509736
C 8.467864 6.141663 5.592170
C 8.475916 6.692660 6.376391
C 7.969377 5.743068 6.300651
C 0.085721 6.864423 5.577684
C 0.461801 7.715902 5.416617
C 0.473695 8.417546 6.210084
C 0.004576 7.599408 6.330609
C 1.058283 6.937472 5.421761
C 1.522451 7.713529 5.494256
C 1.431401 8.331168 6.244669
C 0.943747 7.514240 6.436796
C 2.008629 6.839050 5.522070
C 2.545595 7.808147 5.487382
C 2.439091 8.431678 6.296153
C 2.026793 7.562795 6.238017
C 3.027756 6.818401 5.529952
C 3.558750 7.819601 5.475320
C 3.512220 8.382101 6.225546
C 2.973486 7.511862 6.207094
C 4.007160 7.003437 5.426786
C 4.484080 7.858207 5.619353
C 4.469095 8.377176 6.216117
C 3.955931 7.510736 6.412610
C 4.886363 6.948352 5.546248
C 5.484198 7.853559 5.514037
C 5.612262 8.278076 6.331320
C 5.047661 7.405555 6.333796
C 5.932845 6.910507 5.545387
C 6.495143 7.869307 5.495616
C 6.512363 8.362998 6.200733
C 6.087945 7.556962 6.272278
C 7.052101 6.951068 5.435374
C 7.536380 7.914989 5.530306
C 7.499021 8.321650 6.259618
C 7.031914 7.467313 6.280703
C 8.005220 7.055576 5.464485
C 8.431980 7.812837 5.486376
C 8.432959 8.426543 6.237483
C 7.955958 7.398063 6.325374
C 0.060200 0.034105 7.218566
C 0.485737 0.955544 7.256086
C 0.468389 1.495590 7.897667
C 0.099981 0.576860 8.002493
C 1.008740 0.085505 7.172048
C 1.526952 0.955348 7.207389
C 1.467200 1.526348 8.054280
C 0.982209 0.550949 7.936039
C 2.066280 0.100497 7.023901
C 2.558717 0.751893 7.124787
C 2.354054 1.447490 7.966495
C 1.911245 0.624090 8.013648
C 3.054878 0.081679 7.111669
C 3.504180 0.842182 7.120038
C 3.498034 1.513721 7.982236
C 3.037574 0.581825 8.089237
C 4.048452 0.120005 7.242578
C 4.472737 0.807242 7.200068
C 4.419622 1.443939 8.096269
C 3.999363 0.573602 7.932224
C 4.901668 0.008801 7.176940
C 5.481271 0.955330 7.121059
C 5.473301 1.463391 7.898707
C 5.039438 0.539531 7.977437
C 5.970479 0.072814 7.151553
C 6.478195 0.778011 7.171650
C 6.578646 1.511810 7.955694
C 6.035963 0.652727 7.970919
C 7.009814 0.004911 7.103564
C 7.594265 0.884045 7.180298
C 7.530373 1.436854 7.870678
C 7.045845 0.638436 7.939618
C 8.066843 0.035930 7.233722
C 8.456756 0.815437 7.188416
C 8.409487 1.459216 7.996739
C 8.072074 0.502120 7.969139
C 0.048073 1.849318 7.151746
C 0.459544 2.528857 7.107281
C 0.438152 3.222591 7.876131
C 0.019837 2.265014 7.984593
C 1.023487 1.685571 7.095802
C 1.502651 2.669187 7.217420
C 1.488983 3.073448 7.882523
C 0.990355 2.267483 7.886226
C 1.944520 1.761680 7.194999
C 2.434930 2.658627 7.031995
C 2.464730 3.131313 7.859761
C 1.954145 2.301879 7.877978
C 2.989279 1.643387 7.169734
C 3.438599 2.634696 7.118433
C 3.502339 3.244295 7.915912
C 3.021468 2.317389 7.918048
C 3.919517 1.685033 7.117506
C 4.578544 2.581797 7.227080
C 4.446132 3.072087 7.920034
C 4.005234 2.375206 7.931000
C 4.953976 1.797643 7.099077
C 5.613725 2.594936 7.225126
C 5.484261 3.260189 7.915276
C 5.013646 2.262055 8.084812
C 6.083299 1.710642 7.192834
C 6.452077 2.592969 7.157049
C 6.516456 3.106305 7.973989
C 6.015455 2.230919 7.991358
C 7.038774 1.656011 7.183073
C 7.514118 2.516449 7.120490
C 7.450582 3.151507 7.888730
C 6.959528 2.262994 8.037616
C 8.058351 1.691549 7.194624
C 8.504461 2.685033 7.131103
C 8.462074 3.161219 7.962641
C 7.995229 2.259661 7.971519
C 0.055048 3.496179 7.275683
C 0.469842 4.245606 7.082139
C 0.444792 4.921896 7.900689
C 0.109405 4.123830 8.011578
C 0.970659 3.458922 7.085825
C 1.616185 4.374229 7.134314
C 1.546892 4.988374 8.005781
C 0.952970 4.058204 7.900766
C 1.967963 3.429272 7.066403
C 2.539198 4.264431 7.115058
C 2.559535 4.896322 7.891237
C 1.995611 4.010237 7.871039
C 2.929822 3.416614 7.141250
C 3.458386 4.329916 7.119850
C 3.518457 4.923375 7.851366
C 3.031760 4.068342 7.875439
C 4.075421 3.433822 7.224168
C 4.552207 4.242700 7.146712
C 4.575545 4.939633 7.942092
C 3.960854 3.931450 8.005539
C 5.078452 3.500831 7.092717
C 5.499574 4.260235 7.249607
C 5.525166 5.015651 7.987370
C 5.029139 4.008864 8.020595
C 6.090433 3.410489 7.138269
C 6.541225 4.432396 7.195284
C 6.579295 4.878936 7.943390
C 6.092010 4.002784 7.999588
C 7.010211 3.361137 7.119249
C 7.535196 4.362860 7.256638
C 7.560870 4.923635 7.973097
C 6.918774 4.071334 7.940824
C 7.937282 3.486420 7.145474
C 8.508549 4.413585 7.178146
C 8.462607 4.851149 7.968077
C 7.919493 4.095737 8.015093
C 0.030527 5.101985 7.044822
C 0.467359 6.163729 7.211947
C 0.419212 6.710029 7.995760
C 0.045147 5.718194 8.028347
C 0.990875 5.189954 7.114475
C 1.574758 6.058045 7.094296
C 1.457384 6.512503 8.008927
C 0.960291 5.776567 7.961837
C 2.034557 5.178593 7.203877
C 2.407120 5.994993 7.140755
C 2.562838 6.618218 8.035934
C 1.945931 5.785451 7.834211
C 2.912990 5.168544 7.210559
C 3.385289 6.143956 7.184333
C 3.519469 6.723369 7.936425
C 2.994945 5.819581 7.894447
C 4.053407 5.223780 7.219606
C 4.463619 5.989303 7.085951
C 4.494566 6.673518 8.097296
C 3.905271 5.807712 8.022969
C 4.962301 5.108201 7.044708
C 5.585537 6.063785 7.052581
C 5.499015 6.561360 7.970296
C 5.034124 5.778114 8.063269
C 6.061470 5.221514 7.223770
C 6.446307 6.032574 7.082533
C 6.488724 6.571132 8.057869
C 6.028973 5.761196 7.993823
C 7.007004 5.176850 7.234085
C 7.499252 6.041096 7.183826
C 7.439309 6.555649 7.941035
C 7.029932 5.884773 7.881833
C 7.935306 5.196331 7.145881
C 8.452564 6.079492 7.059753
C 8.542903 6.583530 7.965272
C 8.069604 5.808079 8.040619
C 0.011582 6.925711 7.143108
C 0.516673 7.790995 7.100287
C 0.495140 8.392567 7.893574
C 0.056075 7.481376 7.902583
C 0.956887 6.911959 7.144081
C 1.604946 7.789320 7.094967
C 1.434225 8.465303 7.985349
C 0.968784 7.562351 8.060780
C 2.017476 6.985718 7.089847
C 2.486494 7.823925 7.004705
C 2.421299 8.402817 7.992176
C 1.938416 7.598250 7.904136
C 2.968476 6.847761 7.167808
C 3.613928 7.838927 7.123000
C 3.429289 8.454248 7.916052
C 2.949075 7.534862 7.995297
C 3.961204 6.984516 6.994396
C 4.482161 7.761280 7.173955
C 4.538543 8.307640 8.002370
C 4.017263 7.460997 8.018896
C 4.996679 6.945895 7.224313
C 5.507774 7.843270 7.106993
C 5.505898 8.433683 7.903615
C 5.122813 7.478693 8.029836
C 5.966818 6.928978 7.049132
C 6.471816 7.884827 7.137914
C 6.551704 8.305203 7.901445
C 5.990955 7.501679 8.012826
C 6.964164 6.914884 7.157607
C 7.515051 7.721303 7.198210
C 7.554854 8.387821 7.978587
C 7.051748 7.575464 7.859898
C 8.019548 7.035650 7.196939
C 8.434350 7.870630 7.093378
C 8.535529 8.380195 8.047643
C 7.912796 7.460522 7.937572
C 0.061507 0.001877 8.796483
C 0.435691 0.804223 8.818365
C 0.494214 1.482958 9.502321
C 0.116942 0.556519 9.457305
C 0.938546 0.048433 8.677916
C 1.487548 0.972286 8.762219
C 1.442901 1.368183 9.518576
C 0.979545 0.610610 9.540872
C 1.909130 0.052685 8.796627
C 2.456145 0.865569 8.703747
C 2.591946 1.367376 9.536934
C 1.923473 0.594860 9.584932
C 3.066284 0.000504 8.760465
C 3.504051 0.824759 8.803152
C 3.486750 1.375524 9.523149
C 3.054585 0.563308 9.582084
C 4.109669 0.065453 8.730776
C 4.544985 0.845243 8.775759
C 4.534814 1.483831 9.530682
C 3.986374 0.522979 9.548741
C 4.913968 0.055093 8.687725
C 5.522642 0.962268 8.807020
C 5.522134 1.428479 9.501585
C 4.998391 0.668856 9.465777
C 5.996928 0.005092 8.819482
C 6.434979 0.852401 8.822543
C 6.578931 1.528001 9.567907
C 5.886833 0.623381 9.512296
C 7.026779 0.002819 8.746509
C 7.513272 0.860891 8.750031
C 7.493496 1.435845 9.591350
C 7.002405 0.630295 9.505207
C 7.972805 0.012328 8.719662
C 8.545430 0.934769 8.872939
C 8.492903 1.356548 9.582763
C 7.899630 0.470609 9.537866
C 0.054606 1.742337 8.634019
C 0.463144 2.526928 8.716022
C 0.451698 3.219362 9.546251
C 0.172335 2.361070 9.562622
C 0.941927 1.721832 8.661009
C 1.581095 2.635609 8.827109
C 1.559584 3.072786 9.504717
C 1.010933 2.295999 9.567266
C 1.961983 1.661111 8.804721
C 2.522974 2.499714 8.735194
C 2.580893 3.155694 9.510619
C 2.111832 2.346732 9.583088
C 3.040779 1.685085 8.758351
C 3.576229 2.707630 8.848120
C 3.501744 3.225755 9.528318
C 3.040326 2.383905 9.575844
C 4.045980 1.765498 8.868471
C 4.539979 2.608188 8.753295
C 4.414095 3.141098 9.585911
C 4.064288 2.347653 9.503155
C 5.004011 1.627679 8.824817
C 5.509337 2.605221 8.673933
C 5.613947 3.181430 9.516021
C 5.062346 2.362104 9.572905
C 6.070101 1.723382 8.751601
C 6.505107 2.539686 8.778170
C 6.520436 3.085187 9.541245
C 5.925897 2.259428 9.547181
C 6.944857 1.712913 8.670541
C 7.549818 2.556606 8.665622
C 7.494605 3.096925 9.590316
C 6.842145 2.320820 9.540187
C 7.975230 1.767041 8.746503
C 8.420766 2.529181 8.806584
C 8.485198 3.164883 9.546927
C 8.018268 2.394230 9.482382
C 0.016082 3.446000 8.875139
C 0.473767 4.362513 8.692291
C 0.413117 4.930936 9.569514
C 0.126211 4.092913 9.549207
C 1.032418 3.490023 8.815249
C 1.548631 4.384788 8.882351
C 1.426100 4.939140 9.580103
C 1.059334 4.031959 9.557466
C 1.975991 3.547456 8.707163
C 2.485489 4.310256 8.781922
C 2.500894 4.888929 9.519136
C 1.909084 3.975413 9.548201
C 3.076048 3.479129 8.825417
C 3.398216 4.346900 8.879362
C 3.547021 4.992381 9.451865
C 3.099100 4.012819 9.559369
C 4.048283 3.478530 8.801583
C 4.586148 4.325146 8.899756
C 4.495779 5.060762 9.560140
C 3.944578 4.026915 9.564945
C 5.048351 3.413856 8.718216
C 5.534501 4.461232 8.755235
C 5.397930 4.978831 9.563519
C 4.976048 4.041951 9.548950
C 5.908301 3.525601 8.749442
C 6.515479 4.410479 8.736763
C 6.567641 4.809548 9.562944
C 6.102892 4.046507 9.472867
C 6.884541 3.470640 8.813855
C 7.508840 4.312592 8.736886
C 7.574149 4.899656 9.526299
C 7.023941 4.108355 9.556604
C 8.068030 3.472385 8.819287
C 8.496051 4.209688 8.755943
C 8.478661 4.980202 9.529658
C 7.899771 4.070497 9.565483
C 0.188047 5.182246 8.712191
C 0.394499 6.120148 8.835877
C 0.446817 6.626427 9.563982
C 0.049249 5.645964 9.554998
C 1.072101 5.140364 8.753511
C 1.468765 6.006399 8.805072
C 1.590594 6.668934 9.501605
C 1.014443 5.909552 9.565975
C 2.000609 5.285660 8.704957
C 2.525386 6.037038 8.801433
C 2.496094 6.557175 9.501554
C 1.882773 5.839225 9.504530
C 2.989850 5.283824 8.718637
C 3.408740 6.137194 8.854467
C 3.447575 6.673650 9.502646
C 3.015133 5.677281 9.592135
C 4.043213 5.144448 8.753934
C 4.541290 6.062902 8.663778
C 4.437821 6.731945 9.578718
C 4.004241 5.689606 9.573766
C 5.001844 5.093714 8.818804
C 5.562002 6.071791 8.855178
C 5.462402 6.673224 9.535029
C 5.036489 5.720974 9.581961
C 6.005345 5.110617 8.793722
C 6.402520 6.006756 8.829119
C 6.525296 6.718245 9.556411
C 6.077146 5.832164 9.553779
C 7.054986 5.204678 8.782315
C 7.541901 6.059282 8.851064
C 7.443223 6.625452 9.592538
C 7.058049 5.726003 9.543936
C 8.079972 5.249402 8.840529
C 8.405030 5.929710 8.751774
C 8.586513 6.597787 9.461139
C 8.094733 5.755915 9.558877
C 0.102159 6.950267 8.821986
C 0.441864 7.768237 8.684985
C 0.613685 8.419737 9.515646
C 0.006710 7.457151 9.466385
C 1.029134 6.917600 8.843869
C 1.471894 7.696707 8.808878
C 1.519217 8.341209 9.464910
C 0.953639 7.642694 9.570722
C 1.972781 6.893089 8.864013
C 2.572755 7.789052 8.788338
C 2.422534 8.346617 9.578023
C 2.025095 7.404086 9.520450
C 3.038388 6.935171 8.740004
C 3.485972 7.719784 8.837944
C 3.600256 8.380580 9.526110
C 2.980546 7.507326 9.539776
C 3.984373 7.007377 8.783557
C 4.461379 7.812988 8.729602
C 4.542326 8.331460 9.498145
C 3.927085 7.535579 9.590529
C 4.946089 6.936591 8.882679
C 5.548872 7.818902 8.855049
C 5.532331 8.349058 9.581454
C 5.181312 7.413717 9.580051
C 5.911793 6.862449 8.753613
C 6.524826 7.732663 8.837766
C 6.574642 8.475767 9.575130
C 5.900271 7.532531 9.551180
C 7.028868 7.010283 8.770763
C 7.558702 7.858258 8.751259
C 7.639888 8.280374 9.579068
C 6.930965 7.609675 9.536279
C 7.990886 6.929134 8.876569
C 8.499359 7.806916 8.875714
C 8.531788 8.243924 9.542249
C 8.006533 7.440859 9.488986
2160
Frame 6/10
C 0.165628 0.016372 0.178838
C 0.636542 0.852335 0.049013
C 0.515157 1.538684 0.827352
C 0.000442 0.669841 0.893647
C 1.158785 0.088828 0.096470
C 1.442043 0.811323 0.077236
C 1.639456 1.425557 0.840777
C 1.089047 0.635713 0.757242
C 2.043096 0.095006 0.046512
C 2.424209 0.887878 0.146152
C 2.528731 1.454472 0.922341
C 1.926785 0.565924 0.816883
C 2.883160 0.077826 0.060939
C 3.493839 0.809161 0.031812
C 3.442981 1.420072 0.776818
C 3.014008 0.668524 0.677701
C 3.901965 0.095033 0.096537
C 4.449452 0.779625 0.029624
C 4.515447 1.365093 0.777540
C 4.013791 0.458944 0.813120
C 4.882003 0.055531 0.082501
C 5.588182 0.875624 0.003646
C 5.373928 1.410456 0.800282
C 5.032652 0.557731 0.799263
C 6.085225 0.173772 0.052829
C 6.508280 0.683436 0.052324
C 6.529588 1.500300 0.838795
C 6.014073 0.442233 0.801925
C 7.148344 0.036797 0.020203
C 7.424033 0.869739 0.114827
C 7.644822 1.462353 0.841730
C 7.081260 0.610179 0.934420
C 8.043138 0.067569 0.003563
C 8.577547 1.017127 0.046957
C 8.448582 1.480335 0.731244
C 7.811970 0.611163 0.739159
C 0.253723 1.657837 0.019515
C 0.478565 2.748244 0.086134
C 0.444457 3.090437 0.818605
C 0.092808 2.162855 0.847540
C 0.907730 1.669929 0.086072
C 1.403307 2.504101 0.014938
C 1.417117 3.229124 0.833145
C 1.003557 2.379410 0.778117
C 1.931181 1.588153 0.009976
C 2.541361 2.572835 0.089445
C 2.558678 3.145719 0.867516
C 1.982180 2.275666 0.733244
C 3.013682 1.769369 0.023991
C 3.635834 2.562203 0.022272
C 3.549691 3.186093 0.707669
C 3.010325 2.257239 0.890769
C 3.884103 1.772793 0.148982
C 4.628944 2.449248 0.018505
C 4.604389 3.171507 0.908097
C 3.987006 2.402403 0.703941
C 4.832816 1.820770 0.036027
C 5.473879 2.500321 0.034378
C 5.403492 3.123208 0.938858
C 4.967659 2.393446 0.879327
C 5.983712 1.728972 0.047809
C 6.545999 2.802097 0.035899
C 6.515449 3.093509 0.750263
C 6.099250 2.293131 0.877150
C 7.049895 1.807148 0.123672
C 7.562203 2.509249 0.081435
C 7.485783 3.215187 0.942123
C 6.845795 2.278119 0.892228
C 7.931458 1.803206 0.014319
C 8.589900 2.594795 0.003334
C 8.506627 3.093390 0.825150
C 7.937208 2.200720 0.924916
C 0.026380 3.337977 0.156768
C 0.487548 4.403823 0.122735
C 0.550853 5.073396 0.791478
C 0.006461 3.951630 0.857410
C 1.042087 3.392539 0.070513
C 1.573341 4.220125 0.061595
C 1.584969 4.841809 0.874461
C 0.964867 3.976736 0.889980
C 1.967203 3.603327 0.059622
C 2.433784 4.323505 0.086027
C 2.569331 4.827988 0.914623
C 1.913050 4.035194 0.834434
C 3.039293 3.478616 0.111715
C 3.586091 4.204617 0.000724
C 3.509791 4.981776 0.905801
C 3.083795 3.970764 0.728133
C 4.054147 3.535056 0.044826
C 4.566437 4.307621 0.005935
C 4.552121 4.885712 0.797117
C 4.008925 4.199029 0.863491
C 5.007786 3.359663 0.072201
C 5.517892 4.479215 0.164541
C 5.331790 4.903074 0.860128
C 5.037356 4.138305 0.766179
C 5.928404 3.383006 0.096938
C 6.469692 4.388844 0.018730
C 6.347901 4.795512 0.869677
C 5.982024 4.097117 0.902578
C 6.972018 3.561084 0.105598
C 7.382094 4.351468 0.019860
C 7.528906 4.919280 0.742614
C 6.886503 4.050192 0.770648
C 7.946192 3.412747 0.170997
C 8.353301 4.306932 0.003495
C 8.401796 4.789039 0.739487
C 7.936929 3.888497 0.782412
C 0.128535 5.050615 0.010522
C 0.463149 6.211651 0.023046
C 0.441601 6.632534 0.705600
C 0.097579 5.815264 0.679318
C 0.975412 5.172200 0.007280
C 1.462982 6.130919 0.014789
C 1.454294 6.807578 0.757954
C 0.898623 5.817921 0.709745
C 1.926007 5.285991 0.082678
C 2.637987 6.091426 0.132147
C 2.592419 6.743685 0.832114
C 2.026398 5.854713 0.714576
C 2.994609 5.178240 0.024028
C 3.489449 6.018391 0.085537
C 3.450861 6.679972 0.840590
C 3.097538 5.804031 0.781545
C 4.124656 5.243637 0.169416
C 4.525958 6.079061 0.065964
C 4.641345 6.774659 0.838470
C 3.952252 5.735387 0.685461
C 4.924294 5.270711 0.008402
C 5.650528 6.085035 0.111726
C 5.608001 6.612206 0.804617
C 5.088059 5.808709 0.936506
C 5.875726 5.175329 0.033051
C 6.454866 6.173813 0.005014
C 6.680728 6.527901 0.842849
C 5.978360 5.775997 0.811049
C 7.125192 5.202348 0.001266
C 7.509313 5.936555 0.136987
C 7.431050 6.649077 0.730557
C 7.061020 5.783736 0.908413
C 7.929190 5.187130 0.026909
C 8.681620 6.054970 0.021516
C 8.555717 6.758154 0.760920
C 7.913569 5.752788 0.770824
C 0.002229 6.808769 0.055835
C 0.551670 7.816803 0.045928
C 0.472593 8.466194 0.725634
C 0.052412 7.447087 0.824864
C 1.094138 6.913847 0.062070
C 1.384337 7.738935 0.006641
C 1.535626 8.328926 0.797049
C 1.000060 7.393727 0.934609
C 2.086630 6.927558 0.010698
C 2.504723 7.923922 0.059817
C 2.632337 8.363060 0.830875
C 2.097399 7.485312 0.721607
C 2.958555 7.083980 0.029433
C 3.326493 7.829970 0.029063
C 3.506856 8.329891 0.733527
C 3.027769 7.550825 0.943736
C 4.064567 6.761910 0.052164
C 4.447717 7.888009 0.049078
C 4.406904 8.488000 0.742993
C 4.016206 7.516756 0.753953
C 5.013886 6.888251 0.051755
C 5.348871 7.774123 0.069964
C 5.462004 8.327454 0.679937
C 5.018283 7.561115 0.770538
C 5.843750 6.972743 0.030233
C 6.515157 7.817575 0.072196
C 6.410175 8.412467 0.733753
C 5.931546 7.552699 0.696594
C 7.155149 6.919708 0.047752
C 7.495917 7.734662 0.041665
C 7.423727 8.427298 0.841030
C 7.020645 7.616813 0.865345
C 8.001549 6.948262 0.148816
C 8.465389 7.735965 0.044875
C 8.519094 8.275742 0.848938
C 8.019203 7.544730 0.700868
C 0.012047 0.105721 1.751430
C 0.519374 0.948488 1.561822
C 0.488436 1.452075 2.380967
C 0.089944 0.488273 2.397751
C 1.087711 0.126575 1.684356
C 1.553016 0.926853 1.707806
C 1.517066 1.348206 2.404072
C 0.987396 0.577582 2.549524
C 1.911952 0.044196 1.532760
C 2.474808 0.823082 1.666307
C 2.575657 1.372262 2.417920
C 2.006346 0.463856 2.490325
C 2.900212 0.057862 1.649089
C 3.452304 0.809561 1.722402
C 3.525064 1.438186 2.422744
C 2.973608 0.515170 2.479124
C 4.009993 0.008173 1.731266
C 4.590863 0.733038 1.583183
C 4.379683 1.449427 2.550790
C 4.065521 0.523806 2.426010
C 4.901905 0.101523 1.726273
C 5.557476 0.890395 1.631984
C 5.621877 1.377005 2.351349
C 4.989035 0.629538 2.476313
C 5.889195 0.087975 1.715968
C 6.600448 0.918489 1.547655
C 6.409273 1.360937 2.461451
C 6.105423 0.639879 2.585862
C 6.954758 0.007169 1.637121
C 7.535761 0.777122 1.700077
C 7.467321 1.546337 2.533072
C 7.076755 0.595154 2.547456
C 8.127054 0.020590 1.622739
C 8.464786 0.905018 1.620712
C 8.545884 1.504265 2.296030
C 7.997376 0.633032 2.366865
C 0.058778 1.820375 1.563757
C 0.498099 2.516378 1.587963
C 0.423057 3.281137 2.538094
C 0.038305 2.295321 2.417499
C 0.899637 1.716018 1.598453
C 1.520283 2.706745 1.568877
C 1.619716 3.211606 2.551024
C 0.952833 2.183462 2.442079
C 2.033157 1.833418 1.738022
C 2.632843 2.636626 1.577866
C 2.467527 3.211738 2.349115
C 1.876513 2.225352 2.505491
C 2.985200 1.700600 1.714481
C 3.599956 2.505127 1.630355
C 3.454573 3.238513 2.547588
C 2.913788 2.182293 2.363751
C 4.039710 1.790720 1.752969
C 4.462155 2.707127 1.687983
C 4.508377 3.210838 2.528241
C 3.958530 2.288888 2.383724
C 4.991454 1.754346 1.644624
C 5.571021 2.633426 1.620876
C 5.404933 3.195458 2.336058
C 5.053338 2.317270 2.432832
C 6.047180 1.822152 1.752242
C 6.585996 2.636519 1.537511
C 6.468197 3.168170 2.545026
C 6.114629 2.338497 2.552123
C 6.990666 1.642957 1.589571
C 7.512696 2.651758 1.534023
C 7.417698 3.192174 2.512057
C 6.899843 2.162549 2.365050
C 8.040921 1.696172 1.525274
C 8.512533 2.516415 1.655362
C 8.543062 3.167597 2.403816
C 7.945251 2.361498 2.566140
C 0.003055 3.470798 1.778064
C 0.442305 4.316506 1.723243
C 0.520590 4.839617 2.392601
C 0.006415 4.014443 2.610267
C 1.028990 3.350054 1.715340
C 1.359781 4.477295 1.626426
C 1.458633 4.982047 2.436617
C 0.972982 4.135847 2.574300
C 2.087631 3.537241 1.752834
C 2.517476 4.225151 1.646598
C 2.589821 4.893529 2.480801
C 2.027038 4.105881 2.392732
C 2.927946 3.537026 1.543427
C 3.402197 4.296879 1.664624
C 3.436272 5.000904 2.464537
C 3.043380 4.082808 2.536179
C 3.991910 3.513764 1.741716
C 4.503596 4.432137 1.592854
C 4.450337 4.761002 2.372362
C 3.959705 4.032586 2.577397
C 5.073948 3.521007 1.605182
C 5.446747 4.455828 1.580397
C 5.448733 4.767549 2.484944
C 4.904878 3.971028 2.488218
C 5.931658 3.568922 1.727514
C 6.612919 4.273127 1.763189
C 6.414450 4.824801 2.368607
C 5.966078 3.981002 2.491044
C 6.922295 3.388287 1.635749
C 7.453354 4.361646 1.602451
C 7.501962 4.908972 2.339124
C 7.129279 3.918645 2.482795
C 8.118062 3.381328 1.595332
C 8.407673 4.341289 1.691142
C 8.432866 4.781493 2.548759
C 7.983683 4.070296 2.502970
C 0.091387 5.209058 1.696062
C 0.526775 6.055562 1.782377
C 0.571168 6.585779 2.571334
C 0.051455 5.766589 2.448885
C 1.071436 5.185231 1.650782
C 1.366155 6.042889 1.511006
C 1.562262 6.652633 2.405589
C 1.017712 5.735183 2.475632
C 1.920845 5.173421 1.574276
C 2.498301 5.987357 1.603468
C 2.584590 6.771115 2.457746
C 1.993215 5.642494 2.514083
C 2.904733 5.274642 1.590843
C 3.547161 6.058215 1.646656
C 3.490842 6.567652 2.389824
C 2.921281 5.797770 2.550299
C 4.009231 5.163097 1.716158
C 4.456635 6.021543 1.625948
C 4.581630 6.631931 2.496547
C 4.020019 5.876324 2.486025
C 4.848079 5.163141 1.693963
C 5.512817 6.072944 1.573266
C 5.427743 6.693461 2.514521
C 5.025225 5.680952 2.393631
C 5.956952 5.120545 1.676715
C 6.493070 6.173079 1.577442
C 6.598018 6.578295 2.369426
C 6.139399 5.751640 2.493151
C 6.995145 5.238399 1.607470
C 7.598236 6.013501 1.607018
C 7.336441 6.551780 2.438701
C 6.843936 5.803306 2.467197
C 8.046230 5.158229 1.474721
C 8.448989 5.962311 1.723704
C 8.500488 6.566089 2.538968
C 8.087093 5.782033 2.610345
C 0.008368 6.954290 1.782921
C 0.472353 7.672989 1.605992
C 0.508616 8.494171 2.355799
C 0.073415 7.591166 2.278131
C 0.982340 6.758993 1.662816
C 1.609887 7.742899 1.717093
C 1.423782 8.426589 2.410066
C 1.075194 7.422777 2.408941
C 1.898012 6.994650 1.686726
C 2.512873 7.771379 1.742615
C 2.536768 8.393641 2.492736
C 1.986644 7.465191 2.405824
C 2.996030 6.832747 1.620213
C 3.330519 7.788079 1.724918
C 3.644237 8.455868 2.410226
C 3.012339 7.502257 2.507772
C 4.047243 6.864741 1.596143
C 4.495801 7.657319 1.658043
C 4.477562 8.454774 2.304350
C 3.949883 7.350193 2.423342
C 4.931943 6.787498 1.634363
C 5.550720 7.725091 1.756467
C 5.497557 8.433700 2.419621
C 4.917881 7.601356 2.384840
C 5.964559 6.881971 1.608591
C 6.434335 7.840848 1.573103
C 6.419409 8.272419 2.497890
C 5.929132 7.519222 2.585479
C 6.989602 6.974861 1.556871
C 7.623163 7.783781 1.615357
C 7.605511 8.309712 2.455971
C 7.008369 7.575086 2.431884
C 8.013676 6.993358 1.562118
C 8.602807 7.796407 1.659885
C 8.555080 8.446651 2.296287
C 7.977794 7.557457 2.485905
C 0.021201 0.017066 3.195404
C 0.511884 0.800913 3.295898
C 0.464084 1.403643 4.174639
C 0.140274 0.648351 3.966168
C 0.945757 0.082912 3.207051
C 1.490722 0.960988 3.360508
C 1.373835 1.433962 4.164196
C 1.061964 0.673595 4.167478
C 2.104385 0.085749 3.209992
C 2.598825 0.934591 3.199447
C 2.542788 1.517313 3.981982
C 1.969837 0.536495 4.175608
C 2.982752 0.057276 3.434333
C 3.568526 0.865723 3.207922
C 3.644136 1.423050 4.143502
C 3.175677 0.608612 4.039091
C 3.928823 0.033290 3.353519
C 4.484852 1.016382 3.379567
C 4.378661 1.542184 4.071674
C 3.881939 0.467871 4.024067
C 5.071993 0.079662 3.198200
C 5.573432 0.927936 3.342232
C 5.559174 1.481760 4.078185
C 5.028650 0.488795 4.077491
C 6.064811 0.032402 3.166923
C 6.529738 1.007962 3.323936
C 6.671315 1.406043 4.126709
C 6.000518 0.645914 3.940701
C 6.943278 0.055582 3.425489
C 7.482809 0.871651 3.077667
C 7.525735 1.561755 4.160653
C 7.083544 0.657680 4.218107
C 7.924777 0.062920 3.266253
C 8.579597 1.027558 3.302465
C 8.567154 1.447698 3.961641
C 8.010301 0.594995 4.078039
C 0.172973 1.841756 3.341070
C 0.408273 2.505336 3.355729
C 0.416398 3.192585 4.032264
C 0.136939 2.404027 4.176253
C 1.094287 1.631235 3.316029
C 1.579084 2.751219 3.265099
C 1.524440 3.221328 4.126168
C 1.067239 2.316943 4.187540
C 2.055523 1.819571 3.377740
C 2.441522 2.684077 3.396531
C 2.500378 3.100476 3.956614
C 2.104077 2.197508 4.144341
C 3.033088 1.832500 3.409303
C 3.409310 2.665485 3.328641
C 3.526727 3.231385 4.121653
C 2.898711 2.301724 3.957647
C 4.058920 1.706025 3.122789
C 4.496048 2.674986 3.178993
C 4.391852 3.185671 4.056730
C 4.129632 2.208448 4.018375
C 5.116793 1.702606 3.228197
C 5.477310 2.593567 3.395661
C 5.629605 3.095205 4.045629
C 5.016607 2.413698 3.947306
C 6.128104 1.633743 3.265815
C 6.493899 2.577876 3.305293
C 6.541053 3.132292 4.114159
C 5.920360 2.225930 4.143144
C 6.972403 1.760280 3.183871
C 7.441562 2.724580 3.185273
C 7.501213 3.210622 4.086692
C 7.081310 2.209439 4.058819
C 7.893370 1.802912 3.219645
C 8.447470 2.597710 3.233521
C 8.484502 3.208412 4.203199
C 7.990424 2.375068 4.137992
C 0.105651 3.393674 3.273410
C 0.519734 4.198533 3.137980
C 0.526886 4.768409 4.062347
C 0.062008 4.160026 4.020804
C 0.901480 3.467460 3.228986
C 1.527305 4.286063 3.327685
C 1.516134 4.808765 4.044699
C 0.959048 3.950159 4.095753
C 1.939165 3.404243 3.250414
C 2.486893 4.347053 3.422393
C 2.597098 4.922116 4.012007
C 1.950840 4.111964 3.974157
C 3.045014 3.316842 3.350791
C 3.443777 4.236863 3.231555
C 3.541261 4.876052 3.943818
C 3.015203 3.939653 4.207701
C 3.943307 3.507848 3.320275
C 4.447223 4.306688 3.393368
C 4.397248 4.863675 4.154423
C 4.069794 4.049828 4.035699
C 4.991897 3.509561 3.216446
C 5.487755 4.302790 3.232310
C 5.588929 4.821334 4.181285
C 5.042107 3.920061 4.035445
C 6.123403 3.420408 3.324297
C 6.353803 4.347065 3.194727
C 6.544097 4.834114 3.976637
C 5.924497 3.942312 3.997453
C 7.111070 3.541260 3.375033
C 7.488819 4.348677 3.224860
C 7.433478 4.883170 3.941494
C 7.033380 4.055547 4.144400
C 8.078398 3.441412 3.163090
C 8.581662 4.255622 3.223269
C 8.578033 4.951323 3.947196
C 7.954606 4.024472 4.210549
C 0.077060 5.225833 3.319804
C 0.389938 6.103726 3.303965
C 0.516289 6.796459 4.055590
C 0.065977 5.748034 4.242126
C 1.022320 5.298166 3.241906
C 1.511312 6.149695 3.202926
C 1.378879 6.622235 4.095749
C 0.874346 5.861391 4.100886
C 1.920157 5.227840 3.322403
C 2.401055 6.130375 3.205421
C 2.442551 6.565653 4.122385
C 1.976149 5.776783 4.093260
C 3.008963 5.180544 3.317601
C 3.640366 6.113094 3.162133
C 3.533818 6.728836 4.193347
C 2.980173 5.885935 4.066485
C 4.044235 5.237650 3.181787
C 4.450315 5.948030 3.262667
C 4.520092 6.595620 4.166651
C 3.946667 5.779419 4.114266
C 4.996918 5.230234 3.363240
C 5.475591 5.958263 3.364059
C 5.439206 6.565047 4.031101
C 4.947907 5.690368 4.064890
C 5.955522 5.300610 3.203356
C 6.600364 5.963128 3.314410
C 6.590031 6.714826 4.058749
C 5.902921 5.776593 4.003394
C 6.913041 5.220993 3.214488
C 7.455308 6.041127 3.395519
C 7.559944 6.596855 3.956558
C 7.072515 5.738219 4.058703
C 8.094605 5.157973 3.134928
C 8.565890 6.026188 3.181582
C 8.472055 6.626973 4.110518
C 8.102189 5.776266 4.079657
C 0.142095 6.975988 3.366737
C 0.375242 7.713709 3.296481
C 0.387163 8.398359 4.098521
C 0.138679 7.555792 4.057624
C 0.931925 6.816817 3.329402
C 1.450097 7.771632 3.263462
C 1.573345 8.259933 4.041877
C 0.964026 7.475136 3.937706
C 1.901523 6.845098 3.317399
C 2.529719 7.752292 3.143472
C 2.433110 8.443320 3.983394
C 2.101441 7.435559 4.032218
C 3.045451 6.915792 3.322296
C 3.505410 7.899975 3.366795
C 3.523107 8.315606 4.031043
C 2.925983 7.462329 4.061911
C 3.996051 6.936393 3.262949
C 4.593293 7.750669 3.164274
C 4.522836 8.252409 4.138371
C 4.073953 7.459046 4.087534
C 4.940714 6.863683 3.193857
C 5.456655 7.803328 3.185171
C 5.478892 8.476705 4.210826
C 5.086015 7.516182 4.071774
C 5.937173 6.980298 3.160586
C 6.522973 7.694039 3.277383
C 6.647303 8.425241 4.065230
C 5.946142 7.468170 4.232859
C 7.007073 7.056600 3.317403
C 7.531529 7.867251 3.248195
C 7.594538 8.367193 4.201063
C 7.073646 7.546723 3.968428
C 7.979086 7.012032 3.301886
C 8.529416 7.679595 3.305617
C 8.428466 8.411960 4.052089
C 8.004461 7.535976 4.230720
C 0.122758 0.056647 4.870407
C 0.367955 0.904366 4.939197
C 0.642766 1.473576 5.726456
C 0.021684 0.682194 5.675917
C 1.039761 0.019404 5.071396
C 1.508650 0.907266 5.050133
C 1.632717 1.469388 5.636231
C 1.028224 0.573747 5.635511
C 1.892924 0.031696 4.879398
C 2.428504 0.905517 4.789676
C 2.564158 1.418286 5.693905
C 2.015328 0.667723 5.655749
C 3.030526 0.094289 4.762676
C 3.361884 0.960942 4.911658
C 3.531242 1.467589 5.674618
C 2.910512 0.624781 5.695250
C 4.039164 0.056093 4.882983
C 4.551572 0.841663 4.834591
C 4.606658 1.355348 5.765494
C 3.925098 0.629510 5.826340
C 5.102992 0.004406 5.022985
C 5.481528 0.861442 4.912726
C 5.550841 1.356317 5.799840
C 5.010249 0.487890 5.746212
C 5.898636 0.002449 4.871249
C 6.504210 0.792101 4.989710
C 6.585899 1.532871 5.761948
C 5.986577 0.700919 5.617363
C 7.094494 0.058110 5.002683
C 7.475361 0.964956 5.004857
C 7.595057 1.489526 5.685463
C 7.124047 0.509459 5.702764
C 8.005980 0.139792 4.746365
C 8.435936 0.863450 4.780209
C 8.471705 1.426499 5.700096
C 7.959357 0.547427 5.780748
C 0.011895 1.693187 4.818006
C 0.456753 2.640338 4.980563
C 0.461469 3.173558 5.646196
C 0.006444 2.398345 5.652507
C 0.896214 1.822390 4.977949
C 1.534419 2.521301 4.851298
C 1.430004 3.044451 5.707991
C 1.041181 2.273855 5.575210
C 1.992624 1.778583 4.803312
C 2.444755 2.636236 4.848731
C 2.618574 3.180657 5.803156
C 2.133446 2.278094 5.661410
C 3.051745 1.823658 4.922592
C 3.400726 2.722425 4.890314
C 3.535697 3.111740 5.660442
C 3.023546 2.189171 5.677061
C 3.991414 1.705347 4.854352
C 4.521698 2.510574 4.849942
C 4.454543 3.165560 5.623102
C 4.023907 2.358593 5.840196
C 4.970086 1.699987 4.803013
C 5.435952 2.531030 4.934022
C 5.529430 3.217716 5.840493
C 4.943822 2.354972 5.705156
C 5.876329 1.790099 4.819500
C 6.497620 2.611177 4.835850
C 6.589238 3.242999 5.666774
C 5.962180 2.415472 5.714819
C 7.050142 1.771221 4.965135
C 7.488690 2.678128 4.775867
C 7.472225 3.314671 5.704187
C 6.895815 2.308130 5.713978
C 8.006542 1.772501 4.931465
C 8.449106 2.710768 4.888079
C 8.418548 3.172001 5.731625
C 8.092910 2.313752 5.637378
C 0.063111 3.362232 4.889753
C 0.567569 4.243629 4.878506
C 0.586606 4.886771 5.760927
C 0.109492 3.955719 5.840183
C 1.036172 3.408526 4.821198
C 1.477980 4.400754 4.950426
C 1.434697 5.073217 5.759591
C 0.899316 4.068116 5.778623
C 2.090169 3.394515 4.836514
C 2.494234 4.353743 5.060445
C 2.481996 4.821015 5.704544
C 2.037599 4.004188 5.618363
C 2.904274 3.476501 4.789688
C 3.483521 4.406739 4.855228
C 3.622984 4.955272 5.655415
C 2.959334 3.942908 5.628356
C 3.963564 3.409909 4.855052
C 4.535371 4.347411 4.902226
C 4.532507 5.004569 5.758771
C 3.862763 4.138400 5.625140
C 5.085869 3.364404 4.883817
C 5.612582 4.400075 4.844225
C 5.503312 5.013136 5.844001
C 5.033764 3.997968 5.804854
C 6.017498 3.565955 4.785214
C 6.411262 4.409920 4.877638
C 6.468889 4.863939 5.761943
C 5.886583 3.993477 5.727976
C 6.917865 3.473313 4.872098
C 7.510549 4.393465 4.978704
C 7.508155 5.002697 5.717618
C 7.143739 3.951680 5.725351
C 8.096549 3.434508 4.916342
C 8.539047 4.404101 4.917871
C 8.467219 5.036106 5.636585
C 7.978167 4.095000 5.663257
C 0.011745 5.269950 4.977143
C 0.486932 5.992963 4.960257
C 0.508627 6.781733 5.790635
C 0.092741 5.739250 5.745767
C 1.073205 5.165601 4.982261
C 1.394620 5.992193 4.850585
C 1.448808 6.729396 5.609862
C 1.130682 5.712568 5.710686
C 2.051444 5.272265 4.992076
C 2.446009 6.096487 4.923729
C 2.423182 6.709173 5.734195
C 2.017661 5.723856 5.830838
C 3.141094 5.196018 4.877560
C 3.459354 5.954044 5.001031
C 3.510822 6.659153 5.624690
C 3.058341 5.777638 5.751997
C 4.087335 5.291157 4.904694
C 4.461659 6.202539 4.896035
C 4.520013 6.713694 5.794236
C 3.979761 5.830044 5.574199
C 5.034438 5.251356 4.961910
C 5.552813 6.145680 4.814496
C 5.471734 6.523905 5.728229
C 5.060884 5.826338 5.657515
C 6.039211 5.098495 5.002204
C 6.443271 6.192407 4.878035
C 6.411220 6.568093 5.800002
C 6.002817 5.846110 5.816343
C 7.078235 5.095507 4.955100
C 7.509353 5.900528 4.971686
C 7.529166 6.681029 5.720317
C 7.003352 5.784881 5.684047
C 8.043218 5.153915 4.856892
C 8.563692 5.969100 4.817065
C 8.575310 6.578355 5.628629
C 7.914842 5.757896 5.673879
C 0.074141 7.055048 4.878382
C 0.469471 7.811934 4.838736
C 0.440371 8.460390 5.651409
C 0.100739 7.364147 5.703069
C 0.977140 7.051315 4.800197
C 1.472879 7.635570 4.928432
C 1.578612 8.473606 5.702718
C 1.100077 7.637837 5.669001
C 1.964471 6.983869 4.827561
C 2.469935 7.927918 4.939856
C 2.370368 8.493755 5.701678
C 1.973046 7.447513 5.576873
C 3.054055 6.966748 4.988325
C 3.469842 7.760712 4.904034
C 3.525208 8.329467 5.645949
C 3.083918 7.483027 5.685079
C 4.114131 7.026655 4.876822
C 4.447365 7.681274 4.899564
C 4.408010 8.425470 5.671677
C 4.134652 7.425400 5.727282
C 5.001423 7.030773 4.908697
C 5.593749 7.633281 4.878161
C 5.483743 8.486767 5.708919
C 5.120480 7.571867 5.758379
C 6.042730 7.109301 4.938860
C 6.501912 7.845401 4.992027
C 6.554508 8.356387 5.516185
C 6.135142 7.536969 5.739606
C 6.860284 7.004463 4.946448
C 7.411010 7.873467 4.908405
C 7.433541 8.433143 5.725985
C 6.898564 7.530509 5.813359
C 8.023206 7.051985 4.971874
C 8.586934 7.825762 4.969937
C 8.557767 8.419975 5.712409
C 7.931915 7.516671 5.831663
C 0.107918 0.043896 6.577709
C 0.511216 0.964276 6.486706
C 0.399658 1.528429 7.322637
C 0.175468 0.649802 7.340341
C 1.042211 0.031537 6.356049
C 1.435025 0.923012 6.637168
C 1.446537 1.541855 7.415275
C 0.952327 0.462578 7.456129
C 1.900188 0.094565 6.543965
C 2.441978 0.814420 6.535508
C 2.487971 1.546653 7.286651
C 1.937199 0.555265 7.527149
C 3.101662 0.076286 6.399617
C 3.619717 0.873920 6.646663
C 3.436402 1.428299 7.239791
C 3.005937 0.451326 7.372784
C 4.023375 0.081885 6.635255
C 4.572076 0.749957 6.496348
C 4.527898 1.387513 7.461142
C 3.867903 0.643915 7.390017
C 5.071092 0.082240 6.435337
C 5.423447 0.742062 6.501841
C 5.567698 1.509925 7.255762
C 4.912987 0.511373 7.386132
C 5.937756 0.020208 6.444296
C 6.454621 0.797411 6.458978
C 6.526381 1.516262 7.268650
C 5.980492 0.579622 7.328885
C 6.960992 0.141549 6.586996
C 7.445973 0.894719 6.677555
C 7.411015 1.552612 7.426908
C 7.045967 0.649605 7.280537
C 7.896360 0.083626 6.478739
C 8.592106 0.895720 6.488705
C 8.536119 1.564009 7.469824
C 8.030453 0.592974 7.389342
C 0.146518 1.771752 6.498220
C 0.607463 2.611235 6.574609
C 0.425596 3.084743 7.347468
C 0.162060 2.345927 7.405847
C 0.997485 1.796997 6.499765
C 1.519025 2.572557 6.622480
C 1.624058 3.160803 7.393862
C 1.022898 2.417613 7.220482
C 2.079017 1.626972 6.498750
C 2.489542 2.678315 6.466715
C 2.515178 3.165287 7.332265
C 1.997200 2.314355 7.350686
C 3.069584 1.628940 6.504463
C 3.376349 2.526081 6.497703
C 3.606827 3.227908 7.374784
C 2.944292 2.380702 7.231804
C 3.978705 1.752285 6.471004
C 4.380687 2.580677 6.415122
C 4.532038 3.103337 7.428341
C 3.868999 2.296747 7.381970
C 4.852969 1.685541 6.605990
C 5.456517 2.582886 6.506502
C 5.558519 3.185755 7.434548
C 5.135392 2.296914 7.268469
C 6.058673 1.806778 6.536310
C 6.568432 2.594848 6.702374
C 6.404142 3.173680 7.487146
C 6.076894 2.147373 7.404731
C 7.097770 1.774418 6.522412
C 7.427785 2.438799 6.546472
C 7.463166 3.046379 7.300020
C 6.908536 2.401256 7.424448
C 7.859485 1.843205 6.561938
C 8.392614 2.640108 6.605877
C 8.541586 3.227950 7.436177
C 8.018648 2.187959 7.240362
C 0.085261 3.519223 6.552781
C 0.395298 4.362910 6.612331
C 0.463687 4.897628 7.205936
C 0.054207 4.168227 7.257257
C 0.996652 3.361371 6.565239
C 1.415990 4.269695 6.520166
C 1.502125 4.792387 7.264435
C 1.047669 4.086608 7.394779
C 1.996771 3.571366 6.454871
C 2.481841 4.396002 6.578992
C 2.436604 4.890148 7.446436
C 1.884004 4.040088 7.329075
C 2.912909 3.535892 6.538107
C 3.566591 4.432364 6.594482
C 3.416994 5.001578 7.389396
C 2.908502 4.006731 7.421571
C 4.014359 3.370502 6.442990
C 4.572662 4.331523 6.521604
C 4.478110 5.014194 7.314354
C 4.101344 3.963776 7.238333
C 4.973251 3.351654 6.635541
C 5.526524 4.315076 6.624633
C 5.497406 4.750907 7.342325
C 5.094891 4.008728 7.236331
C 5.872388 3.508407 6.514404
C 6.475756 4.447078 6.549680
C 6.329925 4.887638 7.437479
C 5.960422 4.071040 7.552806
C 7.009239 3.502124 6.617228
C 7.497457 4.342392 6.407763
C 7.541653 4.896365 7.321550
C 6.966155 4.046822 7.284449
C 8.032920 3.366300 6.447321
C 8.484924 4.416713 6.475514
C 8.376696 4.893704 7.301436
C 8.049585 4.099568 7.262615
C 0.094280 5.298759 6.477896
C 0.477024 6.120664 6.399660
C 0.471363 6.730378 7.462625
C 0.080382 5.786929 7.329283
C 1.039516 5.149899 6.385293
C 1.530789 6.212015 6.605005
C 1.495324 6.736468 7.312204
C 1.009520 5.788404 7.297764
C 2.039805 5.226127 6.466803
C 2.563029 6.078675 6.489917
C 2.436898 6.728099 7.337424
C 2.136470 5.787646 7.448188
C 2.974614 5.109317 6.553518
C 3.594195 6.097583 6.696025
C 3.509715 6.718716 7.376832
C 2.899517 5.808418 7.334048
C 3.956858 5.052612 6.532876
C 4.458592 5.945832 6.560918
C 4.481271 6.480356 7.377342
C 3.938639 5.889634 7.281938
C 4.963610 5.122909 6.529424
C 5.402940 6.020509 6.546999
C 5.394565 6.640320 7.426154
C 5.141599 5.766455 7.347938
C 5.915671 5.213275 6.431112
C 6.651957 6.031484 6.587292
C 6.447573 6.650640 7.249008
C 5.992436 5.782849 7.441817
C 6.891679 5.135462 6.531984
C 7.441568 6.006256 6.437492
C 7.453365 6.722639 7.227079
C 6.982634 5.870206 7.389772
C 7.977790 5.164369 6.478315
C 8.484400 6.033178 6.556525
C 8.421864 6.679270 7.265341
C 8.116260 5.763707 7.380125
C 0.131146 6.972891 6.490097
C 0.422287 7.812671 6.583639
C 0.549873 8.221643 7.295213
C 0.006893 7.486493 7.343619
C 1.120783 6.932300 6.508832
C 1.460618 7.631517 6.469301
C 1.645440 8.301314 7.334494
C 1.006379 7.531614 7.219555
C 1.902070 6.878094 6.570056
C 2.570451 7.745991 6.442671
C 2.585757 8.389981 7.476185
C 2.029820 7.657427 7.290197
C 2.944220 7.011169 6.474409
C 3.552974 7.785261 6.499234
C 3.628900 8.401746 7.325012
C 2.929495 7.459748 7.266371
C 4.106015 6.893036 6.483243
C 4.590412 7.706484 6.439164
C 4.495990 8.323825 7.451185
C 4.040572 7.356835 7.345358
C 4.995382 6.924173 6.475850
C 5.470882 7.655415 6.612010
C 5.427027 8.356024 7.312142
C 4.854674 7.428138 7.413645
C 5.864231 7.040198 6.488391
C 6.467886 7.866294 6.400843
C 6.444455 8.393830 7.333016
C 6.107608 7.430303 7.324222
C 6.988428 7.009239 6.599438
C 7.601580 7.807502 6.552332
C 7.554958 8.390072 7.478555
C 6.998740 7.577344 7.345459
C 8.031634 6.963130 6.733663
C 8.426588 7.699335 6.491070
C 8.499524 8.411547 7.286452
C 7.905771 7.484735 7.423286
C 0.072864 0.019635 8.234765
C 0.492626 0.912999 8.165549
C 0.468380 1.468909 8.955856
C 0.141706 0.452284 8.961840
C 1.040379 0.123128 8.160265
C 1.483445 0.875000 8.270087
C 1.469946 1.509155 8.953116
C 0.986897 0.678100 9.020895
C 2.024009 0.116941 8.013867
C 2.552873 0.816981 8.211491
C 2.509263 1.534428 9.079385
C 2.068511 0.693574 8.955107
C 2.856778 0.058602 8.164367
C 3.445466 0.835047 8.222981
C 3.566322 1.504921 8.948064
C 2.953126 0.514631 8.965438
C 3.865899 0.071895 8.120886
C 4.595731 1.024827 8.129149
C 4.528568 1.518560 8.881232
C 3.936444 0.726131 8.980104
C 5.067947 0.076989 8.241019
C 5.550546 0.869382 8.126926
C 5.601017 1.515735 8.978887
C 4.946447 0.508994 8.876488
C 5.954933 0.159373 8.198749
C 6.499138 0.741893 8.229030
C 6.563772 1.484607 8.894126
C 5.944625 0.540918 8.861588
C 6.926204 0.045349 8.219378
C 7.525086 0.863378 8.085144
C 7.545816 1.419426 8.840508
C 7.064839 0.465011 8.905139
C 7.846657 0.008184 8.244133
C 8.477612 0.786888 8.044334
C 8.472044 1.436928 9.030446
C 8.026212 0.479974 9.094368
C 0.015965 1.623622 8.140566
C 0.526506 2.561208 8.111726
C 0.454104 3.191314 9.051185
C 0.021241 2.195137 8.850921
C 0.926785 1.708274 8.012529
C 1.588911 2.582207 8.160591
C 1.582649 3.245721 9.026418
C 1.053353 2.414652 8.923052
C 1.976060 1.576353 8.234914
C 2.369606 2.515693 8.161025
C 2.539640 3.021239 8.988097
C 2.121580 2.410078 9.045544
C 3.022255 1.807762 8.216217
C 3.557507 2.701451 8.194824
C 3.533001 3.230940 8.946493
C 2.963569 2.414205 8.877535
C 3.910893 1.715217 8.199982
C 4.404611 2.713629 8.212874
C 4.495548 3.214810 8.905154
C 3.933318 2.403622 8.918284
C 4.945724 1.656347 8.070230
C 5.550142 2.733923 8.160684
C 5.545915 3.191488 8.902398
C 5.003973 2.377162 8.929068
C 6.089179 1.693213 8.199644
C 6.379572 2.535428 8.151826
C 6.474831 3.245178 9.054082
C 6.019716 2.459256 8.985582
C 7.059527 1.697955 8.063003
C 7.383140 2.663923 8.266531
C 7.559270 3.238135 9.058303
C 6.967037 2.325447 8.939682
C 7.901082 1.811009 8.209323
C 8.420843 2.505047 8.157090
C 8.458672 3.210731 8.873610
C 7.962741 2.403912 8.977948
C 0.020921 3.447504 8.240614
C 0.513715 4.480568 8.142697
C 0.510548 4.823177 8.989704
C 0.000110 3.920780 8.884126
C 0.904095 3.449734 8.190647
C 1.468696 4.257570 8.121634
C 1.470259 4.882689 9.070555
C 0.888059 4.050677 9.029456
C 1.967664 3.379868 8.214440
C 2.430000 4.353849 8.274660
C 2.546970 4.817953 8.983694
C 1.928937 3.998059 8.883897
C 2.986776 3.500181 8.105939
C 3.602328 4.274095 8.297031
C 3.485941 4.776236 8.954414
C 2.900421 4.143653 9.086658
C 3.948911 3.353536 8.117587
C 4.525865 4.345422 8.106033
C 4.564007 4.871879 9.066811
C 4.075671 4.019319 9.081392
C 5.029385 3.599486 8.271446
C 5.515487 4.427074 8.193847
C 5.448794 4.951657 9.064242
C 4.999448 3.922957 8.885009
C 6.114611 3.413061 8.202998
C 6.494206 4.298958 8.232361
C 6.427238 4.843352 8.923889
C 6.077315 3.989371 8.976396
C 6.951240 3.451937 8.170945
C 7.473764 4.211019 8.189754
C 7.487330 4.840062 8.970972
C 7.043228 3.946873 8.937763
C 7.979834 3.535439 8.032933
C 8.634682 4.262232 8.233075
C 8.435197 4.843362 8.948263
C 7.948606 3.942647 9.067126
C 0.039675 5.303588 8.292703
C 0.593054 6.171491 8.075717
C 0.460955 6.673002 9.033174
C 0.039810 5.847053 9.130640
C 1.002572 5.101189 8.256285
C 1.477743 5.925966 8.105115
C 1.527200 6.537106 8.945911
C 1.060319 5.742599 8.912962
C 2.126196 5.283764 8.176402
C 2.515368 6.150929 8.054800
C 2.612176 6.638436 8.932420
C 2.004276 5.667398 8.989708
C 3.151557 5.179546 8.091191
C 3.439544 6.187475 8.160832
C 3.600695 6.670198 8.913487
C 2.989082 5.857983 9.048115
C 4.018858 5.195798 8.063374
C 4.561774 6.097061 8.137207
C 4.427676 6.592712 8.966733
C 4.028684 5.638933 8.897321
C 5.047716 5.266092 8.224263
C 5.569460 5.993023 8.113685
C 5.521139 6.559963 8.884088
C 5.056277 5.959624 8.902006
C 5.927154 5.090610 8.221104
C 6.443529 5.997118 8.161973
C 6.447703 6.689773 9.073012
C 5.922994 5.657734 8.947549
C 6.971167 5.277386 8.269946
C 7.398797 5.993277 8.192808
C 7.486072 6.519102 9.006637
C 6.885934 5.784290 9.019590
C 7.962322 5.243614 8.130625
C 8.467350 6.017123 8.311546
C 8.581812 6.739083 8.951255
C 7.941611 5.739986 9.109649
C 0.008854 6.947600 8.186528
C 0.535138 7.733401 8.150261
C 0.428569 8.423511 9.102792
C 0.013652 7.582930 8.922336
C 1.097810 6.857244 8.084768
C 1.524962 7.879057 8.081264
C 1.392893 8.315982 8.854331
C 0.892898 7.446306 8.957849
C 1.921784 6.836604 8.176493
C 2.500489 7.678112 8.154631
C 2.646754 8.444464 9.079869
C 1.956241 7.623932 8.982234
C 3.047857 6.921471 8.063264
C 3.395937 7.704643 8.109125
C 3.592289 8.276809 8.950216
C 2.975186 7.631116 9.004957
C 4.067739 6.991410 8.262625
C 4.563531 7.754819 8.189843
C 4.425497 8.427823 9.005884
C 3.920185 7.633667 8.929087
C 4.991160 6.879005 8.255003
C 5.531354 7.902276 8.138207
C 5.515886 8.282326 9.023188
C 4.895863 7.560844 9.022974
C 6.055553 6.840156 8.074544
C 6.598588 7.810729 8.175581
C 6.584273 8.247966 8.952993
C 5.943026 7.398331 8.934050
C 6.928810 6.838939 8.096797
C 7.494396 7.912469 8.099180
C 7.484881 8.344931 8.856353
C 6.937816 7.557148 9.060141
C 8.085645 6.918632 8.170607
C 8.361562 7.776332 8.175869
C 8.593154 8.346419 9.071901
C 7.991778 7.583523 9.037706
C 0.071854 0.138553 0.654048
C 0.435927 0.805123 0.680657
C 0.474678 1.462300 1.365267
C 0.049256 0.499641 1.289663
C 1.005431 0.005083 0.736894
C 1.512594 0.859032 0.543816
C 1.535078 1.443241 1.347831
C 0.954637 0.478367 1.407593
C 2.012429 0.003254 0.531743
C 2.525613 0.985721 0.694198
C 2.577695 1.405350 1.484426
C 2.126507 0.533152 1.456315
C 3.024317 0.013839 0.475682
C 3.494969 0.939349 0.630109
C 3.494107 1.495913 1.396788
C 3.096759 0.592548 1.344019
C 4.047839 0.004533 0.570328
C 4.429688 0.861337 0.686907
C 4.402086 1.515381 1.458015
C 4.005667 0.528570 1.382754
C 5.016145 0.012066 0.716917
C 5.426281 0.937820 0.686845
C 5.497157 1.503587 1.431873
C 4.962466 0.543458 1.341072
C 6.108116 0.074014 0.515281
C 6.473877 0.788385 0.502592
C 6.554372 1.534879 1.382948
C 6.141098 0.601451 1.517669
C 6.970550 0.115255 0.541267
C 7.410804 0.871894 0.665223
C 7.488536 1.391580 1.307121
C 6.901242 0.594216 1.429345
C 8.066107 0.060210 0.748429
C 8.465912 0.883562 0.513326
C 8.409922 1.363879 1.450671
C 8.007737 0.708614 1.519073
C 0.031025 1.662364 0.769214
C 0.433885 2.530063 0.615045
C 0.495634 3.151038 1.497062
C 0.021236 2.362665 1.527473
C 0.987292 1.678205 0.576459
C 1.427227 2.541721 0.671126
C 1.573043 3.313142 1.342394
C 0.925208 2.242126 1.416196
C 2.034673 1.593540 0.615012
C 2.393701 2.546615 0.522319
C 2.549307 3.147686 1.431525
C 1.980407 2.340263 1.303353
C 3.046789 1.693626 0.680571
C 3.575852 2.639476 0.541898
C 3.418396 3.101962 1.479644
C 2.859868 2.258279 1.543597
C 4.004015 1.676945 0.600033
C 4.451605 2.542729 0.580574
C 4.473998 3.065462 1.403674
C 4.118741 2.332471 1.563957
C 4.890122 1.765446 0.524138
C 5.417461 2.558903 0.704509
C 5.448330 3.137015 1.555588
C 5.000133 2.285060 1.408109
C 6.093492 1.739414 0.636320
C 6.411666 2.507060 0.593981
C 6.527951 3.177400 1.454541
C 5.941662 2.186035 1.433694
C 7.019689 1.560133 0.623407
C 7.385964 2.569792 0.610776
C 7.520394 3.142316 1.471144
C 7.025556 2.437082 1.427923
C 8.089854 1.719758 0.505676
C 8.563688 2.631886 0.526445
C 8.542195 3.059364 1.363841
C 8.130693 2.259086 1.445595
C 0.129440 3.413050 0.664302
C 0.468863 4.447754 0.703739
C 0.501206 4.799588 1.278650
C 0.000414 3.985771 1.499602
C 1.012009 3.335576 0.626438
C 1.470607 4.386962 0.725363
C 1.550458 4.833690 1.434203
C 0.858925 4.026950 1.435172
C 1.958460 3.352234 0.574980
C 2.528379 4.184138 0.609437
C 2.521297 4.951069 1.480760
C 2.093176 4.091527 1.345896
C 3.133708 3.384497 0.658261
C 3.371179 4.383805 0.595520
C 3.510635 4.966991 1.622167
C 2.999486 4.065943 1.262308
C 3.997366 3.414195 0.578220
C 4.383487 4.262335 0.651784
C 4.394740 4.849892 1.396075
C 4.026270 4.042219 1.381946
C 5.020064 3.529247 0.493782
C 5.567070 4.436908 0.717019
C 5.646658 4.938830 1.345207
C 5.058237 4.112959 1.464611
C 6.077210 3.474544 0.615288
C 6.440267 4.253279 0.568089
C 6.390809 4.872282 1.476359
C 5.908782 3.946849 1.416337
C 7.025940 3.522393 0.618354
C 7.593107 4.295693 0.583024
C 7.432745 4.846428 1.484966
C 6.956565 4.006104 1.438356
C 8.141318 3.402548 0.702339
C 8.451208 4.319306 0.474340
C 8.488487 5.024590 1.527348
C 8.045773 3.992220 1.428565
C 0.009784 5.294232 0.711881
C 0.495287 6.046398 0.649230
C 0.463358 6.752444 1.415630
C 0.056417 5.720301 1.310537
C 0.906838 5.352013 0.647258
C 1.582157 6.061568 0.518695
C 1.505618 6.585267 1.355508
C 0.992944 5.752874 1.377403
C 1.948654 5.120623 0.695636
C 2.484264 6.091276 0.593924
C 2.525679 6.733798 1.326473
C 1.909962 5.860375 1.428952
C 3.022278 5.223145 0.582680
C 3.450876 6.077281 0.558246
C 3.463318 6.681661 1.461886
C 3.014637 5.801498 1.448180
C 3.874082 5.163414 0.646338
C 4.378498 6.001876 0.684552
C 4.462914 6.628327 1.268466
C 3.943784 5.739253 1.335038
C 4.970702 5.082571 0.573279
C 5.500768 5.968043 0.729793
C 5.550416 6.680950 1.584222
C 5.038112 5.873041 1.525589
C 5.944684 5.285250 0.482443
C 6.554150 6.094368 0.579120
C 6.475318 6.738066 1.296591
C 6.083265 5.709771 1.467306
C 6.874464 5.232060 0.690148
C 7.416329 6.006865 0.663635
C 7.518800 6.606721 1.482010
C 7.038765 5.783747 1.431939
C 8.009642 5.131926 0.691061
C 8.479634 5.961913 0.607257
C 8.451314 6.656795 1.553668
C 8.036129 5.831698 1.513091
C 0.099329 6.942779 0.579769
C 0.401471 7.800020 0.716351
C 0.599116 8.389612 1.461778
C 0.069704 7.408876 1.379451
C 1.016602 6.884190 0.701481
C 1.570291 7.845434 0.692429
C 1.424560 8.452539 1.385580
C 1.052786 7.487639 1.469861
C 1.961194 6.894681 0.731274
C 2.502442 7.779546 0.623027
C 2.486965 8.411607 1.536997
C 2.083559 7.504477 1.512363
C 2.951573 6.930544 0.583879
C 3.408811 7.751046 0.477874
C 3.522190 8.411129 1.505590
C 3.041864 7.479437 1.520881
C 4.006948 6.807084 0.748440
C 4.619275 7.820517 0.607748
C 4.436606 8.335241 1.440665
C 4.077977 7.381840 1.464059
C 4.966968 7.108235 0.550689
C 5.395499 7.832496 0.579871
C 5.410785 8.390161 1.395544
C 5.145082 7.555052 1.372534
C 5.997513 6.893135 0.458575
C 6.575484 7.880536 0.635304
C 6.377021 8.398490 1.456947
C 5.962047 7.600644 1.446353
C 6.939429 6.922347 0.619446
C 7.571131 7.837421 0.478985
C 7.577362 8.470013 1.464464
C 6.912312 7.614100 1.344035
C 8.051749 6.933110 0.647942
C 8.479769 7.796057 0.587357
C 8.489602 8.413931 1.298012
C 7.935595 7.450963 1.494312
C 0.244020 0.115679 2.155477
C 0.490502 0.880562 2.300454
C 0.485203 1.527241 3.184308
C 0.087411 0.583714 3.176897
C 0.872374 0.114245 2.285211
C 1.417979 0.878042 2.215084
C 1.502817 1.414533 3.087635
C 0.969084 0.564193 3.062740
C 2.004659 0.051748 2.110906
C 2.543286 0.852270 2.228474
C 2.568722 1.398173 2.999741
C 1.929306 0.493960 3.077220
C 2.876964 0.008598 2.267994
C 3.584426 0.997677 2.229189
C 3.465272 1.465129 3.024682
C 2.867806 0.546745 3.140523
C 4.179391 0.052576 2.223825
C 4.518194 0.946424 2.277626
C 4.531701 1.441027 2.960670
C 4.082981 0.613119 3.081744
C 4.894041 0.009105 2.287814
C 5.377200 0.881825 2.339402
C 5.480281 1.354213 3.145070
C 5.044048 0.529557 2.939110
C 5.978147 0.111439 2.304304
C 6.372170 0.903677 2.213126
C 6.490483 1.353850 3.046740
C 6.063166 0.611281 3.129407
C 6.939967 0.005398 2.133821
C 7.523287 0.806766 2.353749
C 7.507234 1.498378 3.036713
C 6.872611 0.605094 3.038706
C 7.967758 0.045766 2.092784
C 8.595979 0.762017 2.251041
C 8.518735 1.465139 3.113120
C 7.915177 0.682982 3.063233
C 0.020591 1.813014 2.150933
C 0.592304 2.687213 2.321134
C 0.645382 3.115464 2.992440
C 0.059152 2.248728 3.068327
C 0.923988 1.670373 2.146691
C 1.645623 2.617132 2.187222
C 1.372956 3.273882 2.984832
C 1.025621 2.254827 3.097948
C 1.943631 1.649984 2.301051
C 2.546838 2.480794 2.330516
C 2.604678 3.262925 3.062450
C 1.978775 2.302748 2.982216
C 2.917806 1.677299 2.229346
C 3.508695 2.650807 2.127964
C 3.570684 3.054675 3.097680
C 3.109343 2.389015 3.094651
C 3.913477 1.726113 2.202250
C 4.522918 2.654942 2.257351
C 4.547840 3.213156 3.083313
C 3.928298 2.222406 2.922498
C 5.020689 1.712716 2.321401
C 5.523357 2.698021 2.245055
C 5.645831 3.209925 3.100980
C 5.000969 2.139956 3.027159
C 6.098067 1.703446 2.235921
C 6.481572 2.569983 2.155084
C 6.652422 3.197226 3.106652
C 5.979788 2.425503 2.958106
C 7.038250 1.713907 2.394774
C 7.534796 2.664358 2.217524
C 7.555794 3.306415 3.092140
C 6.884334 2.301877 2.987311
C 7.966269 1.700504 2.271797
C 8.499224 2.668622 2.119716
C 8.566880 3.204887 3.050307
C 7.862198 2.349751 3.127089
C 0.121812 3.622129 2.186487
C 0.576825 4.391496 2.195790
C 0.524077 4.783980 3.090750
C 0.106957 4.049496 3.161454
C 1.081364 3.495588 2.207354
C 1.437933 4.427807 2.155727
C 1.549916 4.792749 3.098056
C 0.933363 3.946107 3.027676
C 1.975014 3.484762 2.249172
C 2.491353 4.278488 2.312526
C 2.540513 5.003556 3.108428
C 2.052788 3.988419 3.047082
C 3.007109 3.502233 2.373211
C 3.385130 4.304632 2.200457
C 3.458981 4.868306 2.904944
C 3.065731 3.878983 3.104963
C 4.141835 3.368049 2.264819
C 4.607914 4.316484 2.217952
C 4.390442 4.795057 3.023446
C 4.043639 4.106604 3.086014
C 5.078329 3.537501 2.303439
C 5.582495 4.420706 2.246232
C 5.572251 4.973804 3.161505
C 4.896864 4.061424 3.027211
C 5.941069 3.468687 2.378045
C 6.496234 4.376233 2.198677
C 6.539697 4.736012 3.097540
C 6.114747 4.009520 2.980908
C 6.922949 3.398398 2.168691
C 7.400600 4.326610 2.175020
C 7.433962 4.915240 3.013378
C 6.914282 4.119528 3.133837
C 7.950263 3.586982 2.229569
C 8.411866 4.304777 2.271956
C 8.639834 4.928738 3.091355
C 7.992191 4.171879 3.172708
C 0.078871 5.337282 2.247310
C 0.526974 6.006169 2.262234
C 0.424040 6.703680 3.142987
C 0.146407 5.766489 3.228712
C 0.960461 5.268208 2.296190
C 1.377795 6.144327 2.320970
C 1.461401 6.666797 3.221753
C 1.018488 5.800444 3.214425
C 2.068621 5.229016 2.214635
C 2.481666 6.196179 2.282630
C 2.463826 6.592580 3.165788
C 1.904361 5.649638 3.035605
C 2.968612 5.240645 2.202358
C 3.629169 5.983165 2.258261
C 3.460074 6.649823 3.189462
C 3.041877 5.676215 3.157886
C 3.926116 5.071375 2.336133
C 4.460723 5.994795 2.342486
C 4.451965 6.681043 3.123229
C 4.024679 5.818968 2.975335
C 4.852116 5.139468 2.244063
C 5.447394 5.951331 2.317155
C 5.576253 6.572646 3.056737
C 4.941873 5.651494 3.001305
C 5.999987 5.195915 2.397516
C 6.361297 6.066169 2.251904
C 6.568719 6.581944 2.919023
C 5.969752 5.789625 2.934982
C 6.954294 5.334885 2.283605
C 7.489767 6.139196 2.279593
C 7.531820 6.603263 2.984819
C 7.128230 5.783427 3.041558
C 7.961787 5.160403 2.278032
C 8.507184 6.103233 2.167536
C 8.625785 6.584577 2.984629
C 7.951504 5.674449 3.104898
C 0.176732 6.904669 2.332210
C 0.537514 7.863657 2.279763
C 0.565232 8.278822 3.140157
C 0.009303 7.379602 3.111630
C 1.062454 6.867973 2.336592
C 1.416855 7.762719 2.264383
C 1.521619 8.333950 3.071113
C 0.971792 7.362676 3.107829
C 1.973820 6.810894 2.235523
C 2.430524 7.728004 2.312981
C 2.415558 8.299283 2.957633
C 2.034778 7.477677 3.181719
C 2.936761 6.954215 2.208104
C 3.483015 7.814726 2.232822
C 3.508705 8.532895 3.002964
C 2.989920 7.532435 3.159638
C 3.990889 6.859611 2.421134
C 4.496898 7.824982 2.200800
C 4.418972 8.385775 3.151010
C 3.976413 7.474512 3.021930
C 4.918967 6.946862 2.208485
C 5.371744 7.719717 2.316123
C 5.473127 8.455485 3.160956
C 4.925196 7.366615 3.015128
C 5.852198 6.893716 2.224413
C 6.402455 7.830956 2.297990
C 6.456054 8.361170 2.976122
C 6.020770 7.439187 3.223987
C 6.894746 6.908927 2.217371
C 7.438355 7.696556 2.349416
C 7.457239 8.377904 3.200786
C 7.119727 7.566473 3.102125
C 8.136807 6.847810 2.240644
C 8.427958 7.769152 2.348138
C 8.529681 8.451544 2.946275
C 8.114145 7.601621 3.094774
C 0.042186 0.038555 3.738137
C 0.553592 0.754314 3.786085
C 0.439737 1.433598 4.713454
C 0.020469 0.642193 4.742334
C 1.031442 0.095429 3.691480
C 1.392751 0.833900 3.811933
C 1.527666 1.592759 4.647981
C 0.922033 0.612024 4.807626
C 1.947180 0.012270 3.960784
C 2.517128 0.808830 3.874831
C 2.448267 1.435110 4.710296
C 2.126862 0.555328 4.731552
C 3.154734 0.014039 3.948480
C 3.400105 0.961833 3.964669
C 3.445751 1.398810 4.649386
C 2.926421 0.612038 4.572366
C 4.016018 0.147289 3.788780
C 4.615642 0.867374 3.771521
C 4.581245 1.362543 4.732914
C 4.004669 0.566394 4.633529
C 5.038311 0.065204 3.865139
C 5.538251 0.778086 3.834770
C 5.586172 1.428850 4.622011
C 5.124094 0.631916 4.675934
C 6.015603 0.068501 3.808933
C 6.406641 0.883116 3.926669
C 6.436083 1.350568 4.565927
C 5.938289 0.502289 4.715194
C 7.010034 0.016628 3.892369
C 7.463668 0.855404 3.793207
C 7.527742 1.395364 4.785143
C 6.941435 0.649131 4.663621
C 7.974049 0.046984 3.885488
C 8.562772 0.854488 3.871340
C 8.524416 1.364262 4.586826
C 7.860595 0.623241 4.808053
C 0.023093 1.720129 3.729211
C 0.451056 2.473590 3.894587
C 0.548613 3.197390 4.783845
C 0.051031 2.289373 4.801042
C 0.889754 1.756056 3.755495
C 1.634989 2.643364 3.903998
C 1.456060 3.273096 4.815619
C 0.972743 2.235426 4.699133
C 2.100244 1.708328 3.946295
C 2.493620 2.637558 3.964825
C 2.551400 3.176772 4.772949
C 1.957170 2.249568 4.629774
C 3.061880 1.804629 4.015156
C 3.429934 2.669433 3.836414
C 3.449845 3.168135 4.660760
C 2.886528 2.327578 4.774762
C 3.887310 1.674552 3.781040
C 4.588849 2.506429 3.862729
C 4.559970 3.323646 4.712881
C 4.014937 2.299748 4.738737
C 4.962473 1.674039 3.892141
C 5.583361 2.551266 3.883263
C 5.533447 3.174487 4.628699
C 4.951858 2.372565 4.659333
C 6.019362 1.873672 3.837146
C 6.575092 2.506194 3.923715
C 6.529335 3.200648 4.706295
C 5.983763 2.326188 4.790683
C 6.913163 1.811937 3.994352
C 7.400779 2.614091 3.856597
C 7.414345 3.133568 4.566514
C 7.023674 2.223961 4.713767
C 7.994210 1.802226 3.819251
C 8.536938 2.475770 3.878339
C 8.477098 3.161637 4.705721
C 8.055511 2.286788 4.741974
C 0.004245 3.535101 4.016389
C 0.618473 4.295397 3.959751
C 0.401162 4.779223 4.607214
C 0.046651 4.025548 4.731584
C 0.955870 3.509676 3.789658
C 1.417961 4.387575 3.799457
C 1.516825 4.804138 4.662301
C 1.006961 3.952649 4.571537
C 2.008653 3.516245 3.881206
C 2.620438 4.376780 3.873102
C 2.426267 4.845736 4.565374
C 1.898135 4.000500 4.648135
C 3.067233 3.572713 3.901258
C 3.425550 4.427108 3.795404
C 3.622431 5.021916 4.760447
C 3.042980 3.910297 4.738827
C 4.006013 3.466587 4.019836
C 4.586090 4.219122 3.894794
C 4.489082 5.004610 4.725979
C 4.053918 4.060003 4.801128
C 4.973073 3.406618 3.868031
C 5.479845 4.272736 3.883337
C 5.549417 4.832569 4.663139
C 4.988201 3.929638 4.725199
C 5.857111 3.462015 3.985150
C 6.411779 4.267590 3.818708
C 6.569343 4.919035 4.602288
C 6.028327 4.122831 4.676941
C 7.089515 3.491672 3.933620
C 7.433749 4.410192 3.868930
C 7.532280 4.944432 4.532277
C 6.947390 3.968263 4.781746
C 7.869463 3.489564 3.865201
C 8.412254 4.462647 3.902626
C 8.435969 4.820807 4.692509
C 7.870173 4.052056 4.668637
C 0.022748 5.213079 3.862274
C 0.489524 5.994985 3.785496
C 0.522337 6.728096 4.710154
C 0.169231 5.699175 4.691132
C 1.013639 5.277853 3.933383
C 1.402060 6.124272 3.952963
C 1.583489 6.777180 4.633973
C 0.972018 5.756251 4.717990
C 2.006595 5.234360 3.904754
C 2.422660 6.114500 3.932832
C 2.522349 6.762569 4.691395
C 1.964989 5.878046 4.655053
C 2.878371 5.223957 3.818531
C 3.457653 6.149035 3.850169
C 3.451453 6.573205 4.670999
C 3.108689 5.891766 4.720653
C 3.927273 5.196450 3.777834
C 4.506036 6.168783 3.857792
C 4.405420 6.678263 4.720635
C 3.950339 5.767586 4.627633
C 5.037238 5.106677 3.973975
C 5.558399 6.107972 3.913397
C 5.499040 6.612938 4.560467
C 4.896788 5.853066 4.754807
C 5.941577 5.303719 3.898590
C 6.514623 5.962342 3.885590
C 6.435727 6.715844 4.628290
C 6.013898 5.777879 4.866277
C 6.992292 5.304195 3.848037
C 7.435500 6.037058 3.960352
C 7.400340 6.723060 4.723402
C 7.026717 5.863773 4.657296
C 7.944170 5.223858 3.796684
C 8.530229 6.012778 3.988959
C 8.393510 6.635827 4.686059
C 7.857431 5.653356 4.636731
C 0.047255 6.969041 3.961938
C 0.526695 7.666295 3.839657
C 0.466138 8.374721 4.751515
C 0.000505 7.556460 4.738241
C 1.007599 6.912072 3.839527
C 1.485599 7.833616 3.789998
C 1.352179 8.401403 4.662278
C 0.897914 7.617040 4.745513
C 1.905067 6.909403 3.926190
C 2.490470 7.683145 3.791974
C 2.495465 8.478866 4.764632
C 2.020963 7.469653 4.721511
C 2.970205 6.897042 3.914705
C 3.479844 7.718393 3.738934
C 3.480940 8.259619 4.596013
C 2.844707 7.462133 4.666323
C 3.955691 6.828764 3.868268
C 4.370178 7.816816 3.878953
C 4.548183 8.341027 4.598306
C 4.046403 7.490676 4.694070
C 4.993976 6.872183 3.891543
C 5.377475 7.848774 3.847397
C 5.490398 8.307287 4.675423
C 4.868832 7.445839 4.726688
C 5.973914 7.028659 3.801934
C 6.389726 7.787387 3.923279
C 6.433962 8.302717 4.585692
C 5.938827 7.647139 4.641808
C 6.960255 6.916198 3.813057
C 7.458791 7.931021 3.822698
C 7.498679 8.464365 4.626893
C 7.051692 7.579857 4.806328
C 8.090249 6.973603 3.807147
C 8.622623 7.743774 3.874704
C 8.459024 8.278789 4.570384
C 7.983428 7.520179 4.790507
C 0.042730 0.168364 5.605702
C 0.409364 0.872414 5.443716
C 0.470719 1.430230 6.199036
C 0.044590 0.685221 6.268666
C 1.025637 0.112490 5.569392
C 1.528678 0.810901 5.530463
C 1.461413 1.442891 6.228003
C 1.025894 0.586106 6.298230
C 1.973868 0.130640 5.612875
C 2.469338 0.868225 5.591975
C 2.487895 1.408323 6.422790
C 1.942416 0.586222 6.181133
C 3.090983 0.098956 5.379930
C 3.512291 0.849029 5.620213
C 3.634839 1.435758 6.258406
C 2.956966 0.575973 6.253912
C 4.014035 0.013929 5.599876
C 4.546086 0.833999 5.509393
C 4.458399 1.583415 6.318126
C 3.864153 0.646028 6.326226
C 5.137203 0.017891 5.614161
C 5.380219 0.800893 5.547773
C 5.494326 1.515925 6.300815
C 5.018167 0.679592 6.310396
C 6.109492 0.027156 5.503919
C 6.528564 0.760939 5.543469
C 6.448969 1.372328 6.296506
C 6.024825 0.577364 6.220552
C 7.023052 0.084163 5.509675
C 7.439713 0.832748 5.609331
C 7.490004 1.528979 6.356630
C 7.032352 0.546459 6.160259
C 8.066130 0.041812 5.416181
C 8.522969 0.868209 5.543371
C 8.688906 1.424498 6.356439
C 8.101001 0.471604 6.265587
C 0.021740 1.725603 5.388432
C 0.426295 2.567300 5.598145
C 0.499017 3.311787 6.409926
C 0.037029 2.177988 6.225746
C 0.928831 1.677440 5.441431
C 1.407942 2.674940 5.447657
C 1.456073 3.201262 6.438038
C 1.146715 2.353584 6.411783
C 1.966713 1.764231 5.624461
C 2.495123 2.571600 5.555006
C 2.629229 3.304782 6.271783
C 1.878976 2.338486 6.419796
C 2.900188 1.716005 5.500829
C 3.318466 2.580905 5.491281
C 3.474035 3.327201 6.373004
C 3.069772 2.186048 6.284992
C 4.038170 1.633024 5.414008
C 4.611659 2.651027 5.555167
C 4.500738 3.177711 6.472604
C 3.957318 2.289680 6.355671
C 5.000520 1.636643 5.487476
C 5.326337 2.625307 5.585019
C 5.416692 3.243773 6.361786
C 4.903244 2.314142 6.398510
C 5.975822 1.847716 5.405742
C 6.408377 2.700469 5.442622
C 6.517445 3.015057 6.322957
C 6.076585 2.339484 6.423159
C 6.937562 1.770155 5.533246
C 7.460446 2.597871 5.474124
C 7.450805 3.170729 6.190883
C 6.927445 2.409135 6.242960
C 8.012127 1.795746 5.519427
C 8.582673 2.577741 5.572415
C 8.531624 3.251779 6.334184
C 8.007255 2.212050 6.375120
C 0.142515 3.472223 5.455732
C 0.389935 4.311532 5.493884
C 0.450139 4.860979 6.193222
C 0.001857 4.123868 6.377046
C 1.095845 3.373852 5.444615
C 1.485028 4.370489 5.448027
C 1.464793 4.904168 6.258093
C 0.958425 4.000870 6.433956
C 1.855456 3.542352 5.462124
C 2.571591 4.298493 5.522916
C 2.533235 4.957359 6.383131
C 1.934510 4.111542 6.332446
C 3.095162 3.482700 5.557847
C 3.490842 4.357573 5.654739
C 3.437869 5.012520 6.345127
C 2.942149 4.200502 6.265139
C 4.033730 3.534544 5.432140
C 4.457054 4.225304 5.413711
C 4.442784 4.905001 6.319256
C 3.960728 4.039250 6.254351
C 5.045552 3.354863 5.535328
C 5.478841 4.236405 5.629248
C 5.542426 4.917583 6.316844
C 4.944267 4.076785 6.346140
C 6.016991 3.568618 5.442301
C 6.506019 4.231128 5.548099
C 6.318332 4.907616 6.427867
C 6.026705 4.046835 6.243469
C 7.042425 3.501942 5.408017
C 7.597811 4.463732 5.507228
C 7.539257 4.983390 6.334240
C 7.038976 3.921152 6.336184
C 7.907892 3.442138 5.642863
C 8.397005 4.283409 5.574479
C 8.641090 4.866540 6.300709
C 7.998971 3.948481 6.251172
C 0.026697 5.179411 5.581007
C 0.475546 6.107693 5.628165
C 0.459806 6.535375 6.463573
C 0.042849 5.813364 6.309044
C 0.924082 5.204036 5.653956
C 1.490913 6.165814 5.536093
C 1.620770 6.626982 6.276509
C 0.870589 5.679418 6.348214
C 2.067003 5.073678 5.499591
C 2.436727 6.057852 5.633553
C 2.498843 6.712281 6.346287
C 2.071416 5.785449 6.343035
C 2.947986 5.211571 5.500018
C 3.595838 6.083992 5.607751
C 3.501010 6.639176 6.203134
C 3.050361 5.864840 6.330721
C 4.060746 5.112652 5.483524
C 4.493073 6.031423 5.656218
C 4.546461 6.753225 6.461823
C 4.099432 5.692276 6.356634
C 5.052819 5.330391 5.521447
C 5.582224 5.991416 5.536830
C 5.545403 6.492111 6.343637
C 4.940274 5.634031 6.399679
C 5.955809 5.240055 5.424184
C 6.528939 5.991966 5.471726
C 6.548631 6.548133 6.354581
C 5.964380 5.716981 6.257759
C 7.096413 5.199671 5.431078
C 7.542427 6.082872 5.500879
C 7.416161 6.722406 6.265858
C 6.956610 5.648884 6.402187
C 7.921723 5.259332 5.509333
C 8.459830 6.161533 5.612375
C 8.469895 6.705943 6.388527
C 7.961722 5.735460 6.293851
C 0.107151 6.848478 5.594268
C 0.452252 7.696320 5.392934
C 0.467119 8.429038 6.180643
C 0.005720 7.622873 6.331299
C 1.072854 6.939790 5.399364
C 1.528064 7.693353 5.489982
C 1.414251 8.321065 6.223874
C 0.929683 7.516413 6.464032
C 2.010786 6.816763 5.524750
C 2.556994 7.811627 5.481390
C 2.423863 8.446703 6.288229
C 2.033491 7.577106 6.215558
C 3.034696 6.790952 5.534602
C 3.573438 7.825944 5.466313
C 3.515275 8.384731 6.199970
C 2.966857 7.513440 6.176905
C 4.008949 7.022246 5.405646
C 4.480100 7.874201 5.646354
C 4.461368 8.378575 6.188183
C 3.944914 7.512032 6.433800
C 4.857953 6.953390 5.554972
C 5.480247 7.868391 5.514709
C 5.640328 8.254700 6.332187
C 5.059577 7.380556 6.335282
C 5.916056 6.906083 5.553896
C 6.493929 7.888077 5.491682
C 6.515453 8.360853 6.168954
C 6.109932 7.569814 6.258385
C 7.065126 6.956785 5.416380
C 7.545475 7.945178 5.535046
C 7.498776 8.309168 6.242560
C 7.039893 7.457754 6.268916
C 8.006525 7.087420 5.452769
C 8.414975 7.817489 5.480133
C 8.416199 8.440284 6.214891
C 7.944947 7.371191 6.324756
C 0.075251 0.042631 7.237120
C 0.482172 0.977924 7.284020
C 0.460486 1.508643 7.881874
C 0.124977 0.576738 8.012906
C 1.010924 0.106881 7.178972
C 1.533690 0.977678 7.223149
C 1.459000 1.547090 8.077640
C 0.977761 0.544348 7.929839
C 2.082851 0.125621 6.993789
C 2.573396 0.723360 7.119897
C 2.317568 1.448517 7.967909
C 1.889056 0.635775 8.026850
C 3.068597 0.102099 7.103499
C 3.505226 0.836221 7.113960
C 3.497543 1.531306 7.987585
C 3.046967 0.582943 8.121336
C 4.060565 0.150007 7.267135
C 4.465921 0.792547 7.213998
C 4.399528 1.444079 8.130126
C 3.999204 0.572665 7.925071
C 4.877086 0.011001 7.185087
C 5.476589 0.977657 7.115237
C 5.466626 1.468394 7.883174
C 5.049298 0.530076 7.981586
C 5.963099 0.091017 7.153353
C 6.472744 0.756008 7.178476
C 6.598307 1.528918 7.954407
C 6.044954 0.671572 7.973439
C 7.012267 0.006139 7.093367
C 7.617831 0.888550 7.189285
C 7.537966 1.435222 7.848137
C 7.057306 0.653708 7.934313
C 8.083554 0.044913 7.256065
C 8.445945 0.802790 7.199433
C 8.386859 1.463174 8.005713
C 8.090093 0.483313 7.971213
C 0.060091 1.878635 7.153595
C 0.449430 2.511551 7.098014
C 0.422690 3.234381 7.854954
C 0.024797 2.253917 7.990531
C 1.029358 1.673951 7.083665
C 1.503313 2.686963 7.235688
C 1.486228 3.047953 7.862944
C 0.987944 2.257004 7.867572
C 1.930651 1.769087 7.207661
C 2.418662 2.673764 7.003906
C 2.455913 3.120284 7.834492
C 1.942681 2.299998 7.857263
C 2.986599 1.621221 7.176080
C 3.423249 2.643851 7.111954
C 3.502924 3.261512 7.904680
C 3.026835 2.319386 7.907350
C 3.899396 1.673279 7.110795
C 4.598180 2.577727 7.247762
C 4.432664 3.046251 7.909833
C 4.006543 2.391658 7.923539
C 4.942469 1.814041 7.087759
C 5.642156 2.594150 7.245320
C 5.480327 3.281378 7.903885
C 5.017058 2.250219 8.115805
C 6.104124 1.705290 7.204955
C 6.440097 2.591691 7.160223
C 6.520571 3.089024 7.977276
C 6.019319 2.211299 7.998987
C 7.048468 1.637002 7.192753
C 7.517647 2.496041 7.114525
C 7.438227 3.145527 7.870703
C 6.949410 2.251393 8.056811
C 8.072939 1.681424 7.207193
C 8.505577 2.706771 7.127792
C 8.452592 3.157667 7.963091
C 7.994036 2.247227 7.974189
C 0.068810 3.504198 7.308517
C 0.462303 4.224475 7.066586
C 0.430990 4.925500 7.885651
C 0.136756 4.144425 8.024263
C 0.963324 3.457628 7.071194
C 1.645232 4.385253 7.131804
C 1.558615 5.008598 8.017016
C 0.941213 4.062393 7.885747
C 1.959954 3.420564 7.046917
C 2.548998 4.248006 7.107735
C 2.574419 4.893533 7.873837
C 1.994514 4.002433 7.848589
C 2.912278 3.404743 7.140476
C 3.447983 4.329863 7.113725
C 3.523071 4.927349 7.823997
C 3.039700 4.075065 7.854088
C 4.094277 3.426252 7.244123
C 4.565259 4.220843 7.147303
C 4.594431 4.947671 7.937406
C 3.951067 3.903951 8.016714
C 5.098065 3.510013 7.079809
C 5.499467 4.242761 7.275922
C 5.531457 5.042694 7.994002
C 5.036423 4.000717 8.035533
C 6.113041 3.397087 7.136748
C 6.551532 4.457963 7.208018
C 6.599119 4.871800 7.939028
C 6.115012 3.993118 8.009274
C 7.012764 3.335396 7.112974
C 7.543995 4.371042 7.284710
C 7.576087 4.927673 7.976162
C 6.898468 4.078805 7.935820
C 7.921602 3.492000 7.145755
C 8.510687 4.434449 7.186595
C 8.453259 4.837066 7.969887
C 7.899366 4.109309 8.028656
C 0.038159 5.078443 7.019940
C 0.459199 6.189116 7.228847
C 0.399014 6.727654 8.004491
C 0.056434 5.704368 8.045224
C 0.988594 5.188405 7.107006
C 1.593448 6.057011 7.081782
C 1.446730 6.480746 8.020949
C 0.950363 5.777334 7.962086
C 2.043196 5.174203 7.218759
C 2.383900 5.978197 7.139856
C 2.578547 6.612890 8.054708
C 1.932414 5.788438 7.802554
C 2.891238 5.161643 7.227111
C 3.356612 6.164401 7.194328
C 3.524336 6.744328 7.930321
C 2.993681 5.831102 7.877848
C 4.066759 5.230687 7.238420
C 4.454524 5.971083 7.071352
C 4.493208 6.682014 8.131410
C 3.881588 5.816265 8.038502
C 4.952876 5.086213 7.019798
C 5.606921 6.064186 7.029638
C 5.498769 6.541817 7.972659
C 5.042655 5.779267 8.088876
C 6.076837 5.227855 7.243625
C 6.432884 6.025172 7.067079
C 6.485905 6.554032 8.082126
C 6.036216 5.758120 8.002069
C 7.008755 5.172024 7.256519
C 7.499065 6.035825 7.193695
C 7.424136 6.534679 7.936084
C 7.037416 5.912592 7.862081
C 7.919132 5.196376 7.146263
C 8.440705 6.083820 7.038604
C 8.553629 6.569530 7.966380
C 8.087006 5.816724 8.060564
C 0.014477 6.925089 7.142797
C 0.520842 7.790186 7.089271
C 0.493925 8.397814 7.876757
C 0.070094 7.475332 7.888019
C 0.946109 6.907898 7.144013
C 1.631183 7.788092 7.082621
C 1.417781 8.488734 7.991476
C 0.960980 7.576552 8.085766
C 2.021846 7.000097 7.076221
C 2.483117 7.831349 6.969794
C 2.401624 8.410626 8.000010
C 1.923020 7.621425 7.889960
C 2.960596 6.827651 7.173673
C 3.642410 7.850101 7.117663
C 3.411611 8.474916 7.904855
C 2.936344 7.542190 8.003911
C 3.951505 6.998594 6.956907
C 4.477702 7.753042 7.181356
C 4.548178 8.291655 8.012752
C 4.021579 7.449859 8.033410
C 4.995848 6.950319 7.244303
C 5.509717 7.855530 7.097654
C 5.507372 8.449209 7.889309
C 5.153516 7.471979 8.047085
C 5.958523 6.929172 7.025327
C 6.464770 7.907476 7.136305
C 6.564630 8.288609 7.886597
C 5.988694 7.500711 8.025823
C 6.955204 6.911555 7.160921
C 7.518814 7.703071 7.211675
C 7.568567 8.391882 7.983024
C 7.064685 7.592942 7.834663
C 8.024435 7.062512 7.210086
C 8.417938 7.889730 7.080635
C 8.544411 8.382349 8.069344
C 7.890995 7.449266 7.931755
C 0.076884 0.002346 8.801269
C 0.419614 0.788773 8.828622
C 0.492768 1.492853 9.479444
C 0.146177 0.551311 9.423174
C 0.923182 0.060541 8.653060
C 1.484435 0.998851 8.758438
C 1.428626 1.349384 9.499762
C 0.974431 0.618925 9.527633
C 1.886412 0.065857 8.801449
C 2.445182 0.865455 8.685348
C 2.614932 1.348375 9.522710
C 1.904341 0.599237 9.582708
C 3.082854 0.000630 8.756247
C 3.505063 0.814443 8.809605
C 3.483438 1.358560 9.505478
C 3.068231 0.559798 9.579148
C 4.137086 0.081817 8.719135
C 4.556231 0.840047 8.775363
C 4.543517 1.493943 9.514895
C 3.982967 0.509386 9.537469
C 4.892460 0.068866 8.665321
C 5.528303 0.986329 8.814440
C 5.527668 1.424753 9.478523
C 4.997989 0.691733 9.433764
C 5.996160 0.006366 8.830018
C 6.418724 0.848995 8.833844
C 6.598664 1.549157 9.561426
C 5.858541 0.634888 9.491913
C 7.033473 0.003524 8.738801
C 7.516590 0.859608 8.743204
C 7.491870 1.433961 9.590731
C 7.003006 0.643532 9.483051
C 7.966006 0.015410 8.705242
C 8.556787 0.951955 8.896839
C 8.491129 1.334840 9.579997
C 7.874538 0.443923 9.523875
C 0.068258 1.744908 8.598189
C 0.453930 2.509140 8.700693
C 0.439622 3.230346 9.534356
C 0.215419 2.373987 9.554820
C 0.927408 1.719277 8.631926
C 1.601368 2.644991 8.839552
C 1.574481 3.047125 9.482439
C 1.013666 2.292649 9.560626
C 1.952479 1.643376 8.811567
C 2.528718 2.475123 8.724657
C 2.601116 3.150759 9.489816
C 2.139790 2.356065 9.580402
C 3.050974 1.673343 8.753604
C 3.595287 2.735018 8.865815
C 3.502180 3.238337 9.511940
C 3.050408 2.402531 9.571348
C 4.057475 1.773860 8.891253
C 4.549974 2.610715 8.747284
C 4.392619 3.132515 9.583931
C 4.080360 2.357216 9.480486
C 5.005014 1.601586 8.836686
C 5.511672 2.607006 8.648081
C 5.642433 3.182930 9.496569
C 5.077933 2.375281 9.567674
C 6.087627 1.721215 8.745166
C 6.506383 2.525087 8.778377
C 6.525545 3.062627 9.528098
C 5.907371 2.246936 9.535518
C 6.931071 1.708129 8.643842
C 7.562272 2.546237 8.637693
C 7.493257 3.077298 9.589437
C 6.802681 2.323674 9.526776
C 7.969037 1.775789 8.738794
C 8.400958 2.511956 8.813895
C 8.481498 3.162246 9.535201
C 8.022835 2.415438 9.454520
C 0.020103 3.441476 8.899589
C 0.467209 4.370609 8.671029
C 0.391396 4.936800 9.563435
C 0.157764 4.105779 9.538052
C 1.040522 3.496504 8.824727
C 1.560789 4.398452 8.908604
C 1.407625 4.947055 9.576672
C 1.074167 4.029586 9.548375
C 1.969989 3.568295 8.689619
C 2.481862 4.305288 8.783068
C 2.501118 4.884291 9.500463
C 1.886355 3.958904 9.536794
C 3.095060 3.482886 8.837436
C 3.372770 4.351092 8.904868
C 3.558776 5.013606 9.416374
C 3.123875 4.005661 9.550754
C 4.060353 3.482137 8.807644
C 4.607685 4.323900 8.930361
C 4.494723 5.099082 9.551717
C 3.930723 4.023282 9.557724
C 5.060439 3.401295 8.703435
C 5.543126 4.494007 8.749708
C 5.372413 4.996669 9.555941
C 4.970060 4.042077 9.537729
C 5.885376 3.540976 8.742467
C 6.519349 4.430566 8.726618
C 6.584551 4.785065 9.555223
C 6.128615 4.047771 9.442626
C 6.855676 3.472275 8.822983
C 7.511050 4.308207 8.726772
C 7.592686 4.897700 9.509417
C 7.029927 4.125081 9.547297
C 8.085037 3.474457 8.829773
C 8.495064 4.179578 8.750593
C 8.473326 4.998383 9.513615
C 7.874713 4.077759 9.558396
C 0.235059 5.178770 8.695904
C 0.368123 6.134639 8.850511
C 0.433521 6.623152 9.556520
C 0.061562 5.614080 9.545291
C 1.090126 5.126418 8.747554
C 1.460956 5.992453 8.812005
C 1.613243 6.676285 9.478549
C 1.018054 5.943565 9.559011
C 2.000761 5.308037 8.686861
C 2.531733 6.030753 8.807457
C 2.495117 6.536586 9.478485
C 1.853466 5.855656 9.482206
C 2.987312 5.305742 8.703961
C 3.385925 6.155948 8.873749
C 3.434468 6.682181 9.479850
C 3.018917 5.653226 9.591712
C 4.054016 5.131522 8.748082
C 4.551613 6.063083 8.635388
C 4.422276 6.755049 9.574940
C 4.005301 5.668632 9.568751
C 5.002305 5.068105 8.829170
C 5.577502 6.074194 8.874637
C 5.453003 6.681647 9.520329
C 5.045611 5.707843 9.578993
C 6.006681 5.089233 8.797817
C 6.378150 5.992900 8.842063
C 6.531620 6.737923 9.547056
C 6.096433 5.846831 9.543766
C 7.068732 5.206810 8.783559
C 7.552376 6.058558 8.869495
C 7.429028 6.621932 9.592215
C 7.072561 5.714129 9.531462
C 8.099965 5.262715 8.856326
C 8.381288 5.896593 8.745382
C 8.608141 6.587351 9.427966
C 8.118416 5.751519 9.550138
C 0.127698 6.955783 8.833147
C 0.427330 7.761739 8.661896
C 0.642106 8.431777 9.496100
C 0.008387 7.445051 9.434524
C 1.036417 6.914950 8.860501
C 1.464868 7.672326 8.816762
C 1.524021 8.333616 9.432680
C 0.942049 7.676980 9.564945
C 1.965976 6.884311 8.885682
C 2.590944 7.787758 8.791088
C 2.403167 8.340377 9.574072
C 2.031369 7.378720 9.502105
C 3.047985 6.936914 8.730670
C 3.482465 7.701173 8.853095
C 3.625320 8.382830 9.509180
C 2.975683 7.507771 9.526262
C 3.980466 7.027172 8.785111
C 4.451724 7.817678 8.717667
C 4.552908 8.321430 9.474224
C 3.908856 7.543086 9.589703
C 4.932611 6.938689 8.909013
C 5.561090 7.825070 8.874476
C 5.540414 8.343428 9.578360
C 5.226640 7.390759 9.576606
C 5.889741 6.846011 8.747681
C 6.531033 7.717272 8.852873
C 6.593302 8.501814 9.570455
C 5.875338 7.539276 9.540517
C 7.036085 7.030804 8.769118
C 7.573377 7.874265 8.744739
C 7.674860 8.257573 9.575377
C 6.913707 7.635706 9.521892
C 7.988607 6.929367 8.901376
C 8.499198 7.810087 8.900307
C 8.539735 8.212010 9.529354
C 8.008166 7.424686 9.462775
2160
Frame 7/10
C 0.198754 0.019646 0.214606
C 0.663850 0.849597 0.058816
C 0.518188 1.557745 0.829523
C 0.000531 0.688339 0.909076
C 1.190542 0.106594 0.115765
C 1.430451 0.800383 0.092683
C 1.667347 1.421993 0.845633
C 1.106857 0.647385 0.745390
C 2.051715 0.114007 0.055814
C 2.409051 0.892249 0.175383
C 2.534477 1.456691 0.943510
C 1.912143 0.563639 0.816960
C 2.859792 0.093391 0.073126
C 3.492607 0.797788 0.038174
C 3.431578 1.415411 0.768882
C 3.016809 0.686759 0.649942
C 3.882358 0.114040 0.115844
C 4.439342 0.762345 0.035549
C 4.518536 1.349435 0.769749
C 4.016550 0.435263 0.812445
C 4.858403 0.066637 0.099001
C 5.605819 0.877544 0.004375
C 5.348713 1.403872 0.797039
C 5.039183 0.553808 0.795817
C 6.102270 0.208527 0.063395
C 6.509936 0.646918 0.062788
C 6.535505 1.511685 0.843254
C 6.016888 0.415210 0.799011
C 7.178013 0.044156 0.024243
C 7.408840 0.870481 0.137792
C 7.673787 1.466147 0.846777
C 7.097512 0.616745 0.958005
C 8.051766 0.081083 0.004275
C 8.593057 1.047347 0.056349
C 8.438298 1.487726 0.714194
C 7.774364 0.617926 0.723692
C 0.304467 1.642995 0.023419
C 0.474278 2.778276 0.103361
C 0.433349 3.073438 0.819026
C 0.111370 2.133546 0.853749
C 0.889276 1.657504 0.103287
C 1.383968 2.485305 0.017926
C 1.400541 3.239862 0.836474
C 1.004268 2.393412 0.770441
C 1.917417 1.559373 0.011971
C 2.549633 2.567787 0.107334
C 2.570414 3.139777 0.877719
C 1.978616 2.268919 0.716593
C 3.016418 1.776832 0.028789
C 3.663000 2.555028 0.026726
C 3.559629 3.188225 0.685903
C 3.012390 2.246807 0.905624
C 3.860924 1.780942 0.178778
C 4.654733 2.419482 0.022206
C 4.625266 3.170723 0.926417
C 3.984407 2.421004 0.681429
C 4.799379 1.838514 0.043233
C 5.468655 2.480770 0.041254
C 5.384190 3.112764 0.963330
C 4.961190 2.410256 0.891893
C 5.980455 1.728356 0.057371
C 6.555199 2.842900 0.043079
C 6.518539 3.077125 0.737016
C 6.119101 2.289878 0.889280
C 7.059874 1.822167 0.148406
C 7.574643 2.491483 0.097722
C 7.482940 3.223139 0.967249
C 6.814955 2.271863 0.907374
C 7.917749 1.817437 0.017182
C 8.607881 2.594138 0.004001
C 8.507953 3.076982 0.826880
C 7.924649 2.178984 0.946600
C 0.031656 3.312752 0.188121
C 0.485058 4.418562 0.147282
C 0.561023 5.106580 0.786474
C 0.007753 3.933666 0.865592
C 1.050505 3.378227 0.084616
C 1.588009 4.198124 0.073914
C 1.601963 4.828675 0.886054
C 0.957840 3.963794 0.904676
C 1.960643 3.631173 0.071546
C 2.420541 4.322180 0.103232
C 2.583198 4.812090 0.934248
C 1.895660 4.033943 0.838021
C 3.047151 3.481519 0.134058
C 3.603309 4.179514 0.000868
C 3.511749 4.996636 0.923661
C 3.100554 3.956626 0.710460
C 4.064976 3.549247 0.053791
C 4.579724 4.303120 0.007122
C 4.562545 4.881358 0.793241
C 4.010710 4.230545 0.872890
C 5.009343 3.338776 0.086641
C 5.521470 4.509031 0.197449
C 5.298148 4.902192 0.868854
C 5.044827 4.157676 0.756115
C 5.914085 3.366787 0.116325
C 6.463630 4.400587 0.022476
C 6.317481 4.773118 0.880313
C 5.978429 4.108251 0.919794
C 6.966422 3.580481 0.126718
C 7.358513 4.355736 0.023832
C 7.534687 4.921641 0.727838
C 6.863804 4.051941 0.761478
C 7.935430 3.402476 0.205197
C 8.323961 4.302292 0.004194
C 8.382155 4.765351 0.724085
C 7.924315 3.857907 0.775595
C 0.154242 5.021508 0.012627
C 0.455778 6.241546 0.027655
C 0.429921 6.631135 0.683421
C 0.117094 5.823617 0.651883
C 0.970495 5.167409 0.008736
C 1.455579 6.144667 0.017747
C 1.445153 6.841187 0.746245
C 0.878348 5.826806 0.688395
C 1.911208 5.303959 0.099214
C 2.665585 6.097275 0.158576
C 2.610903 6.764516 0.835237
C 2.031677 5.870956 0.694192
C 2.993531 5.174658 0.028833
C 3.487339 6.009633 0.102644
C 3.441033 6.688061 0.845408
C 3.117045 5.810137 0.774555
C 4.149588 5.253134 0.203299
C 4.531150 6.082437 0.079157
C 4.669614 6.801685 0.842865
C 3.942702 5.727764 0.659254
C 4.909153 5.285623 0.010082
C 5.680633 6.089606 0.134071
C 5.629601 6.606742 0.802241
C 5.105671 5.815751 0.960507
C 5.850871 5.171164 0.039661
C 6.445839 6.196139 0.006017
C 6.716874 6.505576 0.848119
C 5.974033 5.776496 0.809959
C 7.150231 5.203588 0.001520
C 7.511176 5.911430 0.164385
C 7.417261 6.650986 0.713369
C 7.073224 5.785783 0.926796
C 7.915028 5.185326 0.032291
C 8.717944 6.053529 0.025819
C 8.566860 6.781879 0.749805
C 7.896283 5.748645 0.761690
C 0.002675 6.784883 0.067003
C 0.562004 7.821318 0.055113
C 0.467111 8.485117 0.707461
C 0.062895 7.435394 0.826537
C 1.112966 6.910976 0.074484
C 1.361204 7.727876 0.007970
C 1.542751 8.320395 0.793160
C 1.000072 7.371363 0.958231
C 2.103956 6.927430 0.012837
C 2.505668 7.949860 0.071780
C 2.658804 8.361356 0.833750
C 2.116879 7.481264 0.702629
C 2.950266 7.115136 0.035320
C 3.291792 7.837118 0.034875
C 3.508227 8.321553 0.716933
C 3.033323 7.559880 0.969184
C 4.077480 6.728652 0.062596
C 4.437261 7.906765 0.058894
C 4.388285 8.511284 0.728292
C 4.019447 7.518997 0.741445
C 5.016664 6.880262 0.062106
C 5.318645 7.770101 0.083957
C 5.454405 8.318629 0.652625
C 5.021940 7.572228 0.761346
C 5.812500 6.981651 0.036280
C 6.518189 7.822244 0.086635
C 6.392210 8.420644 0.717204
C 5.917856 7.562129 0.672613
C 7.186178 6.918010 0.057302
C 7.495101 7.722749 0.049998
C 7.408472 8.438441 0.845937
C 7.024774 7.639066 0.875115
C 8.001859 6.952275 0.178580
C 8.458467 7.724312 0.053850
C 8.522912 8.256574 0.855426
C 8.023043 7.552567 0.677743
C 0.014456 0.126865 1.775118
C 0.523249 0.964981 1.547588
C 0.486123 1.453814 2.367262
C 0.107932 0.470457 2.387403
C 1.105253 0.151890 1.694629
C 1.563619 0.939018 1.722769
C 1.520479 1.329171 2.394988
C 0.984875 0.577629 2.569530
C 1.894342 0.053035 1.512714
C 2.469770 0.814494 1.672971
C 2.590788 1.358039 2.411606
C 2.007615 0.441157 2.498492
C 2.880254 0.069435 1.652309
C 3.442764 0.798269 1.740285
C 3.530077 1.437147 2.417395
C 2.968330 0.502733 2.485051
C 4.011992 0.009808 1.750921
C 4.609035 0.706441 1.573221
C 4.355620 1.450637 2.571050
C 4.078625 0.513097 2.421314
C 4.882286 0.121828 1.744929
C 5.568971 0.895269 1.631782
C 5.646253 1.363730 2.331721
C 4.986841 0.639976 2.481677
C 5.867034 0.105570 1.732564
C 6.620538 0.928982 1.530588
C 6.391127 1.344448 2.463844
C 6.126507 0.652385 2.613136
C 6.945710 0.008603 1.637947
C 7.542913 0.759342 1.713494
C 7.460785 1.566929 2.549789
C 7.092107 0.598715 2.567049
C 8.152465 0.024708 1.620689
C 8.457744 0.912816 1.618256
C 8.555060 1.516442 2.265338
C 7.996851 0.644168 2.350341
C 0.070534 1.838039 1.549910
C 0.497719 2.500037 1.578958
C 0.407669 3.302279 2.555815
C 0.045966 2.292505 2.411101
C 0.879565 1.712812 1.591546
C 1.524339 2.728478 1.556054
C 1.643659 3.218841 2.571331
C 0.943400 2.158275 2.440597
C 2.039789 1.853691 1.759028
C 2.659411 2.644336 1.566841
C 2.461033 3.219000 2.329041
C 1.851815 2.208542 2.516691
C 2.982240 1.694310 1.730780
C 3.619947 2.486537 1.629827
C 3.445487 3.251130 2.567207
C 2.896546 2.156872 2.346603
C 4.047652 1.802454 1.776965
C 4.454586 2.728936 1.698981
C 4.510053 3.217919 2.543991
C 3.950236 2.284786 2.370571
C 4.989745 1.758805 1.646951
C 5.585225 2.640495 1.618453
C 5.385920 3.199464 2.313372
C 5.064005 2.318844 2.429500
C 6.056616 1.840172 1.776093
C 6.603196 2.644207 1.518415
C 6.461836 3.166718 2.564133
C 6.137555 2.344316 2.572650
C 6.988799 1.625138 1.580887
C 7.515235 2.662494 1.514230
C 7.401237 3.195523 2.524571
C 6.879812 2.133179 2.348162
C 8.049106 1.688996 1.503731
C 8.515039 2.500082 1.659836
C 8.551674 3.166030 2.394681
C 7.934302 2.371917 2.589471
C 0.003666 3.472137 1.807079
C 0.430766 4.313782 1.741293
C 0.524708 4.826045 2.381224
C 0.007697 4.009042 2.642422
C 1.034788 3.327244 1.731811
C 1.331737 4.506728 1.625113
C 1.450359 4.996960 2.434042
C 0.967578 4.154726 2.599262
C 2.105157 3.551869 1.776802
C 2.520971 4.204155 1.649319
C 2.607785 4.890739 2.487063
C 2.032445 4.118767 2.381380
C 2.913535 3.551611 1.525515
C 3.382637 4.290228 1.670951
C 3.423526 5.019589 2.467546
C 3.052056 4.091079 2.553516
C 3.990292 3.523697 1.763461
C 4.504315 4.452538 1.584827
C 4.440405 4.731707 2.356937
C 3.951646 4.030813 2.602978
C 5.088738 3.532388 1.599621
C 5.436096 4.480967 1.569878
C 5.438480 4.739563 2.492034
C 4.885854 3.956944 2.495964
C 5.917990 3.589887 1.746418
C 6.635503 4.261726 1.789228
C 6.397341 4.808266 2.352430
C 5.959293 3.968913 2.499355
C 6.906754 3.373125 1.636301
C 7.444025 4.367949 1.596344
C 7.502354 4.909271 2.317051
C 7.155135 3.894085 2.489456
C 8.141675 3.364774 1.587800
C 8.389208 4.343520 1.702773
C 8.419439 4.756296 2.568613
C 7.980420 4.076066 2.513666
C 0.109664 5.211640 1.708676
C 0.532130 6.054238 1.812254
C 0.585402 6.575029 2.595702
C 0.061745 5.765206 2.448764
C 1.085723 5.183048 1.654341
C 1.339386 6.039031 1.486609
C 1.574715 6.655254 2.396808
C 1.021255 5.727519 2.480861
C 1.905015 5.168875 1.562533
C 2.497961 5.972392 1.597564
C 2.601508 6.797433 2.459397
C 1.991858 5.616293 2.527002
C 2.885680 5.290340 1.582413
C 3.556594 6.057422 1.649389
C 3.489011 6.553276 2.377890
C 2.905537 5.802625 2.570461
C 4.011077 5.156487 1.732791
C 4.447962 6.013416 1.624539
C 4.597956 6.630411 2.505958
C 4.024023 5.896888 2.493332
C 4.817695 5.156539 1.706157
C 5.515381 6.075097 1.561322
C 5.413292 6.704247 2.527527
C 5.030270 5.662442 2.382459
C 5.948343 5.105425 1.685460
C 6.491684 6.195258 1.566333
C 6.617621 6.566049 2.353413
C 6.167279 5.747268 2.501883
C 6.994174 5.246849 1.602365
C 7.617883 6.003765 1.601824
C 7.303730 6.534230 2.436543
C 6.812723 5.809267 2.470738
C 8.055476 5.150645 1.443067
C 8.438787 5.942337 1.741847
C 8.500585 6.551401 2.556864
C 8.104511 5.783740 2.642516
C 0.010041 6.959509 1.812908
C 0.466824 7.648741 1.600593
C 0.510339 8.518689 2.337060
C 0.088098 7.608289 2.243860
C 0.978808 6.725152 1.668782
C 1.631865 7.732633 1.733913
C 1.408539 8.437591 2.402181
C 1.090233 7.406223 2.400831
C 1.877615 7.007940 1.697474
C 2.515448 7.766809 1.764540
C 2.544122 8.398053 2.501385
C 1.983973 7.457119 2.397091
C 2.995236 6.813656 1.617657
C 3.296622 7.786848 1.743303
C 3.673085 8.472726 2.402373
C 3.014807 7.501598 2.519428
C 4.056692 6.852049 1.588774
C 4.494961 7.629937 1.663054
C 4.473074 8.471412 2.275322
C 3.939860 7.319122 2.418112
C 4.918331 6.759357 1.634638
C 5.560864 7.711263 1.781163
C 5.497068 8.446124 2.413647
C 4.901458 7.620518 2.371909
C 5.957471 6.872726 1.603711
C 6.421202 7.850172 1.561125
C 6.403291 8.252587 2.507570
C 5.914958 7.521957 2.612677
C 6.987523 6.984193 1.541647
C 7.647796 7.781691 1.611831
C 7.626613 8.297338 2.457267
C 7.010042 7.588993 2.428363
C 8.016411 7.006389 1.547944
C 8.623369 7.796842 1.665264
C 8.566096 8.461666 2.265646
C 7.973353 7.567839 2.493188
C 0.025441 0.020479 3.181287
C 0.514261 0.787890 3.301880
C 0.456900 1.395696 4.193070
C 0.168329 0.662551 3.942905
C 0.934908 0.099495 3.195264
C 1.488866 0.979980 3.379411
C 1.348601 1.432079 4.180539
C 1.074357 0.692844 4.184477
C 2.125262 0.102898 3.198793
C 2.618590 0.948304 3.186139
C 2.551346 1.532099 3.961883
C 1.963804 0.528323 4.194233
C 2.979303 0.068731 3.468001
C 3.582232 0.865663 3.196308
C 3.672963 1.418984 4.155707
C 3.210813 0.614865 4.030413
C 3.914588 0.039948 3.371025
C 4.481822 1.046453 3.402282
C 4.354393 1.561945 4.069513
C 3.858327 0.445976 4.012384
C 5.086392 0.095595 3.184642
C 5.588118 0.940318 3.357481
C 5.571009 1.489437 4.077326
C 5.034380 0.471084 4.076494
C 6.077773 0.038882 3.147109
C 6.535686 1.036349 3.335525
C 6.705578 1.398576 4.135555
C 6.000622 0.659627 3.912345
C 6.931934 0.066698 3.457389
C 7.479371 0.872776 3.040003
C 7.530882 1.585429 4.176287
C 7.100253 0.673746 4.245232
C 7.909733 0.075504 3.266306
C 8.595516 1.059864 3.309760
C 8.580585 1.448561 3.937474
C 8.012362 0.598524 4.077151
C 0.207568 1.863697 3.356086
C 0.389928 2.486787 3.373677
C 0.399677 3.196016 4.022221
C 0.164327 2.422953 4.195008
C 1.113145 1.611072 3.326037
C 1.594901 2.781846 3.264921
C 1.529328 3.230508 4.134906
C 1.080687 2.318451 4.208552
C 2.066628 1.837075 3.400090
C 2.429826 2.701277 3.422639
C 2.500454 3.085486 3.931441
C 2.124892 2.175129 4.156714
C 3.039706 1.852590 3.437966
C 3.391172 2.678966 3.341171
C 3.532073 3.242577 4.129488
C 2.878453 2.300189 3.932680
C 4.070704 1.700819 3.094149
C 4.495258 2.690367 3.161593
C 4.370222 3.187720 4.051580
C 4.155559 2.188257 4.005554
C 5.140152 1.696717 3.220639
C 5.472772 2.592664 3.421595
C 5.655526 3.079160 4.038259
C 5.019928 2.434558 3.920272
C 6.153725 1.614081 3.265780
C 6.492679 2.573835 3.313154
C 6.549263 3.123664 4.120494
C 5.904431 2.209236 4.155277
C 6.966884 1.765926 3.167447
C 7.429874 2.749880 3.169129
C 7.501455 3.217660 4.087534
C 7.097572 2.189447 4.054087
C 7.872044 1.817084 3.210376
C 8.436964 2.597635 3.227027
C 8.481402 3.215009 4.227343
C 7.988509 2.388201 4.149095
C 0.126781 3.379589 3.274894
C 0.523681 4.172214 3.112378
C 0.532263 4.740594 4.058320
C 0.074410 4.183741 4.008468
C 0.881776 3.468132 3.221585
C 1.532766 4.277250 3.340024
C 1.519360 4.789022 4.037143
C 0.950857 3.931901 4.098408
C 1.926997 3.392272 3.247298
C 2.484271 4.350437 3.453674
C 2.616518 4.925044 3.997913
C 1.941008 4.126067 3.952492
C 3.054017 3.287390 3.367752
C 3.432532 4.218210 3.224669
C 3.549514 4.869767 3.916086
C 3.018243 3.919294 4.232746
C 3.931968 3.516597 3.331132
C 4.436667 4.302000 3.418844
C 4.376697 4.854914 4.168812
C 4.083753 4.051503 4.026343
C 4.990276 3.518654 3.206537
C 5.485306 4.297321 3.225574
C 5.606714 4.804105 4.201047
C 5.050528 3.895783 4.026038
C 6.148084 3.411669 3.335958
C 6.324564 4.350452 3.180474
C 6.552916 4.819440 3.955469
C 5.909396 3.922485 3.980448
C 7.133284 3.556692 3.396842
C 7.486583 4.352386 3.216634
C 7.420174 4.878308 3.913297
C 7.040056 4.058366 4.156785
C 8.094077 3.436875 3.142510
C 8.597994 4.240721 3.214725
C 8.593640 4.960092 3.920139
C 7.945527 4.021076 4.236162
C 0.092472 5.231769 3.330566
C 0.367925 6.112036 3.311560
C 0.519546 6.827845 4.050212
C 0.079172 5.742941 4.274055
C 1.026785 5.318569 3.237090
C 1.513574 6.167197 3.190313
C 1.354655 6.618776 4.098403
C 0.849215 5.878969 4.104567
C 1.904188 5.234178 3.333686
C 2.381266 6.144015 3.193307
C 2.431061 6.550877 4.130366
C 1.971379 5.777440 4.095416
C 3.010755 5.177423 3.327923
C 3.668439 6.123277 3.141361
C 3.540581 6.746697 4.215520
C 2.976208 5.908422 4.063286
C 4.053082 5.245950 3.164947
C 4.440378 5.925200 3.262002
C 4.524111 6.586838 4.183486
C 3.936000 5.780603 4.120623
C 4.996301 5.237051 3.382690
C 5.470710 5.937479 3.383673
C 5.427048 6.550150 4.020825
C 4.937488 5.673742 4.061372
C 5.946626 5.321502 3.190830
C 6.620437 5.943318 3.324094
C 6.608037 6.729885 4.054002
C 5.883505 5.777212 3.987577
C 6.895649 5.225961 3.204188
C 7.446370 6.036917 3.421425
C 7.571933 6.588320 3.931374
C 7.087018 5.731162 4.053947
C 8.113526 5.150338 3.108715
C 8.579068 6.018989 3.164701
C 8.466466 6.624462 4.116126
C 8.122626 5.776819 4.079093
C 0.170514 6.985546 3.386886
C 0.350291 7.697605 3.302579
C 0.364596 8.403715 4.101729
C 0.166415 7.565840 4.052652
C 0.918310 6.794540 3.342084
C 1.440117 7.767112 3.262956
C 1.588014 8.237603 4.033757
C 0.956831 7.469053 3.908751
C 1.881828 6.828478 3.327681
C 2.535662 7.743904 3.118968
C 2.419732 8.457668 3.963577
C 2.121729 7.421561 4.022166
C 3.054541 6.913310 3.333557
C 3.506492 7.921124 3.386957
C 3.527728 8.304411 4.020755
C 2.911179 7.453685 4.057797
C 3.995262 6.938031 3.262341
C 4.611952 7.741957 3.143931
C 4.527403 8.228574 4.149549
C 4.088744 7.449745 4.088545
C 4.928857 6.850780 3.179430
C 5.447985 7.805148 3.169007
C 5.474670 8.497729 4.236496
C 5.103219 7.518309 4.069633
C 5.924608 6.990717 3.139505
C 6.527568 7.674001 3.279662
C 6.676763 8.435973 4.061779
C 5.935371 7.460694 4.262934
C 7.008488 7.082280 3.327685
C 7.537835 7.881855 3.244636
C 7.613445 8.366315 4.224780
C 7.088375 7.554958 3.945618
C 7.974903 7.028798 3.309065
C 8.535300 7.656668 3.313542
C 8.414159 8.420036 4.046011
C 8.005353 7.542061 4.260368
C 0.147310 0.067977 4.864692
C 0.341546 0.912035 4.947241
C 0.671319 1.479615 5.728651
C 0.026021 0.703163 5.668004
C 1.047713 0.023285 5.105880
C 1.510380 0.915515 5.080363
C 1.659261 1.474590 5.620381
C 1.033869 0.573026 5.619517
C 1.871509 0.038035 4.875482
C 2.414205 0.913415 4.767815
C 2.576990 1.413267 5.689589
C 2.018393 0.685797 5.643803
C 3.036631 0.113147 4.735415
C 3.334261 0.979925 4.914193
C 3.537490 1.472431 5.666446
C 2.892614 0.634268 5.691204
C 4.046997 0.067311 4.879783
C 4.561887 0.836790 4.821713
C 4.627989 1.337741 5.775497
C 3.910117 0.639942 5.848513
C 5.123590 0.005287 5.047786
C 5.477834 0.860526 4.915475
C 5.561009 1.338904 5.816712
C 5.012299 0.469999 5.752359
C 5.878364 0.002939 4.865702
C 6.505052 0.777316 5.007856
C 6.603079 1.550770 5.771242
C 5.983893 0.725633 5.597739
C 7.113393 0.069732 5.023423
C 7.470433 0.984742 5.026032
C 7.614069 1.498755 5.679460
C 7.148857 0.495880 5.700220
C 8.007176 0.167751 4.715841
C 8.423123 0.862935 4.756455
C 8.466046 1.423123 5.697020
C 7.951228 0.541443 5.793801
C 0.014274 1.685414 4.801811
C 0.448104 2.648790 4.996880
C 0.453762 3.173184 5.632339
C 0.007733 2.416134 5.639913
C 0.875456 1.840458 4.993743
C 1.541302 2.505945 4.841762
C 1.416005 3.018255 5.706493
C 1.049417 2.266746 5.547156
C 1.991149 1.787890 4.784179
C 2.433706 2.643867 4.838681
C 2.642289 3.181702 5.820692
C 2.160136 2.271833 5.650596
C 3.062094 1.841979 4.927314
C 3.380871 2.747294 4.888581
C 3.542837 3.099002 5.649435
C 3.028255 2.165126 5.669377
C 3.989697 1.700006 4.845426
C 4.526038 2.493073 4.840135
C 4.445452 3.163587 5.604627
C 4.028689 2.368432 5.865139
C 4.964103 1.693574 4.783819
C 5.423143 2.517620 4.941031
C 5.535317 3.226173 5.865496
C 4.932587 2.364086 5.703091
C 5.851594 1.801709 4.803604
C 6.497144 2.613796 4.823224
C 6.607085 3.256513 5.657033
C 5.954616 2.436686 5.714687
C 7.060171 1.779056 4.978366
C 7.486428 2.694138 4.751244
C 7.466669 3.342519 5.701928
C 6.874978 2.307876 5.713677
C 8.007850 1.780592 4.937962
C 8.438928 2.733305 4.885898
C 8.402257 3.171315 5.734854
C 8.111492 2.314622 5.621757
C 0.075733 3.341859 4.887908
C 0.581083 4.226328 4.874411
C 0.603928 4.882629 5.770016
C 0.131391 3.938573 5.865123
C 1.043406 3.397411 4.805642
C 1.473576 4.414878 4.960716
C 1.421636 5.106365 5.768413
C 0.879179 4.073450 5.791252
C 2.108203 3.380598 4.824021
C 2.493080 4.358466 5.092738
C 2.478395 4.803722 5.702357
C 2.045119 3.996736 5.598939
C 2.885128 3.478982 4.767829
C 3.480225 4.422061 4.846477
C 3.647580 4.964830 5.643401
C 2.951201 3.923200 5.610932
C 3.956276 3.399071 4.846267
C 4.542446 4.350867 4.902875
C 4.539009 5.023987 5.767430
C 3.835316 4.157790 5.607072
C 5.103042 3.344465 4.880784
C 5.635099 4.414064 4.833274
C 5.503974 5.034267 5.869706
C 5.040517 3.989272 5.822729
C 6.020998 3.586326 4.762460
C 6.393514 4.425877 4.873370
C 6.462667 4.855231 5.771236
C 5.863900 3.983882 5.730476
C 6.901438 3.475156 4.866722
C 7.512659 4.406132 4.994649
C 7.509786 5.021741 5.718046
C 7.172486 3.933726 5.727325
C 8.115859 3.428590 4.919815
C 8.546856 4.418895 4.921649
C 8.460663 5.061831 5.620806
C 7.973801 4.105710 5.652813
C 0.014094 5.284710 4.992776
C 0.484319 5.979120 4.972513
C 0.510353 6.810173 5.805666
C 0.111289 5.732400 5.751824
C 1.087846 5.159491 4.998917
C 1.373544 5.978195 4.840906
C 1.438570 6.747369 5.588738
C 1.156819 5.700382 5.709728
C 2.061732 5.287488 5.010695
C 2.435210 6.103348 4.928679
C 2.407819 6.723101 5.737937
C 2.021193 5.713927 5.853909
C 3.169313 5.195991 4.873276
C 3.451225 5.932417 5.021441
C 3.512986 6.663077 5.606532
C 3.070009 5.778465 5.759300
C 4.104802 5.310159 4.905836
C 4.453990 6.230611 4.895446
C 4.524015 6.728526 5.809987
C 3.975713 5.841353 5.545943
C 5.041325 5.262397 4.974495
C 5.563376 6.162380 4.797599
C 5.466081 6.500781 5.730778
C 5.073061 5.836905 5.645922
C 6.047054 5.078963 5.022849
C 6.431925 6.218452 4.873846
C 6.393464 6.553805 5.816907
C 6.003380 5.860632 5.836516
C 7.093882 5.075378 4.966324
C 7.511224 5.868197 4.986227
C 7.534999 6.689329 5.721284
C 7.004022 5.787157 5.677760
C 8.051861 5.145467 4.848475
C 8.576430 5.950484 4.800682
C 8.590372 6.566120 5.611259
C 7.897810 5.754775 5.665559
C 0.088969 7.080417 4.874262
C 0.463365 7.815475 4.826688
C 0.428445 8.478152 5.638595
C 0.120887 7.335866 5.700587
C 0.972568 7.075937 4.780440
C 1.467454 7.603838 4.934322
C 1.594334 8.494011 5.700166
C 1.120092 7.664295 5.659705
C 1.957365 6.995002 4.813277
C 2.463922 7.954656 4.948031
C 2.344441 8.518190 5.698917
C 1.967655 7.435905 5.549152
C 3.064866 6.974458 5.006195
C 3.463810 7.754009 4.905045
C 3.530249 8.321044 5.632043
C 3.100701 7.478522 5.678999
C 4.136957 7.046345 4.872390
C 4.436838 7.658683 4.899681
C 4.389611 8.436248 5.662916
C 4.161582 7.409370 5.729643
C 5.001708 7.051287 4.910640
C 5.612498 7.601091 4.873997
C 5.480492 8.509804 5.707607
C 5.144576 7.585131 5.766958
C 6.051275 7.145522 4.946836
C 6.502295 7.855635 5.010636
C 6.565410 8.353349 5.476326
C 6.162170 7.543253 5.744431
C 6.832341 7.019715 4.955941
C 7.393212 7.889314 4.910290
C 7.420249 8.445455 5.728086
C 6.878277 7.535501 5.832934
C 8.027847 7.076742 4.986453
C 8.604320 7.832069 4.984128
C 8.569321 8.429654 5.711795
C 7.918297 7.518895 5.854899
C 0.129501 0.052675 6.586857
C 0.513460 0.983926 6.477653
C 0.379590 1.545439 7.317471
C 0.210561 0.664293 7.338715
C 1.050653 0.037845 6.320865
C 1.422030 0.934409 6.658208
C 1.435844 1.561549 7.428636
C 0.942792 0.439624 7.477661
C 1.880226 0.113477 6.546364
C 2.430373 0.804099 6.536215
C 2.485565 1.567307 7.274288
C 1.924639 0.550848 7.562884
C 3.121994 0.091544 6.373147
C 3.643660 0.875499 6.669602
C 3.423683 1.425283 7.218056
C 3.007125 0.426121 7.377647
C 4.028050 0.098262 6.655912
C 4.586492 0.726743 6.489224
C 4.533477 1.376339 7.483676
C 3.841483 0.657228 7.398327
C 5.085310 0.098689 6.416010
C 5.408136 0.717270 6.495815
C 5.581237 1.523234 7.237221
C 4.895584 0.498177 7.393664
C 5.925307 0.024250 6.426762
C 6.445545 0.783689 6.444380
C 6.531657 1.530838 7.252687
C 5.976590 0.580076 7.324968
C 6.953191 0.169858 6.598001
C 7.435168 0.900458 6.706672
C 7.393218 1.574458 7.442595
C 7.055161 0.664055 7.266950
C 7.875632 0.100352 6.468092
C 8.610527 0.901659 6.480052
C 8.543343 1.588135 7.494095
C 8.036544 0.596099 7.397516
C 0.175822 1.779693 6.491470
C 0.628955 2.613866 6.583137
C 0.410715 3.066605 7.347267
C 0.194472 2.353232 7.417322
C 0.996982 1.809986 6.493325
C 1.522831 2.567452 6.640582
C 1.648869 3.157877 7.402941
C 1.027478 2.439256 7.194885
C 2.094820 1.605957 6.492106
C 2.487451 2.694362 6.453664
C 2.518214 3.163259 7.329024
C 1.996640 2.315346 7.351130
C 3.083500 1.608318 6.498962
C 3.351618 2.511681 6.490849
C 3.628192 3.238404 7.380047
C 2.933151 2.394962 7.208471
C 3.974447 1.756332 6.458811
C 4.356824 2.577196 6.391752
C 4.538446 3.088919 7.444316
C 3.842798 2.294216 7.388670
C 4.823563 1.676240 6.620794
C 5.447820 2.579847 6.501408
C 5.570223 3.187820 7.451763
C 5.162471 2.294417 7.252469
C 6.070407 1.821724 6.537178
C 6.582118 2.594202 6.736454
C 6.384970 3.173330 7.514881
C 6.092273 2.114968 7.415983
C 7.117324 1.782892 6.520500
C 7.413343 2.406943 6.549372
C 7.455799 3.020569 7.290331
C 6.890243 2.419627 7.439644
C 7.831382 1.865436 6.567932
C 8.371137 2.648513 6.620658
C 8.549903 3.238455 7.453718
C 8.022378 2.163671 7.218741
C 0.102313 3.530247 6.556943
C 0.374357 4.369466 6.628403
C 0.456424 4.895657 7.177430
C 0.065049 4.193583 7.239015
C 0.995982 3.340825 6.571892
C 1.399188 4.257608 6.517805
C 1.502550 4.769368 7.247627
C 1.057203 4.095640 7.404040
C 1.996125 3.592820 6.439451
C 2.478210 4.409176 6.588396
C 2.423924 4.886682 7.466029
C 1.860804 4.039816 7.325196
C 2.895491 3.550250 6.539334
C 3.579909 4.452811 6.606985
C 3.400392 5.020397 7.397581
C 2.890202 3.999788 7.436191
C 4.017230 3.351783 6.425194
C 4.587194 4.331802 6.519531
C 4.473732 5.035537 7.307531
C 4.121613 3.948242 7.216305
C 4.967901 3.329164 6.656255
C 5.531829 4.312066 6.643166
C 5.496887 4.719592 7.341096
C 5.113869 4.002184 7.213903
C 5.846865 3.517268 6.510891
C 6.470907 4.470467 6.553222
C 6.295910 4.883669 7.455280
C 5.952506 4.076958 7.593673
C 7.011087 3.509729 6.634280
C 7.496948 4.344844 6.382921
C 7.549983 4.894141 7.316166
C 6.959385 4.047897 7.271645
C 8.039504 3.346740 6.430391
C 8.481909 4.434029 6.464223
C 8.352035 4.890949 7.292029
C 8.059502 4.111192 7.245444
C 0.113136 5.319280 6.467081
C 0.472429 6.132361 6.373198
C 0.465635 6.748548 7.485456
C 0.096458 5.789615 7.325446
C 1.047420 5.140649 6.355957
C 1.536947 6.241982 6.619612
C 1.494388 6.755856 7.304950
C 1.011424 5.791385 7.287622
C 2.047767 5.232122 6.453770
C 2.575635 6.081974 6.481506
C 2.424277 6.745813 7.335215
C 2.163764 5.790475 7.468132
C 2.969537 5.091951 6.557827
C 3.613034 6.104664 6.728836
C 3.511658 6.734553 7.382505
C 2.879421 5.815401 7.331164
C 3.948230 5.023904 6.533058
C 4.450311 5.922562 6.566708
C 4.477525 6.448521 7.383117
C 3.926366 5.912860 7.268631
C 4.956332 5.108261 6.528915
C 5.383528 6.012174 6.550004
C 5.373478 6.640478 7.441691
C 5.169919 5.765046 7.347832
C 5.898805 5.216700 6.410940
C 6.682348 6.025345 6.598356
C 6.437087 6.652862 7.229115
C 5.990923 5.784718 7.460487
C 6.870015 5.123325 6.531987
C 7.429881 5.995071 6.418597
C 7.444039 6.739261 7.202800
C 6.979160 5.889547 7.398033
C 7.973348 5.158013 6.467584
C 8.481280 6.027378 6.561436
C 8.406237 6.687218 7.248715
C 8.139511 5.761748 7.386456
C 0.157375 6.981830 6.481722
C 0.406744 7.816360 6.593973
C 0.559848 8.191655 7.284562
C 0.008271 7.482682 7.342648
C 1.144940 6.933120 6.504204
C 1.452741 7.598975 6.456768
C 1.674528 8.287261 7.331698
C 1.007654 7.536827 7.193772
C 1.882484 6.868073 6.577674
C 2.584542 7.736344 6.424811
C 2.602908 8.393661 7.501728
C 2.035784 7.687802 7.278543
C 2.933064 7.027763 6.462897
C 3.563569 7.783467 6.492687
C 3.654680 8.407779 7.320320
C 2.915394 7.450587 7.249951
C 4.127218 6.886003 6.473498
C 4.608494 7.688935 6.420602
C 4.495188 8.314274 7.471727
C 4.048687 7.327092 7.344736
C 4.994458 6.923368 6.464627
C 5.465058 7.627652 6.628018
C 5.412432 8.352913 7.304876
C 4.825608 7.412655 7.426681
C 5.837077 7.062597 6.479675
C 6.461463 7.880707 6.374617
C 6.433346 8.398280 7.329925
C 6.129130 7.415254 7.319372
C 6.986113 7.025447 6.612932
C 7.621896 7.810156 6.556404
C 7.565949 8.393771 7.504572
C 6.998488 7.591703 7.344857
C 8.037961 6.970116 6.774002
C 8.411906 7.680356 6.482890
C 8.499429 8.419541 7.274049
C 7.886925 7.480572 7.438249
C 0.087437 0.023562 8.248724
C 0.491151 0.922394 8.165665
C 0.462056 1.474014 8.950735
C 0.170048 0.427271 8.957916
C 1.048455 0.147753 8.159324
C 1.480134 0.876795 8.291110
C 1.463936 1.522310 8.947447
C 0.984277 0.698250 9.028782
C 2.028811 0.140329 7.983647
C 2.563448 0.807172 8.220796
C 2.511116 1.552637 9.098971
C 2.082213 0.716819 8.949836
C 2.828133 0.070322 8.164246
C 3.434559 0.828851 8.234583
C 3.579586 1.517229 8.941384
C 2.943751 0.502087 8.962234
C 3.839079 0.086274 8.112069
C 4.614878 1.056588 8.121985
C 4.534282 1.533595 8.861186
C 3.923732 0.755887 8.979832
C 5.081537 0.092387 8.256229
C 5.560655 0.870053 8.119317
C 5.621220 1.530205 8.978373
C 4.935736 0.495323 8.855493
C 5.945920 0.191247 8.205505
C 6.498966 0.717067 8.241842
C 6.576527 1.492853 8.876659
C 5.933549 0.533632 8.837613
C 6.911444 0.054419 8.230260
C 7.530103 0.862848 8.069179
C 7.554979 1.414635 8.812318
C 7.077806 0.442544 8.889875
C 7.815988 0.009821 8.259966
C 8.473135 0.771060 8.020206
C 8.466453 1.435637 9.040243
C 8.031454 0.460498 9.116949
C 0.019158 1.601936 8.135685
C 0.531808 2.553834 8.101077
C 0.444924 3.194490 9.065130
C 0.025490 2.172284 8.824813
C 0.912142 1.703518 7.982041
C 1.606693 2.579032 8.159716
C 1.599179 3.259780 9.035410
C 1.064024 2.435703 8.911370
C 1.971272 1.545213 8.248903
C 2.343527 2.499216 8.160236
C 2.547568 2.990401 8.989424
C 2.145896 2.430213 9.058361
C 3.026705 1.822904 8.226467
C 3.569008 2.722125 8.200794
C 3.539601 3.242042 8.939500
C 2.956283 2.435166 8.856750
C 3.893072 1.711851 8.206984
C 4.385534 2.736738 8.222455
C 4.494658 3.222686 8.889892
C 3.919981 2.422467 8.905649
C 4.934869 1.641206 8.051282
C 5.560170 2.761092 8.159827
C 5.555098 3.194699 8.886585
C 5.004767 2.390715 8.918590
C 6.107015 1.685446 8.206579
C 6.355486 2.522897 8.149198
C 6.469797 3.259127 9.068607
C 6.023659 2.489227 8.986406
C 7.071432 1.691137 8.042609
C 7.359768 2.677091 8.286843
C 7.571124 3.250676 9.073671
C 6.960444 2.328656 8.931326
C 7.881299 1.826800 8.218194
C 8.405011 2.486441 8.155514
C 8.450406 3.217792 8.852040
C 7.955290 2.422814 8.977245
C 0.025105 3.444184 8.255743
C 0.516458 4.510656 8.138242
C 0.512658 4.806317 8.991353
C 0.000132 3.896646 8.864660
C 0.884914 3.446861 8.195782
C 1.462435 4.243058 8.112967
C 1.464311 4.877731 9.088374
C 0.865671 4.052522 9.039055
C 1.961197 3.363022 8.224334
C 2.416000 4.358593 8.296599
C 2.556364 4.800048 8.984141
C 1.914724 3.989381 8.864384
C 2.984131 3.507397 8.094133
C 3.622793 4.262888 8.323443
C 3.483129 4.749988 8.949005
C 2.880505 4.164094 9.107698
C 3.938693 3.331424 8.108110
C 4.531037 4.348480 8.094246
C 4.576808 4.864759 9.083881
C 4.090805 4.014893 9.101378
C 5.035262 3.626564 8.292742
C 5.518585 4.446463 8.199622
C 5.438553 4.960492 9.080798
C 4.999338 3.899258 8.865719
C 6.137533 3.402853 8.210604
C 6.493047 4.292724 8.245839
C 6.412686 4.830526 8.912374
C 6.092778 3.978955 8.975383
C 6.941488 3.449504 8.172140
C 7.468517 4.187197 8.194711
C 7.484796 4.826579 8.968874
C 7.051874 3.927957 8.929024
C 7.975801 3.549707 8.006525
C 8.661618 4.248652 8.246696
C 8.422236 4.830538 8.941623
C 7.938327 3.922886 9.084259
C 0.047610 5.325076 8.318249
C 0.611665 6.193354 8.057866
C 0.453146 6.679696 9.043517
C 0.047772 5.861764 9.160476
C 1.003087 5.082197 8.274548
C 1.473291 5.898723 8.093144
C 1.532640 6.516622 8.938801
C 1.072383 5.736418 8.899262
C 2.151436 5.301286 8.178688
C 2.518442 6.168679 8.032766
C 2.634611 6.638217 8.922612
C 2.005131 5.646178 8.991357
C 3.181869 5.176226 8.076436
C 3.427453 6.212534 8.160005
C 3.620834 6.676331 8.899893
C 2.986899 5.874879 9.061446
C 4.022630 5.195727 8.043055
C 4.574129 6.104037 8.131655
C 4.413212 6.583349 8.963788
C 4.034421 5.612020 8.880494
C 5.057259 5.280081 8.236121
C 5.583352 5.979192 8.103428
C 5.525367 6.544049 8.864613
C 5.067532 5.996849 8.886115
C 5.912584 5.069503 8.232331
C 6.432235 5.984106 8.161373
C 6.437244 6.699822 9.091322
C 5.907593 5.634581 8.940767
C 6.965400 5.293634 8.290941
C 7.378557 5.979496 8.198376
C 7.483287 6.495017 9.011672
C 6.863121 5.786448 9.027217
C 7.954787 5.253107 8.123756
C 8.460820 6.008112 8.340861
C 8.598174 6.758994 8.945214
C 7.929933 5.733284 9.135287
C 0.010624 6.951480 8.190840
C 0.542166 7.721236 8.147319
C 0.414283 8.433897 9.127058
C 0.016383 7.598406 8.910511
C 1.117372 6.843053 8.068728
C 1.529955 7.896022 8.064523
C 1.371472 8.304862 8.828905
C 0.871478 7.434457 8.953127
C 1.906141 6.818285 8.178797
C 2.500587 7.654888 8.152563
C 2.676105 8.459041 9.099550
C 1.947489 7.647609 8.982389
C 3.057428 6.920126 8.042923
C 3.375124 7.686726 8.097956
C 3.610746 8.257854 8.943968
C 2.970223 7.656229 9.009656
C 4.081287 7.004052 8.282156
C 4.576237 7.746936 8.194818
C 4.410597 8.439071 9.010769
C 3.904221 7.659290 8.918613
C 4.989392 6.869166 8.273010
C 5.537625 7.923885 8.132855
C 5.519063 8.264476 9.031533
C 4.875035 7.571902 9.031277
C 6.066664 6.822548 8.056459
C 6.618306 7.814029 8.177704
C 6.601127 8.223243 8.947300
C 5.931631 7.376887 8.924569
C 6.914572 6.821087 8.083163
C 7.493275 7.936117 8.086023
C 7.481857 8.339601 8.831331
C 6.925380 7.567467 9.075877
C 8.102774 6.916718 8.171734
C 8.333874 7.772753 8.178048
C 8.611784 8.341387 9.089989
C 7.990134 7.599118 9.048956
C 0.086225 0.166264 0.662383
C 0.423112 0.792942 0.694315
C 0.469614 1.466084 1.352546
C 0.059107 0.484099 1.261822
C 1.006518 0.006099 0.761799
C 1.515113 0.857634 0.530104
C 1.542094 1.443213 1.331624
C 0.945564 0.458571 1.403338
C 2.014915 0.003904 0.515618
C 2.530736 1.009661 0.710563
C 2.593234 1.397744 1.495538
C 2.151808 0.524313 1.461804
C 3.029181 0.016607 0.448344
C 3.493962 0.954014 0.633656
C 3.492928 1.506420 1.390371
C 3.116111 0.595587 1.327049
C 4.057407 0.005440 0.561919
C 4.415625 0.860399 0.701814
C 4.382504 1.529781 1.463844
C 4.006801 0.518813 1.373531
C 5.019374 0.014479 0.737826
C 5.411537 0.952179 0.701739
C 5.496588 1.515629 1.432474
C 4.954960 0.536680 1.323513
C 6.129739 0.088817 0.495863
C 6.468652 0.772856 0.480637
C 6.565246 1.553179 1.373763
C 6.169317 0.606271 1.535429
C 6.964661 0.138305 0.527046
C 7.392965 0.873068 0.675793
C 7.486243 1.381220 1.282771
C 6.881490 0.597589 1.429440
C 8.079328 0.072252 0.775641
C 8.459094 0.887069 0.493516
C 8.391907 1.347978 1.455031
C 8.009284 0.734867 1.537114
C 0.037230 1.648427 0.800582
C 0.420662 2.516459 0.615579
C 0.494761 3.146159 1.510701
C 0.025483 2.373318 1.547194
C 0.984751 1.667436 0.569276
C 1.412673 2.530449 0.682876
C 1.587652 3.340684 1.325099
C 0.910250 2.228671 1.413661
C 2.041608 1.565839 0.615539
C 2.372441 2.536322 0.504308
C 2.559168 3.142137 1.432056
C 1.976488 2.346436 1.278250
C 3.056146 1.685941 0.694211
C 3.591023 2.647755 0.527803
C 3.402075 3.087269 1.489799
C 2.831842 2.248054 1.566542
C 4.004818 1.665924 0.597566
C 4.441926 2.531659 0.574214
C 4.468797 3.043468 1.398635
C 4.142489 2.337085 1.590974
C 4.868147 1.772126 0.506491
C 5.400953 2.551068 0.722936
C 5.437996 3.129333 1.580931
C 5.000160 2.280192 1.403957
C 6.112191 1.740887 0.641110
C 6.393999 2.488856 0.590303
C 6.533541 3.177794 1.459675
C 5.929994 2.161362 1.434659
C 7.023627 1.525749 0.625614
C 7.363157 2.564134 0.610457
C 7.524473 3.135693 1.479599
C 7.030667 2.462619 1.427734
C 8.107825 1.717300 0.484336
C 8.576425 2.638648 0.509260
C 8.550634 3.036151 1.350835
C 8.156832 2.249024 1.448940
C 0.155328 3.402840 0.674687
C 0.462635 4.471279 0.722012
C 0.501447 4.778010 1.248606
C 0.000497 3.974636 1.513749
C 1.014411 3.309871 0.629251
C 1.464729 4.398328 0.747961
C 1.560549 4.818932 1.435270
C 0.830709 4.024050 1.436433
C 1.950152 3.329861 0.567502
C 2.534055 4.154939 0.608850
C 2.525556 4.959787 1.491138
C 2.111811 4.101542 1.329301
C 3.160450 3.368576 0.667438
C 3.345415 4.394540 0.592149
C 3.512762 4.978893 1.660826
C 2.999383 4.070842 1.228996
C 3.996839 3.404214 0.571389
C 4.360185 4.248776 0.659666
C 4.373688 4.838374 1.389517
C 4.031524 4.042373 1.372561
C 5.024077 3.542277 0.470064
C 5.580483 4.458264 0.737949
C 5.675990 4.945100 1.328474
C 5.069884 4.127260 1.471759
C 6.092652 3.476633 0.615872
C 6.428321 4.237908 0.559232
C 6.368970 4.865243 1.485857
C 5.890538 3.927929 1.413830
C 7.031128 3.534052 0.619550
C 7.611728 4.288806 0.577155
C 7.419295 4.834217 1.496185
C 6.947878 3.999035 1.440253
C 8.169581 3.390238 0.720333
C 8.441450 4.317141 0.446733
C 8.486184 5.048012 1.547044
C 8.054927 3.982374 1.428504
C 0.011741 5.313848 0.731783
C 0.494344 6.043241 0.656602
C 0.456030 6.775026 1.412982
C 0.067700 5.709661 1.286870
C 0.888205 5.383185 0.654235
C 1.598589 6.061446 0.499959
C 1.506742 6.574414 1.340835
C 0.991533 5.748748 1.367109
C 1.938385 5.105518 0.712289
C 2.481117 6.097095 0.590234
C 2.530815 6.752652 1.305994
C 1.891954 5.877750 1.428968
C 3.026734 5.228544 0.576742
C 3.441051 6.080301 0.547421
C 3.455981 6.690087 1.468489
C 3.017564 5.807098 1.452042
C 3.848898 5.156867 0.653131
C 4.354197 5.989816 0.698988
C 4.455497 6.626086 1.236386
C 3.932540 5.732403 1.316272
C 4.964843 5.059856 0.565461
C 5.500921 5.949215 0.753277
C 5.560499 6.689234 1.615292
C 5.045734 5.892949 1.544933
C 5.933620 5.303071 0.456458
C 6.564979 6.100806 0.572469
C 6.470382 6.757773 1.270135
C 6.099918 5.697026 1.474993
C 6.849357 5.239242 0.705703
C 7.399595 5.995802 0.673887
C 7.522560 6.600159 1.492638
C 7.046518 5.785796 1.432553
C 8.011570 5.119081 0.706799
C 8.475561 5.941859 0.606233
C 8.441577 6.660248 1.578627
C 8.043355 5.843337 1.529935
C 0.119194 6.945694 0.573248
C 0.381765 7.801178 0.737147
C 0.618939 8.393219 1.468360
C 0.083645 7.389542 1.369568
C 1.019922 6.875388 0.719302
C 1.584349 7.855675 0.708441
C 1.409471 8.468731 1.376923
C 1.063344 7.484057 1.478059
C 1.953433 6.887977 0.755055
C 2.502931 7.776610 0.625158
C 2.484358 8.419612 1.558622
C 2.100271 7.504263 1.529062
C 2.941888 6.931013 0.578181
C 3.390573 7.742409 0.450974
C 3.526628 8.419039 1.520935
C 3.050237 7.474214 1.539283
C 4.008338 6.782861 0.775654
C 4.643130 7.825774 0.606823
C 4.423927 8.327973 1.443024
C 4.093572 7.357098 1.471097
C 4.960361 7.144242 0.538353
C 5.374599 7.840149 0.573371
C 5.392943 8.393878 1.388879
C 5.174099 7.564953 1.361267
C 5.997016 6.886121 0.427815
C 6.590581 7.897797 0.639891
C 6.352425 8.403872 1.462563
C 5.954457 7.619663 1.449850
C 6.927315 6.921176 0.620861
C 7.585357 7.846059 0.452307
C 7.592835 8.489700 1.471583
C 6.894775 7.635810 1.327068
C 8.062098 6.934092 0.655056
C 8.475722 7.796423 0.582354
C 8.487522 8.422401 1.271841
C 7.922714 7.440046 1.507401
C 0.292825 0.138815 2.137499
C 0.488602 0.883469 2.311471
C 0.482243 1.544013 3.208798
C 0.104894 0.584986 3.199905
C 0.846848 0.137093 2.293180
C 1.401575 0.880445 2.209027
C 1.503380 1.408763 3.092790
C 0.962901 0.561561 3.062917
C 2.005591 0.062098 2.084013
C 2.551943 0.849518 2.225095
C 2.582467 1.389132 2.987318
C 1.915167 0.477282 3.080291
C 2.852357 0.010317 2.272518
C 3.601311 1.024008 2.225952
C 3.458327 1.469478 3.017247
C 2.841367 0.540624 3.156256
C 4.215269 0.063092 2.219516
C 4.521833 0.962504 2.284077
C 4.538041 1.440556 2.940432
C 4.099577 0.620272 3.085721
C 4.872849 0.010926 2.296303
C 5.352640 0.884985 2.358208
C 5.476337 1.336380 3.161712
C 5.052857 0.519998 2.914560
C 5.973776 0.133726 2.316091
C 6.346604 0.911207 2.206677
C 6.488579 1.335943 3.043716
C 6.075799 0.618067 3.142916
C 6.927961 0.006478 2.111512
C 7.527944 0.794914 2.375425
C 7.508681 1.509378 3.031684
C 6.847133 0.610643 3.034076
C 7.961310 0.054919 2.062267
C 8.615175 0.741216 2.252175
C 8.522482 1.469490 3.123371
C 7.898212 0.704108 3.063507
C 0.024709 1.829206 2.132046
C 0.610765 2.705039 2.336287
C 0.674458 3.103470 2.978556
C 0.070982 2.236594 3.069620
C 0.908785 1.658038 2.126955
C 1.674747 2.620942 2.175593
C 1.347547 3.293572 2.969427
C 1.030745 2.243912 3.105165
C 1.932357 1.633570 2.312187
C 2.556205 2.457337 2.347545
C 2.625613 3.280424 3.062567
C 1.974530 2.301417 2.966287
C 2.901367 1.666349 2.226141
C 3.510434 2.661353 2.104482
C 3.584821 3.030524 3.104844
C 3.131211 2.404938 3.101209
C 3.896172 1.724925 2.193627
C 4.527502 2.666314 2.259747
C 4.557408 3.220701 3.087603
C 3.913958 2.205007 2.894626
C 5.024827 1.708849 2.336607
C 5.528028 2.718009 2.244992
C 5.674998 3.216824 3.108804
C 5.001162 2.106068 3.020218
C 6.117680 1.697725 2.234031
C 6.477886 2.564364 2.137027
C 6.682906 3.201585 3.115610
C 5.975746 2.448724 2.937355
C 7.045900 1.710278 2.424655
C 7.541755 2.677614 2.211955
C 7.566953 3.332612 3.098196
C 6.861201 2.300372 2.972401
C 7.959522 1.694195 2.277082
C 8.499069 2.682730 2.094585
C 8.580256 3.210778 3.047996
C 7.834638 2.357821 3.140135
C 0.146175 3.653735 2.174710
C 0.592190 4.403769 2.185873
C 0.528893 4.759279 3.096528
C 0.128348 4.051105 3.181373
C 1.097637 3.501885 2.199750
C 1.425520 4.447343 2.137799
C 1.559899 4.769803 3.105295
C 0.920036 3.927038 3.020839
C 1.970017 3.488894 2.249933
C 2.489623 4.268159 2.325958
C 2.548616 5.022771 3.117742
C 2.063346 3.977813 3.044126
C 3.008531 3.509859 2.398779
C 3.362156 4.299532 2.191474
C 3.450777 4.860471 2.873561
C 3.078877 3.846489 3.113583
C 4.170201 3.348839 2.268708
C 4.629496 4.313755 2.212468
C 4.368530 4.772572 3.015764
C 4.052367 4.119635 3.090845
C 5.093995 3.552181 2.315053
C 5.598995 4.438822 2.246404
C 5.586701 4.987069 3.181434
C 4.876236 4.065419 3.020282
C 5.929282 3.469604 2.404580
C 6.495481 4.385454 2.189338
C 6.547636 4.701718 3.104676
C 6.137696 4.003134 2.964718
C 6.907539 3.385257 2.153356
C 7.380720 4.325907 2.160949
C 7.420754 4.916792 3.003682
C 6.897138 4.135143 3.148232
C 7.940315 3.611559 2.226409
C 8.394239 4.299707 2.277273
C 8.667800 4.932989 3.097254
C 7.990629 4.197964 3.194878
C 0.094646 5.365508 2.247698
C 0.532368 5.994967 2.265607
C 0.408848 6.716511 3.159212
C 0.175688 5.765087 3.262083
C 0.952554 5.282619 2.306354
C 1.353354 6.160756 2.336090
C 1.453681 6.672250 3.253732
C 1.022186 5.805833 3.244938
C 2.082345 5.235589 2.208488
C 2.477999 6.222979 2.290082
C 2.456591 6.583190 3.186574
C 1.885233 5.624866 3.030354
C 2.962334 5.249544 2.193755
C 3.655003 5.967362 2.260839
C 3.452089 6.651881 3.214982
C 3.050253 5.656758 3.177091
C 3.911340 5.046420 2.354285
C 4.452867 5.981317 2.361910
C 4.442358 6.689346 3.135503
C 4.029615 5.828061 2.958030
C 4.822539 5.128131 2.243802
C 5.436873 5.929162 2.331512
C 5.591503 6.559269 3.055712
C 4.930248 5.627093 2.989194
C 5.999985 5.195869 2.427945
C 6.333556 6.066967 2.253210
C 6.582463 6.570427 2.890455
C 5.963703 5.792850 2.909607
C 6.945153 5.362632 2.291252
C 7.487720 6.154599 2.286438
C 7.538184 6.596010 2.969410
C 7.153876 5.785412 3.037498
C 7.954145 5.153253 2.284564
C 8.508621 6.111443 2.151969
C 8.650942 6.573586 2.969183
C 7.941805 5.654639 3.113506
C 0.212078 6.899962 2.349578
C 0.545017 7.877543 2.286641
C 0.578278 8.260271 3.155817
C 0.011164 7.354413 3.121584
C 1.074945 6.855927 2.354836
C 1.400225 7.756417 2.268186
C 1.525942 8.326424 3.072964
C 0.966151 7.334101 3.117022
C 1.968584 6.787433 2.233554
C 2.416629 7.714759 2.326503
C 2.398670 8.284824 2.936788
C 2.041733 7.472102 3.205690
C 2.924113 6.959418 2.200651
C 3.479618 7.818825 2.230312
C 3.510445 8.565157 2.991184
C 2.987904 7.537812 3.179194
C 3.989067 6.845893 2.456287
C 4.496277 7.831133 2.191887
C 4.402767 8.388614 3.168840
C 3.971696 7.468304 3.013944
C 4.902761 6.950594 2.201108
C 5.346093 7.704815 2.330274
C 5.467752 8.472267 3.180775
C 4.910235 7.338828 3.005781
C 5.822637 6.886820 2.220221
C 6.382946 7.838302 2.308514
C 6.447265 8.359088 2.958975
C 6.024924 7.425915 3.256412
C 6.873695 6.905072 2.211771
C 7.426026 7.677021 2.370225
C 7.448686 8.379168 3.228571
C 7.143672 7.578657 3.110178
C 8.164168 6.831732 2.239699
C 8.413550 7.764137 2.368692
C 8.535618 8.467536 2.923159
C 8.136974 7.620835 3.101357
C 0.050624 0.046266 3.710093
C 0.564310 0.731971 3.767630
C 0.427685 1.431642 4.717173
C 0.024563 0.655162 4.751829
C 1.037730 0.114515 3.654104
C 1.371302 0.827475 3.798648
C 1.533199 1.622635 4.638605
C 0.906440 0.618959 4.830179
C 1.936616 0.014723 3.977269
C 2.520554 0.797391 3.874126
C 2.437920 1.433456 4.713384
C 2.152235 0.550923 4.738891
C 3.185681 0.016846 3.962504
C 3.380126 0.980994 3.981931
C 3.434901 1.389896 4.640291
C 2.911705 0.618976 4.547867
C 4.019221 0.176747 3.770864
C 4.638771 0.867644 3.750153
C 4.597493 1.346376 4.740525
C 4.005603 0.564203 4.621262
C 5.045973 0.078245 3.862494
C 5.545901 0.760498 3.826052
C 5.603406 1.425943 4.607441
C 5.148912 0.642829 4.672149
C 6.018723 0.082201 3.795047
C 6.387970 0.886534 3.936331
C 6.423300 1.332006 4.540141
C 5.925947 0.487276 4.719261
C 7.012041 0.019954 3.895170
C 7.456402 0.853279 3.776176
C 7.533290 1.385760 4.803200
C 6.929721 0.663487 4.657373
C 7.968859 0.056381 3.886913
C 8.575326 0.852181 3.869936
C 8.529299 1.348439 4.565219
C 7.832714 0.632419 4.830691
C 0.027711 1.717745 3.699381
C 0.441268 2.448692 3.897832
C 0.558335 3.201782 4.801642
C 0.061238 2.285368 4.822278
C 0.867705 1.760857 3.730922
C 1.661987 2.652420 3.909126
C 1.447273 3.292629 4.839771
C 0.967291 2.220632 4.699987
C 2.120293 1.703583 3.959882
C 2.492344 2.645453 3.982118
C 2.561680 3.177040 4.788567
C 1.948604 2.237602 4.616757
C 3.074256 1.819145 4.042515
C 3.415920 2.683704 3.828025
C 3.439814 3.166676 4.653940
C 2.863833 2.331213 4.790743
C 3.864773 1.663052 3.761576
C 4.606619 2.488099 3.859602
C 4.571965 3.353289 4.716485
C 4.017925 2.297818 4.747512
C 4.954968 1.662436 3.894898
C 5.600034 2.541903 3.884243
C 5.540137 3.174299 4.615467
C 4.942229 2.385198 4.652228
C 6.023235 1.901996 3.828903
C 6.590110 2.487817 3.932786
C 6.535202 3.205692 4.708581
C 5.980515 2.329546 4.809848
C 6.895795 1.827914 4.017551
C 7.380935 2.617293 3.852244
C 7.397214 3.125196 4.540845
C 7.028409 2.206873 4.717548
C 7.993052 1.816261 3.807429
C 8.544326 2.451308 3.878335
C 8.472518 3.158878 4.707893
C 8.066613 2.282265 4.751397
C 0.005094 3.549301 4.043995
C 0.642168 4.288451 3.976030
C 0.381395 4.753571 4.589685
C 0.055982 4.022368 4.738929
C 0.947043 3.518791 3.771918
C 1.401554 4.399065 3.783676
C 1.520190 4.783470 4.655790
C 1.008353 3.934889 4.546872
C 2.010384 3.526675 3.881775
C 2.644525 4.386110 3.872050
C 2.411520 4.833387 4.539477
C 1.877761 3.992310 4.638790
C 3.080679 3.594436 3.905838
C 3.410660 4.446504 3.778813
C 3.646917 5.044803 4.773565
C 3.051576 3.884066 4.747621
C 4.007216 3.467084 4.048131
C 4.603308 4.196920 3.898080
C 4.486898 5.024036 4.732203
C 4.064701 4.063713 4.822381
C 4.967688 3.395122 3.865965
C 5.475814 4.261257 3.884332
C 5.559300 4.817587 4.656795
C 4.985841 3.907275 4.731266
C 5.828534 3.461597 4.006509
C 6.394135 4.255082 3.806778
C 6.583211 4.921346 4.583774
C 6.033992 4.139108 4.673357
C 7.107417 3.497187 3.944672
C 7.420499 4.426204 3.867044
C 7.538736 4.951823 4.499760
C 6.936868 3.953626 4.799124
C 7.843356 3.494656 3.862569
C 8.394705 4.489150 3.907480
C 8.423163 4.803472 4.692039
C 7.844207 4.054177 4.663393
C 0.027298 5.216464 3.859057
C 0.487429 5.981546 3.766923
C 0.526804 6.745809 4.713213
C 0.203077 5.684310 4.690387
C 1.016367 5.294193 3.944388
C 1.382471 6.136690 3.967884
C 1.600186 6.804710 4.621795
C 0.966421 5.752801 4.722615
C 2.007914 5.242002 3.910032
C 2.407192 6.124964 3.943727
C 2.526818 6.787176 4.690701
C 1.957987 5.898955 4.647092
C 2.854045 5.229518 3.806565
C 3.449183 6.166406 3.844531
C 3.441744 6.559940 4.666227
C 3.130427 5.915419 4.725811
C 3.912727 5.196510 3.757729
C 4.507244 6.190103 3.853678
C 4.386504 6.686009 4.725791
C 3.940406 5.766403 4.614187
C 5.044686 5.088783 3.993098
C 5.570078 6.117130 3.920404
C 5.498848 6.607619 4.533588
C 4.876145 5.868980 4.766797
C 5.929893 5.325233 3.902636
C 6.517548 5.942374 3.887036
C 6.422872 6.731106 4.614976
C 6.016677 5.778754 4.900560
C 6.990750 5.325804 3.841973
C 7.422600 6.032033 3.976750
C 7.380407 6.739766 4.729110
C 7.032061 5.881828 4.649784
C 7.933004 5.229399 3.780349
C 8.536274 6.002897 4.011078
C 8.372213 6.635087 4.684299
C 7.828917 5.629327 4.625105
C 0.056706 6.977209 3.978654
C 0.532035 7.640708 3.831917
C 0.459366 8.375349 4.762846
C 0.000606 7.566642 4.746917
C 1.009119 6.908846 3.831761
C 1.482719 7.841493 3.772325
C 1.322615 8.407367 4.655762
C 0.877497 7.639338 4.755644
C 1.886080 6.905644 3.935756
C 2.488564 7.660928 3.774696
C 2.494558 8.500323 4.778586
C 2.025156 7.462474 4.726841
C 2.964246 6.890810 3.921974
C 3.475813 7.703226 3.711049
C 3.477127 8.237227 4.576244
C 2.813648 7.453450 4.660616
C 3.946829 6.808877 3.866249
C 4.344214 7.821333 3.879071
C 4.557819 8.334917 4.578995
C 4.055684 7.487701 4.693912
C 4.992771 6.860979 3.894179
C 5.352970 7.859683 3.841204
C 5.488478 8.294428 4.671535
C 4.842599 7.433897 4.733054
C 5.968697 7.048751 3.786649
C 6.367671 7.786019 3.932263
C 6.420755 8.288944 4.563858
C 5.926593 7.675456 4.631197
C 6.952306 6.913798 3.799996
C 7.450549 7.958379 3.811565
C 7.498415 8.482922 4.613299
C 7.062030 7.594718 4.828621
C 8.108299 6.982684 3.792905
C 8.647148 7.733683 3.873972
C 8.450828 8.260230 4.545489
C 7.980113 7.523105 4.809636
C 0.051276 0.202037 5.624572
C 0.391237 0.873692 5.430190
C 0.464862 1.427600 6.173273
C 0.053508 0.706795 6.256829
C 1.030764 0.134988 5.581000
C 1.534414 0.799877 5.534285
C 1.453696 1.442793 6.208033
C 1.031073 0.587857 6.292305
C 1.968641 0.156768 5.633180
C 2.463206 0.868665 5.608100
C 2.485474 1.401312 6.441778
C 1.930900 0.587996 6.151790
C 3.109179 0.118747 5.353646
C 3.514749 0.845630 5.641986
C 3.661806 1.434233 6.244518
C 2.948359 0.575697 6.239124
C 4.016842 0.016715 5.617582
C 4.555304 0.827594 5.509002
C 4.450079 1.611422 6.316181
C 3.836984 0.659763 6.325901
C 5.164644 0.021469 5.634724
C 5.356263 0.787867 5.555057
C 5.493191 1.530433 6.295408
C 5.021800 0.700041 6.306905
C 6.131391 0.032587 5.502433
C 6.534277 0.739922 5.549892
C 6.438763 1.358118 6.290238
C 6.029790 0.577366 6.199092
C 7.027662 0.100995 5.509340
C 7.427656 0.826093 5.628927
C 7.488005 1.546099 6.362386
C 7.038823 0.540281 6.126741
C 8.079356 0.050175 5.397147
C 8.527563 0.868646 5.549775
C 8.726688 1.420722 6.362156
C 8.121201 0.450455 6.253134
C 0.026088 1.724313 5.363849
C 0.411554 2.561145 5.615504
C 0.498820 3.339058 6.426341
C 0.044434 2.151706 6.205326
C 0.914597 1.666518 5.427447
C 1.389530 2.690312 5.434919
C 1.447287 3.206429 6.460076
C 1.176058 2.362421 6.428569
C 1.960056 1.770668 5.647084
C 2.494148 2.566304 5.563738
C 2.655074 3.330652 6.260570
C 1.854771 2.344303 6.438185
C 2.880226 1.712796 5.498725
C 3.282159 2.577470 5.487267
C 3.468842 3.357556 6.382034
C 3.083727 2.161378 6.276421
C 4.045804 1.613219 5.394540
C 4.633991 2.661617 5.563930
C 4.500886 3.178167 6.501555
C 3.948782 2.285737 6.361235
C 5.000624 1.617562 5.482701
C 5.291604 2.630752 5.599752
C 5.400030 3.257442 6.368573
C 4.883893 2.315090 6.412641
C 5.970986 1.870850 5.384621
C 6.390052 2.720947 5.428876
C 6.520934 2.982983 6.321978
C 6.091902 2.345501 6.442221
C 6.925074 1.777776 5.537625
C 7.452535 2.597830 5.466678
C 7.440966 3.169789 6.163490
C 6.912934 2.429082 6.225982
C 8.014552 1.808485 5.521042
C 8.599208 2.573673 5.584628
C 8.537949 3.267049 6.335451
C 8.008705 2.192580 6.384574
C 0.171018 3.473848 5.444609
C 0.367922 4.307813 5.490391
C 0.440167 4.851678 6.166296
C 0.002228 4.140351 6.386885
C 1.115014 3.355803 5.431268
C 1.482034 4.378561 5.435363
C 1.457751 4.903505 6.244141
C 0.950110 3.992754 6.455177
C 1.826548 3.558002 5.452279
C 2.585909 4.292166 5.525229
C 2.539881 4.967335 6.394187
C 1.921412 4.125561 6.333365
C 3.114194 3.486420 5.567147
C 3.489010 4.363062 5.683417
C 3.425443 5.033528 6.348583
C 2.930579 4.232313 6.252597
C 4.040476 3.548633 5.416297
C 4.448465 4.204339 5.394183
C 4.431341 4.904505 6.317537
C 3.952874 4.038811 6.239651
C 5.054662 3.333016 5.540124
C 5.474609 4.217660 5.652828
C 5.550912 4.919603 6.314643
C 4.933120 4.083852 6.349798
C 6.020389 3.589521 5.428491
C 6.507223 4.211327 5.555449
C 6.281998 4.907643 6.447870
C 6.032046 4.047912 6.226593
C 7.050910 3.509511 5.387351
C 7.617373 4.490453 5.506404
C 7.547109 4.998572 6.335518
C 7.046771 3.897092 6.337851
C 7.889470 3.437745 5.669165
C 8.376406 4.274065 5.587105
C 8.669307 4.858352 6.295281
C 7.998766 3.929887 6.235837
C 0.032037 5.176063 5.594939
C 0.470656 6.116795 5.651528
C 0.451767 6.514544 6.490718
C 0.051419 5.821336 6.305283
C 0.908898 5.205613 5.682477
C 1.489096 6.186541 5.541042
C 1.644924 6.624472 6.266240
C 0.844707 5.660602 6.352287
C 2.080404 5.049184 5.497239
C 2.424073 6.056987 5.657994
C 2.498612 6.726831 6.349974
C 2.085700 5.787839 6.346072
C 2.937583 5.214655 5.497751
C 3.615005 6.088355 5.627031
C 3.501212 6.639105 6.178191
C 3.060433 5.883108 6.331295
C 4.072896 5.095953 5.477959
C 4.491687 6.025272 5.685191
C 4.555753 6.775964 6.488617
C 4.119318 5.676031 6.362391
C 5.063383 5.357239 5.523466
C 5.598668 5.977263 5.541926
C 5.554483 6.462628 6.346795
C 4.928329 5.606138 6.414045
C 5.946971 5.248837 5.406751
C 6.534727 5.977923 5.463801
C 6.558357 6.529854 6.359927
C 5.957256 5.705677 6.243741
C 7.115695 5.200375 5.415023
C 7.550913 6.087010 5.498785
C 7.399394 6.738981 6.253460
C 6.947933 5.623961 6.417054
C 7.906067 5.271969 5.508930
C 8.451796 6.181404 5.632581
C 8.463873 6.719225 6.400662
C 7.954066 5.727852 6.287051
C 0.128582 6.832534 5.610851
C 0.442702 7.676738 5.369250
C 0.460543 8.440530 6.151201
C 0.006864 7.646337 6.331989
C 1.087425 6.942108 5.376966
C 1.533677 7.673178 5.485709
C 1.397102 8.310962 6.203079
C 0.915620 7.518585 6.491268
C 2.012943 6.794475 5.527430
C 2.568392 7.815106 5.475398
C 2.408636 8.461728 6.280305
C 2.040190 7.591417 6.193100
C 3.041635 6.763502 5.539253
C 3.588125 7.832287 5.457305
C 3.518329 8.387361 6.174394
C 2.960228 7.515018 6.146716
C 4.010739 7.041055 5.384505
C 4.476119 7.890195 5.673355
C 4.453642 8.379974 6.160250
C 3.933897 7.513328 6.454990
C 4.829544 6.958428 5.563697
C 5.476297 7.883223 5.515381
C 5.668393 8.231324 6.333055
C 5.071492 7.355557 6.336768
C 5.899267 6.901660 5.562405
C 6.492715 7.906846 5.487748
C 6.518544 8.358708 6.137175
C 6.131918 7.582667 6.244492
C 7.078151 6.962502 5.397387
C 7.554570 7.975368 5.539785
C 7.498532 8.296685 6.225502
C 7.047872 7.448195 6.257130
C 8.007830 7.119263 5.441052
C 8.397970 7.822140 5.473890
C 8.399438 8.454025 6.192299
C 7.933937 7.344319 6.324137
C 0.090301 0.051158 7.255674
C 0.478606 1.000304 7.311954
C 0.452583 1.521695 7.866080
C 0.149972 0.576616 8.023320
C 1.013109 0.128257 7.185897
C 1.540427 1.000009 7.238908
C 1.450801 1.567831 8.101000
C 0.973313 0.537748 7.923638
C 2.099421 0.150745 6.963677
C 2.588075 0.694827 7.115006
C 2.281081 1.449545 7.969323
C 1.866868 0.647460 8.040051
C 3.082317 0.122519 7.095329
C 3.506271 0.830260 7.107882
C 3.497051 1.548891 7.992934
C 3.056360 0.584062 8.153435
C 4.072678 0.180008 7.291692
C 4.459105 0.777851 7.227928
C 4.379434 1.444219 8.163984
C 3.999045 0.571728 7.917917
C 4.852503 0.013201 7.193234
C 5.471907 0.999983 7.109414
C 5.459951 1.473397 7.867641
C 5.059158 0.520621 7.985735
C 5.955719 0.109220 7.155154
C 6.467293 0.734005 7.185301
C 6.617969 1.546025 7.953120
C 6.053945 0.690416 7.975959
C 7.014721 0.007367 7.083170
C 7.641397 0.893054 7.198272
C 7.545560 1.433591 7.825596
C 7.068767 0.668980 7.929007
C 8.100265 0.053895 7.278408
C 8.435134 0.790143 7.210449
C 8.364230 1.467133 8.014688
C 8.108112 0.464505 7.973288
C 0.072109 1.907951 7.155444
C 0.439315 2.494246 7.088747
C 0.407228 3.246171 7.833776
C 0.029756 2.242821 7.996469
C 1.035230 1.662331 7.071528
C 1.503976 2.704740 7.253955
C 1.483474 3.022458 7.843365
C 0.985533 2.246525 7.848918
C 1.916781 1.776494 7.220323
C 2.402395 2.688901 6.975818
C 2.447095 3.109255 7.809222
C 1.931217 2.298118 7.836547
C 2.983919 1.599055 7.182427
C 3.407899 2.653005 7.105475
C 3.503509 3.278728 7.893448
C 3.032202 2.321384 7.896653
C 3.879275 1.661524 7.104084
C 4.617816 2.573656 7.268444
C 4.419197 3.020415 7.899631
C 4.007851 2.408109 7.916079
C 4.930963 1.830440 7.076441
C 5.670587 2.593364 7.265515
C 5.476392 3.302568 7.892493
C 5.020469 2.238382 8.146798
C 6.124949 1.699938 7.217075
C 6.428116 2.590413 7.163398
C 6.524685 3.071743 7.980563
C 6.023183 2.191678 8.006617
C 7.058162 1.617992 7.202434
C 7.521177 2.475633 7.108560
C 7.425873 3.139546 7.852675
C 6.939293 2.239792 8.076005
C 8.087527 1.671298 7.219761
C 8.506692 2.728509 7.124480
C 8.443111 3.154114 7.963542
C 7.992844 2.234792 7.976859
C 0.082572 3.512218 7.341350
C 0.454764 4.203345 7.051033
C 0.417188 4.929104 7.870613
C 0.164107 4.165020 8.036947
C 0.955989 3.456333 7.056562
C 1.674278 4.396278 7.129295
C 1.570338 5.028821 8.028251
C 0.929456 4.066582 7.870729
C 1.951945 3.411857 7.027430
C 2.558797 4.231581 7.100412
C 2.589303 4.890743 7.856436
C 1.993416 3.994630 7.826138
C 2.894734 3.392872 7.139701
C 3.437579 4.329809 7.107600
C 3.527685 4.931322 7.796629
C 3.047640 4.081788 7.832738
C 4.113132 3.418683 7.264078
C 4.578311 4.198986 7.147893
C 4.613317 4.955709 7.932719
C 3.941281 3.876451 8.027889
C 5.117678 3.519196 7.066901
C 5.499361 4.225287 7.302236
C 5.537749 5.069736 8.000634
C 5.043708 3.992571 8.050472
C 6.135649 3.383684 7.135228
C 6.561838 4.483529 7.220751
C 6.618942 4.864663 7.934665
C 6.138015 3.983451 8.018961
C 7.015317 3.309655 7.106698
C 7.552794 4.379225 7.312782
C 7.591305 4.931712 7.979226
C 6.878161 4.086275 7.930816
C 7.905923 3.497580 7.146036
C 8.512824 4.455313 7.195044
C 8.443911 4.822983 7.971696
C 7.879239 4.122881 8.042220
C 0.045791 5.054902 6.995058
C 0.451038 6.214503 7.245746
C 0.378817 6.745278 8.013221
C 0.067720 5.690541 8.062101
C 0.986313 5.186856 7.099538
C 1.612137 6.055977 7.069268
C 1.436076 6.448990 8.032971
C 0.940436 5.778101 7.962335
C 2.051835 5.169814 7.233641
C 2.360680 5.961400 7.138957
C 2.594257 6.607561 8.073481
C 1.918897 5.791426 7.770896
C 2.869485 5.154742 7.243663
C 3.327934 6.184845 7.204324
C 3.529203 6.765288 7.924217
C 2.992417 5.842622 7.861250
C 4.080111 5.237595 7.257234
C 4.445429 5.952864 7.056752
C 4.491849 6.690511 8.165524
C 3.857906 5.824818 8.054034
C 4.943451 5.064226 6.994887
C 5.628305 6.064588 7.006696
C 5.498523 6.522275 7.975023
C 5.051187 5.780420 8.114483
C 6.092204 5.234196 7.263480
C 6.419461 6.017771 7.051625
C 6.483087 6.536933 8.106384
C 6.043459 5.755044 8.010315
C 7.010506 5.167199 7.278953
C 7.498878 6.030554 7.203564
C 7.408963 6.513708 7.931133
C 7.044899 5.940410 7.842330
C 7.902959 5.196422 7.146646
C 8.428846 6.088148 7.017455
C 8.564354 6.555530 7.967488
C 8.104407 5.825369 8.080508
C 0.017373 6.924467 7.142486
C 0.525010 7.789377 7.078255
C 0.492710 8.403061 7.859941
C 0.084113 7.469288 7.873454
C 0.935331 6.903838 7.143946
C 1.657419 7.786865 7.070276
C 1.401338 8.512165 7.997603
C 0.953176 7.590752 8.110751
C 2.026215 7.014476 7.062596
C 2.479741 7.838773 6.934883
C 2.381949 8.418436 8.007843
C 1.907625 7.644600 7.875784
C 2.952715 6.807541 7.179538
C 3.670892 7.861276 7.112325
C 3.393933 8.495583 7.893658
C 2.923613 7.549519 8.012525
C 3.941806 7.012673 6.919419
C 4.473242 7.744805 7.188757
C 4.557814 8.275670 8.023135
C 4.025895 7.438721 8.047925
C 4.995018 6.954742 7.264294
C 5.511661 7.867790 7.088314
C 5.508847 8.464734 7.875003
C 5.184219 7.465264 8.064335
C 5.950228 6.929367 7.001523
C 6.457724 7.930125 7.134696
C 6.577556 8.272015 7.871748
C 5.986432 7.499743 8.038819
C 6.946245 6.908226 7.164235
C 7.522577 7.684839 7.225140
C 7.582281 8.395942 7.987461
C 7.077622 7.610420 7.809427
C 8.029322 7.089375 7.223233
C 8.401525 7.908830 7.067892
C 8.553294 8.384503 8.091045
C 7.869195 7.438009 7.925938
C 0.092261 0.002815 8.806055
C 0.403536 0.773323 8.838878
C 0.491322 1.502748 9.456567
C 0.175412 0.546104 9.389042
C 0.907818 0.072649 8.628204
C 1.481322 1.025416 8.754658
C 1.414351 1.330585 9.480948
C 0.969317 0.627240 9.514393
C 1.863695 0.079028 8.806270
C 2.434218 0.865341 8.666950
C 2.637918 1.329374 9.508486
C 1.885209 0.603615 9.580483
C 3.099425 0.000756 8.752028
C 3.506076 0.804126 8.816058
C 3.480125 1.341596 9.487808
C 3.081877 0.556287 9.576212
C 4.164503 0.098180 8.707494
C 4.567478 0.834852 8.774968
C 4.552221 1.504056 9.499108
C 3.979561 0.495793 9.526196
C 4.870952 0.082640 8.642917
C 5.533963 1.010389 8.821860
C 5.533201 1.421028 9.455462
C 4.997587 0.714609 9.401750
C 5.995392 0.007639 8.840553
C 6.402468 0.845589 8.845144
C 6.618397 1.570312 9.554945
C 5.830249 0.646396 9.471530
C 7.040168 0.004229 8.731094
C 7.519908 0.858324 8.736377
C 7.490243 1.432077 9.590111
C 7.003608 0.656768 9.460895
C 7.959207 0.018492 8.690823
C 8.568144 0.969141 8.920739
C 8.489355 1.313132 9.577230
C 7.849446 0.417238 9.509884
C 0.081909 1.747480 8.562358
C 0.444715 2.491352 8.685363
C 0.427546 3.241329 9.522461
C 0.258503 2.386905 9.547017
C 0.912890 1.716723 8.602844
C 1.621642 2.654373 8.851994
C 1.589377 3.021464 9.460160
C 1.016400 2.289299 9.553985
C 1.942974 1.625641 8.818412
C 2.534461 2.450532 8.714121
C 2.621339 3.145825 9.469013
C 2.167748 2.365397 9.577717
C 3.061169 1.661602 8.748856
C 3.614344 2.762405 8.883510
C 3.502616 3.250918 9.495562
C 3.060489 2.421158 9.566851
C 4.068970 1.782222 8.914036
C 4.559968 2.613242 8.741272
C 4.371143 3.123932 9.581951
C 4.096432 2.366779 9.457817
C 5.006016 1.575493 8.848555
C 5.514006 2.608791 8.622229
C 5.670920 3.184430 9.477116
C 5.093520 2.388457 9.562443
C 6.105152 1.719048 8.738732
C 6.507660 2.510488 8.778585
C 6.530654 3.040066 9.514952
C 5.888846 2.234443 9.523856
C 6.917286 1.703345 8.617142
C 7.574727 2.535868 8.609764
C 7.491908 3.057672 9.588559
C 6.763217 2.326529 9.513366
C 7.962845 1.784537 8.731085
C 8.381150 2.494732 8.821206
C 8.477797 3.159609 9.523476
C 8.027402 2.436645 9.426658
C 0.024123 3.436951 8.924039
C 0.460650 4.378705 8.649767
C 0.369675 4.942664 9.557356
C 0.189316 4.118644 9.526896
C 1.048626 3.502984 8.834204
C 1.572947 4.412116 8.934857
C 1.389150 4.954970 9.573240
C 1.089001 4.027213 9.539284
C 1.963987 3.589134 8.672075
C 2.478234 4.300319 8.784214
C 2.501341 4.879654 9.481789
C 1.863626 3.942394 9.525387
C 3.114072 3.486644 8.849455
C 3.347324 4.355284 8.930374
C 3.570531 5.034832 9.380883
C 3.148650 3.998503 9.542139
C 4.072424 3.485745 8.813705
C 4.629222 4.322654 8.960965
C 4.493668 5.137403 9.543295
C 3.916867 4.019648 9.550503
C 5.072527 3.388734 8.688654
C 5.551751 4.526782 8.744182
C 5.346895 5.014507 9.548364
C 4.964072 4.042202 9.526509
C 5.862452 3.556351 8.735492
C 6.523218 4.450653 8.716474
C 6.601461 4.760581 9.547501
C 6.154338 4.049035 9.412385
C 6.826811 3.473910 8.832112
C 7.513259 4.303823 8.716659
C 7.611223 4.895743 9.492534
C 7.035912 4.141808 9.537991
C 8.102044 3.476528 8.840260
C 8.494076 4.149468 8.745244
C 8.467991 5.016564 9.497573
C 7.849656 4.085021 9.551309
C 0.282071 5.175294 8.679616
C 0.341748 6.149131 8.865146
C 0.420225 6.619876 9.549057
C 0.073874 5.582196 9.535583
C 1.108152 5.112472 8.741597
C 1.453147 5.978508 8.818938
C 1.635892 6.683636 9.455492
C 1.021664 5.977578 9.552047
C 2.000914 5.330415 8.668765
C 2.538080 6.024467 8.813480
C 2.494140 6.515997 9.455415
C 1.824159 5.872087 9.459881
C 2.984774 5.327660 8.689285
C 3.363110 6.174701 8.893030
C 3.421362 6.690711 9.457054
C 3.022700 5.629172 9.591288
C 4.064819 5.118596 8.742231
C 4.561935 6.063263 8.606997
C 4.406731 6.778153 9.571162
C 4.006361 5.647659 9.563735
C 5.002766 5.042496 8.839536
C 5.593003 6.076597 8.894097
C 5.443603 6.690071 9.505628
C 5.054733 5.694711 9.576026
C 6.008017 5.067850 8.801912
C 6.353780 5.979045 8.855008
C 6.537945 6.757602 9.537702
C 6.115720 5.861497 9.533754
C 7.082479 5.208942 8.784803
C 7.562851 6.057834 8.887926
C 7.414834 6.618413 9.591892
C 7.087073 5.702255 9.518989
C 8.119958 5.276028 8.872123
C 8.357546 5.863476 8.738991
C 8.629770 6.576915 9.394794
C 8.142099 5.747122 9.541400
C 0.153238 6.961300 8.844308
C 0.412796 7.755241 8.638807
C 0.670528 8.443816 9.476554
C 0.010065 7.432952 9.402663
C 1.043701 6.912300 8.877133
C 1.457841 7.647945 8.824647
C 1.528825 8.326023 9.400450
C 0.930459 7.711266 9.559168
C 1.959171 6.875534 8.907350
C 2.609133 7.786463 8.793837
C 2.383801 8.334136 9.570120
C 2.037643 7.353354 9.483760
C 3.057582 6.938656 8.721336
C 3.478958 7.682562 8.868247
C 3.650384 8.385080 9.492250
C 2.970819 7.508215 9.512748
C 3.976560 7.046966 8.786665
C 4.442069 7.822367 8.705733
C 4.563490 8.311400 9.450303
C 3.890627 7.550594 9.588878
C 4.919133 6.940787 8.935348
C 5.573307 7.831238 8.893903
C 5.548496 8.337797 9.575266
C 5.271968 7.367800 9.573161
C 5.867689 6.829574 8.741749
C 6.537239 7.701880 8.867979
C 6.611963 8.527860 9.565780
C 5.850406 7.546021 9.529855
C 7.043302 7.051324 8.767474
C 7.588053 7.890272 8.738219
C 7.709833 8.234771 9.571687
C 6.896448 7.661738 9.507504
C 7.986329 6.929601 8.926184
C 8.499038 7.813259 8.924901
C 8.547682 8.180097 9.516458
C 8.009800 7.408513 9.436564
2160
Frame 8/10
C 0.231880 0.022921 0.250373
C 0.691158 0.846859 0.068618
C 0.521220 1.576806 0.831694
C 0.000619 0.706837 0.924506
C 1.222299 0.124359 0.135059
C 1.418860 0.789443 0.108131
C 1.695238 1.418428 0.850489
C 1.124666 0.659058 0.733539
C 2.060334 0.133009 0.065116
C 2.393893 0.896620 0.204613
C 2.540223 1.458909 0.964679
C 1.897500 0.561354 0.817037
C 2.836425 0.108956 0.085314
C 3.491375 0.786416 0.044537
C 3.420174 1.410749 0.760946
C 3.019611 0.704994 0.622183
C 3.862750 0.133047 0.135152
C 4.429233 0.745065 0.041473
C 4.521625 1.333778 0.761957
C 4.019308 0.411582 0.811770
C 4.834804 0.077744 0.115501
C 5.623455 0.879464 0.005104
C 5.323499 1.397287 0.793796
C 5.045713 0.549884 0.792370
C 6.119315 0.243281 0.073961
C 6.511592 0.610401 0.073253
C 6.541423 1.523069 0.847714
C 6.019702 0.388187 0.796097
C 7.207682 0.051515 0.028284
C 7.393647 0.871224 0.160758
C 7.702751 1.469942 0.851823
C 7.113764 0.623310 0.981589
C 8.060394 0.094597 0.004988
C 8.608566 1.077568 0.065740
C 8.428014 1.495117 0.697143
C 7.736758 0.624688 0.708224
C 0.355212 1.628152 0.027322
C 0.469991 2.808309 0.120588
C 0.422240 3.056439 0.819448
C 0.129932 2.104237 0.859958
C 0.870822 1.645080 0.120501
C 1.364629 2.466510 0.020914
C 1.383964 3.250601 0.839804
C 1.004980 2.407414 0.762765
C 1.903654 1.530594 0.013967
C 2.557905 2.562738 0.125223
C 2.582150 3.133835 0.887923
C 1.975052 2.262172 0.699942
C 3.019154 1.784296 0.033587
C 3.690167 2.547853 0.031180
C 3.569567 3.190358 0.664138
C 3.014455 2.236374 0.920478
C 3.837745 1.789090 0.208574
C 4.680521 2.389715 0.025907
C 4.646144 3.169938 0.944737
C 3.981808 2.439605 0.658918
C 4.765942 1.856258 0.050438
C 5.463431 2.461218 0.048129
C 5.364888 3.102320 0.987802
C 4.954722 2.427065 0.904459
C 5.977197 1.727740 0.066933
C 6.564399 2.883703 0.050259
C 6.521629 3.060741 0.723769
C 6.138951 2.286624 0.901411
C 7.069854 1.837187 0.173141
C 7.587084 2.473716 0.114009
C 7.480096 3.231090 0.992374
C 6.784114 2.265607 0.922521
C 7.904041 1.831669 0.020046
C 8.625861 2.593481 0.004667
C 8.509278 3.060574 0.828611
C 7.912091 2.157248 0.968284
C 0.036932 3.287527 0.219475
C 0.482568 4.433300 0.171829
C 0.571194 5.139763 0.781470
C 0.009045 3.915703 0.873775
C 1.058922 3.363915 0.098719
C 1.602677 4.176122 0.086233
C 1.618957 4.815541 0.897646
C 0.950814 3.950851 0.919373
C 1.954084 3.659018 0.083471
C 2.407298 4.320856 0.120438
C 2.597064 4.796192 0.953873
C 1.878270 4.032692 0.841609
C 3.055010 3.484423 0.156401
C 3.620528 4.154411 0.001013
C 3.513707 5.011495 0.941522
C 3.117313 3.942489 0.692787
C 4.075806 3.563438 0.062757
C 4.593012 4.298618 0.008309
C 4.572969 4.877005 0.789365
C 4.012495 4.262061 0.882289
C 5.010900 3.317888 0.101082
C 5.525049 4.538848 0.230358
C 5.264506 4.901311 0.877580
C 5.052299 4.177047 0.746051
C 5.899766 3.350569 0.135713
C 6.457569 4.412329 0.026222
C 6.287062 4.750724 0.890949
C 5.974834 4.119384 0.937010
C 6.960826 3.599878 0.147838
C 7.334931 4.360003 0.027804
C 7.540468 4.924001 0.713061
C 6.841104 4.053689 0.752308
C 7.924668 3.392205 0.239396
C 8.294621 4.297653 0.004893
C 8.362515 4.741663 0.708683
C 7.911700 3.827316 0.768778
C 0.179949 4.992401 0.014731
C 0.448408 6.271440 0.032265
C 0.418241 6.629736 0.661241
C 0.136610 5.831970 0.624447
C 0.965577 5.162619 0.010192
C 1.448175 6.158415 0.020704
C 1.436011 6.874797 0.734537
C 0.858072 5.835690 0.667044
C 1.896410 5.321927 0.115750
C 2.693182 6.103125 0.185006
C 2.629387 6.785348 0.838360
C 2.036957 5.887199 0.673807
C 2.992453 5.171076 0.033639
C 3.485229 6.000876 0.119751
C 3.431205 6.696149 0.850227
C 3.136553 5.816243 0.767565
C 4.174519 5.262631 0.237182
C 4.536341 6.085813 0.092350
C 4.697883 6.828711 0.847259
C 3.933153 5.720142 0.633047
C 4.894012 5.300536 0.011762
C 5.710739 6.094177 0.156416
C 5.651201 6.601277 0.799865
C 5.123283 5.822793 0.984509
C 5.826016 5.167000 0.046271
C 6.436813 6.218466 0.007020
C 6.753019 6.483250 0.853390
C 5.969705 5.776996 0.808869
C 7.175269 5.204827 0.001773
C 7.513039 5.886305 0.191782
C 7.403471 6.652896 0.696181
C 7.085428 5.787830 0.945179
C 7.900866 5.183522 0.037672
C 8.754268 6.052087 0.030122
C 8.578004 6.805604 0.738689
C 7.878997 5.744503 0.752555
C 0.003121 6.760997 0.078170
C 0.572337 7.825833 0.064299
C 0.461630 8.504040 0.689288
C 0.073377 7.423701 0.828211
C 1.131793 6.908105 0.086898
C 1.338072 7.716818 0.009298
C 1.549877 8.311864 0.789270
C 1.000084 7.348998 0.981854
C 2.121282 6.927301 0.014977
C 2.506612 7.975799 0.083743
C 2.685271 8.359652 0.836626
C 2.136359 7.477217 0.683651
C 2.941977 7.146292 0.041206
C 3.257090 7.844266 0.040688
C 3.509598 8.313216 0.700339
C 3.038877 7.568935 0.994631
C 4.090394 6.695394 0.073029
C 4.426804 7.925521 0.068709
C 4.369666 8.534568 0.713591
C 4.022689 7.521238 0.728936
C 5.019441 6.872272 0.072458
C 5.288419 7.766080 0.097950
C 5.446806 8.309804 0.625313
C 5.025596 7.583341 0.752154
C 5.781250 6.990560 0.042327
C 6.521220 7.826913 0.101074
C 6.374244 8.428822 0.700656
C 5.904165 7.571559 0.648632
C 7.217208 6.916312 0.066852
C 7.494284 7.710835 0.058331
C 7.393218 8.449585 0.850844
C 7.028903 7.661319 0.884885
C 8.002169 6.956287 0.208343
C 8.451545 7.712659 0.062825
C 8.526731 8.237406 0.861914
C 8.026884 7.560403 0.654617
C 0.016866 0.148010 1.798806
C 0.527124 0.981474 1.533355
C 0.483810 1.455553 2.353557
C 0.125921 0.452642 2.377056
C 1.122795 0.177205 1.704902
C 1.574223 0.951184 1.737733
C 1.523892 1.310136 2.385905
C 0.982354 0.577675 2.589537
C 1.876732 0.061874 1.492668
C 2.464731 0.805905 1.679634
C 2.605919 1.343815 2.405292
C 2.008884 0.418459 2.506660
C 2.860297 0.081007 1.655529
C 3.433225 0.786976 1.758167
C 3.535089 1.436108 2.412045
C 2.963052 0.490297 2.490978
C 4.013990 0.011443 1.770576
C 4.627208 0.679843 1.563260
C 4.331556 1.451846 2.591309
C 4.091729 0.502388 2.416618
C 4.862667 0.142133 1.763586
C 5.580466 0.900143 1.631581
C 5.670628 1.350455 2.312093
C 4.984648 0.650414 2.487042
C 5.844873 0.123165 1.749159
C 6.640627 0.939474 1.513521
C 6.372982 1.327959 2.466236
C 6.147592 0.664891 2.640410
C 6.936662 0.010036 1.638773
C 7.550065 0.741561 1.726912
C 7.454249 1.587520 2.566505
C 7.107458 0.602275 2.586643
C 8.177875 0.028826 1.618639
C 8.450701 0.920615 1.615800
C 8.564237 1.528620 2.234646
C 7.996326 0.655304 2.333816
C 0.082289 1.855704 1.536064
C 0.497339 2.483697 1.569952
C 0.392280 3.323420 2.573536
C 0.053627 2.289690 2.404703
C 0.859492 1.709605 1.584638
C 1.528396 2.750211 1.543232
C 1.667602 3.226076 2.591638
C 0.933967 2.133087 2.439115
C 2.046420 1.873965 1.780035
C 2.685980 2.652045 1.555816
C 2.454538 3.226261 2.308966
C 1.827118 2.191733 2.527892
C 2.979280 1.688020 1.747078
C 3.639938 2.467946 1.629300
C 3.436402 3.263746 2.586827
C 2.879303 2.131450 2.329455
C 4.055594 1.814188 1.800961
C 4.447017 2.750745 1.709980
C 4.511728 3.225001 2.559741
C 3.941942 2.280683 2.357418
C 4.988035 1.763264 1.649277
C 5.599429 2.647565 1.616030
C 5.366907 3.203469 2.290685
C 5.074673 2.320418 2.426168
C 6.066052 1.858192 1.799943
C 6.620395 2.651895 1.499319
C 6.455476 3.165266 2.583240
C 6.160481 2.350136 2.593177
C 6.986933 1.607320 1.572203
C 7.517774 2.673229 1.494437
C 7.384777 3.198871 2.537084
C 6.859780 2.103809 2.331274
C 8.057290 1.681821 1.482188
C 8.517546 2.483749 1.664311
C 8.560286 3.164463 2.385546
C 7.923352 2.382337 2.612801
C 0.004277 3.473477 1.836094
C 0.419227 4.311057 1.759344
C 0.528826 4.812472 2.369846
C 0.008980 4.003641 2.674578
C 1.040586 3.304435 1.748281
C 1.303694 4.536162 1.623800
C 1.442086 5.011873 2.431467
C 0.962174 4.173606 2.624223
C 2.122683 3.566498 1.800771
C 2.524466 4.183160 1.652041
C 2.625749 4.887949 2.493326
C 2.037853 4.131653 2.370029
C 2.899124 3.566196 1.507602
C 3.363076 4.283578 1.677277
C 3.410780 5.038274 2.470555
C 3.060732 4.099351 2.570854
C 3.988674 3.533629 1.785206
C 4.505034 4.472939 1.576800
C 4.430472 4.702411 2.341511
C 3.943587 4.029041 2.628559
C 5.103527 3.543770 1.594059
C 5.425445 4.506107 1.559360
C 5.428226 4.711577 2.499125
C 4.866830 3.942859 2.503710
C 5.904322 3.610851 1.765323
C 6.658087 4.250325 1.815268
C 6.380231 4.791730 2.336254
C 5.952509 3.956823 2.507666
C 6.891213 3.357962 1.636853
C 7.434696 4.374252 1.590236
C 7.502746 4.909569 2.294978
C 7.180991 3.869524 2.496118
C 8.165287 3.348219 1.580269
C 8.370742 4.345752 1.714403
C 8.406012 4.731099 2.588467
C 7.977157 4.081835 2.524362
C 0.127942 5.214221 1.721291
C 0.537485 6.052914 1.842131
C 0.599636 6.564278 2.620071
C 0.072036 5.763824 2.448643
C 1.100010 5.180864 1.657899
C 1.312617 6.035173 1.462213
C 1.587167 6.657874 2.388028
C 1.024797 5.719856 2.486089
C 1.889184 5.164330 1.550790
C 2.497621 5.957427 1.591659
C 2.618426 6.823750 2.461048
C 1.990501 5.590092 2.539921
C 2.866626 5.306039 1.573984
C 3.566026 6.056629 1.652122
C 3.487179 6.538900 2.365957
C 2.889793 5.807479 2.590623
C 4.012923 5.149876 1.749425
C 4.439289 6.005289 1.623131
C 4.614282 6.628892 2.515369
C 4.028027 5.917453 2.500640
C 4.787311 5.149937 1.718352
C 5.517944 6.077250 1.549377
C 5.398841 6.715033 2.540533
C 5.035315 5.643933 2.371287
C 5.939733 5.090304 1.694205
C 6.490298 6.217438 1.555223
C 6.637225 6.553802 2.337400
C 6.195159 5.742896 2.510616
C 6.993203 5.255299 1.597261
C 7.637530 5.994030 1.596629
C 7.271018 6.516680 2.434385
C 6.781510 5.815228 2.474280
C 8.064722 5.143061 1.411413
C 8.428585 5.922363 1.759990
C 8.500683 6.536713 2.574759
C 8.121930 5.785446 2.674687
C 0.011715 6.964727 1.842894
C 0.461295 7.624493 1.595193
C 0.512062 8.543207 2.318322
C 0.102781 7.625412 2.209588
C 0.975276 6.691310 1.674747
C 1.653842 7.722366 1.750734
C 1.393295 8.448593 2.394296
C 1.105272 7.389668 2.392721
C 1.857217 7.021229 1.708221
C 2.518023 7.762239 1.786465
C 2.551476 8.402466 2.510034
C 1.981302 7.449047 2.388358
C 2.994442 6.794565 1.615102
C 3.262726 7.785618 1.761689
C 3.701932 8.489584 2.394520
C 3.017275 7.500940 2.531085
C 4.066141 6.839357 1.581404
C 4.494121 7.602555 1.668064
C 4.468587 8.488051 2.246294
C 3.929837 7.288050 2.412883
C 4.904720 6.731217 1.634912
C 5.571008 7.697436 1.805858
C 5.496580 8.458548 2.407673
C 4.885034 7.639679 2.358979
C 5.950382 6.863480 1.598831
C 6.408069 7.859496 1.549148
C 6.387173 8.232754 2.517250
C 5.900785 7.524691 2.639875
C 6.985443 6.993525 1.526423
C 7.672429 7.779602 1.608304
C 7.647716 8.284965 2.458563
C 7.011716 7.602900 2.424842
C 8.019147 7.019421 1.533770
C 8.643930 7.797277 1.670643
C 8.577111 8.476680 2.235006
C 7.968912 7.578220 2.500471
C 0.029681 0.023892 3.167170
C 0.516638 0.774868 3.307861
C 0.449717 1.387748 4.211502
C 0.196384 0.676751 3.919643
C 0.924060 0.116077 3.183476
C 1.487011 0.998973 3.398315
C 1.323368 1.430195 4.196882
C 1.086749 0.712093 4.201477
C 2.146139 0.120048 3.187593
C 2.638355 0.962017 3.172830
C 2.559904 1.546886 3.941783
C 1.957772 0.520152 4.212859
C 2.975853 0.080187 3.501670
C 3.595937 0.865603 3.184695
C 3.701790 1.414918 4.167911
C 3.245948 0.621117 4.021736
C 3.900352 0.046606 3.388531
C 4.478792 1.076525 3.424998
C 4.330126 1.581706 4.067351
C 3.834715 0.424080 4.000701
C 5.100791 0.111527 3.171084
C 5.602805 0.952700 3.372729
C 5.582844 1.497113 4.076467
C 5.040111 0.453373 4.075496
C 6.090735 0.045363 3.127296
C 6.541633 1.064736 3.347114
C 6.739841 1.391109 4.144400
C 6.000725 0.673340 3.883989
C 6.920590 0.077815 3.489289
C 7.475933 0.873901 3.002338
C 7.536029 1.609104 4.191922
C 7.116962 0.689812 4.272358
C 7.894688 0.088088 3.266358
C 8.611435 1.092171 3.317055
C 8.594016 1.449425 3.913306
C 8.014422 0.602054 4.076263
C 0.242163 1.885638 3.371102
C 0.371583 2.468238 3.391625
C 0.382957 3.199447 4.012178
C 0.191715 2.441878 4.213763
C 1.132002 1.590909 3.336045
C 1.610717 2.812474 3.264742
C 1.534216 3.239688 4.143644
C 1.094135 2.319960 4.229564
C 2.077732 1.854579 3.422440
C 2.418130 2.718476 3.448747
C 2.500529 3.070495 3.906268
C 2.145708 2.152751 4.169086
C 3.046324 1.872680 3.466628
C 3.373034 2.692447 3.353702
C 3.537418 3.253768 4.137322
C 2.858195 2.298654 3.907714
C 4.082488 1.695614 3.065509
C 4.494467 2.705749 3.144194
C 4.348593 3.189768 4.046430
C 4.181485 2.168067 3.992733
C 5.163510 1.690828 3.213080
C 5.468234 2.591762 3.447530
C 5.681447 3.063115 4.030889
C 5.023249 2.455417 3.893237
C 6.179345 1.594420 3.265745
C 6.491458 2.569795 3.321014
C 6.557474 3.115037 4.126830
C 5.888503 2.192542 4.167410
C 6.961365 1.771572 3.151023
C 7.418186 2.775180 3.152986
C 7.501698 3.224699 4.088376
C 7.113834 2.169455 4.049355
C 7.850718 1.831256 3.201107
C 8.426458 2.597561 3.220534
C 8.478303 3.221605 4.251486
C 7.986594 2.401335 4.160197
C 0.147912 3.365504 3.276378
C 0.527628 4.145894 3.086775
C 0.537640 4.712780 4.054293
C 0.086811 4.207456 3.996133
C 0.862072 3.468804 3.214184
C 1.538227 4.268436 3.352363
C 1.522587 4.769279 4.029587
C 0.942667 3.913642 4.101063
C 1.914830 3.380300 3.244183
C 2.481650 4.353822 3.484954
C 2.635937 4.927971 3.983818
C 1.931176 4.140170 3.930827
C 3.063020 3.257939 3.384712
C 3.421287 4.199557 3.217782
C 3.557766 4.863481 3.888353
C 3.021284 3.898935 4.257790
C 3.920629 3.525347 3.341989
C 4.426112 4.297312 3.444319
C 4.356147 4.846153 4.183201
C 4.097712 4.053179 4.016987
C 4.988656 3.527746 3.196628
C 5.482857 4.291853 3.218838
C 5.624500 4.786876 4.220808
C 5.058949 3.871505 4.016630
C 6.172764 3.402931 3.347620
C 6.295324 4.353839 3.166222
C 6.561735 4.804767 3.934300
C 5.894295 3.902657 3.963442
C 7.155497 3.572124 3.418650
C 7.484346 4.356096 3.208408
C 7.406870 4.873446 3.885099
C 7.046732 4.061185 4.169169
C 8.109757 3.432337 3.121930
C 8.614327 4.225819 3.206181
C 8.609246 4.968860 3.893082
C 7.936449 4.017681 4.261776
C 0.107884 5.237706 3.341329
C 0.345913 6.120345 3.319155
C 0.522804 6.859231 4.044834
C 0.092367 5.737847 4.305984
C 1.031249 5.338972 3.232273
C 1.515837 6.184700 3.177700
C 1.330431 6.615317 4.101057
C 0.824084 5.896547 4.108248
C 1.888220 5.240516 3.344968
C 2.361477 6.157654 3.181193
C 2.419571 6.536102 4.138347
C 1.966609 5.778096 4.097573
C 3.012548 5.174302 3.338246
C 3.696512 6.133459 3.120590
C 3.547345 6.764558 4.237694
C 2.972242 5.930909 4.060087
C 4.061929 5.254250 3.148106
C 4.430441 5.902370 3.261337
C 4.528129 6.578056 4.200320
C 3.925333 5.781787 4.126980
C 4.995685 5.243868 3.402140
C 5.465828 5.916696 3.403287
C 5.414889 6.535253 4.010550
C 4.927070 5.657116 4.057854
C 5.937731 5.342393 3.178303
C 6.640510 5.923508 3.333778
C 6.626043 6.744945 4.049256
C 5.864089 5.777830 3.971760
C 6.878257 5.230930 3.193887
C 7.437431 6.032706 3.447330
C 7.583922 6.579785 3.906190
C 7.101521 5.724106 4.049192
C 8.132447 5.142702 3.082503
C 8.592246 6.011791 3.147819
C 8.460877 6.621950 4.121734
C 8.143064 5.777372 4.078528
C 0.198933 6.995103 3.407035
C 0.325339 7.681501 3.308677
C 0.342029 8.409070 4.104937
C 0.194151 7.575889 4.047681
C 0.904696 6.772263 3.354767
C 1.430136 7.762593 3.262451
C 1.602683 8.215274 4.025636
C 0.949636 7.462970 3.879796
C 1.862133 6.811858 3.337962
C 2.541606 7.735517 3.094464
C 2.406354 8.472016 3.943760
C 2.142017 7.407563 4.012114
C 3.063631 6.910828 3.344818
C 3.507574 7.942273 3.407118
C 3.532350 8.293216 4.010468
C 2.896376 7.445041 4.053684
C 3.994472 6.939670 3.261733
C 4.630610 7.733245 3.123588
C 4.531970 8.204740 4.160727
C 4.103534 7.440444 4.089556
C 4.917000 6.837877 3.165003
C 5.439316 7.806967 3.152843
C 5.470448 8.518754 4.262165
C 5.120422 7.520435 4.067492
C 5.912043 7.001137 3.118425
C 6.532162 7.653963 3.281940
C 6.706224 8.446706 4.058329
C 5.924599 7.453218 4.293010
C 7.009903 7.107960 3.337968
C 7.544140 7.896459 3.241077
C 7.632353 8.365438 4.248497
C 7.103104 7.563193 3.922808
C 7.970720 7.045564 3.316245
C 8.541183 7.633741 3.321468
C 8.399852 8.428111 4.039933
C 8.006245 7.548146 4.290015
C 0.171861 0.079306 4.858978
C 0.315138 0.919703 4.955284
C 0.699872 1.485655 5.730846
C 0.030358 0.724132 5.660091
C 1.055665 0.027166 5.140363
C 1.512110 0.923763 5.110594
C 1.685804 1.479791 5.604531
C 1.039513 0.572306 5.603524
C 1.850093 0.044374 4.871566
C 2.399905 0.921314 4.745955
C 2.589822 1.408248 5.685274
C 2.021459 0.703872 5.631857
C 3.042736 0.132005 4.708154
C 3.306638 0.998909 4.916729
C 3.543739 1.477272 5.658273
C 2.874717 0.643754 5.687158
C 4.054829 0.078530 4.876584
C 4.572201 0.831918 4.808836
C 4.649321 1.320135 5.785500
C 3.895137 0.650374 5.870685
C 5.144188 0.006168 5.072588
C 5.474139 0.859609 4.918224
C 5.571177 1.321492 5.833584
C 5.014349 0.452107 5.758505
C 5.858091 0.003428 4.860156
C 6.505894 0.762531 5.026002
C 6.620259 1.568668 5.780535
C 5.981208 0.750347 5.578116
C 7.132292 0.081354 5.044164
C 7.465506 1.004528 5.047207
C 7.633080 1.507984 5.673456
C 7.173666 0.482302 5.697677
C 8.008372 0.195709 4.685318
C 8.410310 0.862420 4.732700
C 8.460387 1.419746 5.693943
C 7.943099 0.535458 5.806855
C 0.016652 1.677642 4.785616
C 0.439455 2.657241 5.013196
C 0.446056 3.172810 5.618482
C 0.009022 2.433923 5.627318
C 0.854699 1.858526 5.009537
C 1.548186 2.490589 4.832226
C 1.402006 2.992059 5.704995
C 1.057653 2.259637 5.519102
C 1.989674 1.797197 4.765045
C 2.422657 2.651498 4.828631
C 2.666003 3.182748 5.838227
C 2.186825 2.265572 5.639783
C 3.072443 1.860301 4.932037
C 3.361016 2.772163 4.886847
C 3.549976 3.086264 5.638427
C 3.032965 2.141080 5.661693
C 3.987980 1.694666 4.836500
C 4.530378 2.475571 4.830327
C 4.436360 3.161613 5.586151
C 4.033470 2.378271 5.890083
C 4.958121 1.687162 4.764626
C 5.410333 2.504210 4.948039
C 5.541203 3.234630 5.890499
C 4.921351 2.373201 5.701026
C 5.826860 1.813319 4.787708
C 6.496667 2.616415 4.810598
C 6.624933 3.270027 5.647292
C 5.947052 2.457901 5.714555
C 7.070199 1.786890 4.991597
C 7.484166 2.710147 4.726621
C 7.461114 3.370367 5.699670
C 6.854141 2.307622 5.713377
C 8.009159 1.788682 4.944459
C 8.428749 2.755843 4.883718
C 8.385967 3.170630 5.738083
C 8.130074 2.315492 5.606137
C 0.088356 3.321485 4.886063
C 0.594597 4.209028 4.870316
C 0.621249 4.878487 5.779106
C 0.153289 3.921427 5.890064
C 1.050641 3.386297 4.790086
C 1.469172 4.429003 4.971005
C 1.408576 5.139512 5.777235
C 0.859042 4.078783 5.803881
C 2.126237 3.366681 4.811528
C 2.491927 4.363188 5.125032
C 2.474794 4.786429 5.700170
C 2.052639 3.989284 5.579516
C 2.865983 3.481462 4.745971
C 3.476929 4.437383 4.837727
C 3.672177 4.974389 5.631388
C 2.943068 3.903491 5.593507
C 3.948989 3.388233 4.837481
C 4.549520 4.354324 4.903524
C 4.545510 5.043405 5.776088
C 3.807869 4.177180 5.589004
C 5.120216 3.324526 4.877751
C 5.657615 4.428053 4.822323
C 5.504637 5.055398 5.895410
C 5.047270 3.980576 5.840604
C 6.024497 3.606698 4.739707
C 6.375767 4.441835 4.869101
C 6.456445 4.846523 5.780529
C 5.841216 3.974287 5.732975
C 6.885011 3.476998 4.861346
C 7.514769 4.418799 5.010594
C 7.511417 5.040784 5.718474
C 7.201234 3.915772 5.729299
C 8.135169 3.422671 4.923287
C 8.554665 4.433689 4.925427
C 8.454107 5.087556 5.605027
C 7.969434 4.116420 5.642368
C 0.016443 5.299470 5.008409
C 0.481705 5.965277 4.984768
C 0.512078 6.838614 5.820697
C 0.129837 5.725550 5.757881
C 1.102487 5.153381 5.015573
C 1.352468 5.964198 4.831227
C 1.428331 6.765342 5.567614
C 1.182955 5.688195 5.708769
C 2.072021 5.302711 5.029315
C 2.424412 6.110209 4.933629
C 2.392455 6.737030 5.741680
C 2.024725 5.703998 5.876981
C 3.197532 5.195965 4.868991
C 3.443096 5.910790 5.041851
C 3.515150 6.667002 5.588374
C 3.081677 5.779293 5.766604
C 4.122269 5.329160 4.906979
C 4.446322 6.258683 4.894857
C 4.528018 6.743359 5.825738
C 3.971665 5.852661 5.517687
C 5.048213 5.273439 4.987081
C 5.573938 6.179080 4.780703
C 5.460428 6.477656 5.733328
C 5.085238 5.847473 5.634329
C 6.054896 5.059432 5.043494
C 6.420579 6.244498 4.869656
C 6.375708 6.539518 5.833811
C 6.003944 5.875154 5.856688
C 7.109530 5.055249 4.977548
C 7.513095 5.835867 5.000768
C 7.540832 6.697629 5.722251
C 7.004693 5.789433 5.671473
C 8.060505 5.137020 4.840057
C 8.589169 5.931868 4.784299
C 8.605433 6.553884 5.593889
C 7.880779 5.751654 5.657238
C 0.103798 7.105787 4.870143
C 0.457260 7.819016 4.814639
C 0.416519 8.495915 5.625781
C 0.141035 7.307586 5.698105
C 0.967996 7.100560 4.760683
C 1.462030 7.572106 4.940212
C 1.610057 8.514416 5.697613
C 1.140107 7.690752 5.650409
C 1.950259 7.006136 4.798993
C 2.457909 7.981393 4.956206
C 2.318515 8.542625 5.696157
C 1.962264 7.424298 5.521431
C 3.075677 6.982168 5.024064
C 3.457778 7.747305 4.906056
C 3.535291 8.312622 5.618137
C 3.117485 7.474018 5.672919
C 4.159783 7.066036 4.867958
C 4.426311 7.636091 4.899797
C 4.371213 8.447026 5.654156
C 4.188513 7.393340 5.732003
C 5.001992 7.071802 4.912583
C 5.631248 7.568902 4.869833
C 5.477241 8.532842 5.706295
C 5.168672 7.598394 5.775538
C 6.059821 7.181742 4.954812
C 6.502677 7.865869 5.029245
C 6.576311 8.350310 5.436467
C 6.189198 7.549537 5.749256
C 6.804398 7.034968 4.965435
C 7.375414 7.905161 4.912175
C 7.406958 8.457768 5.730187
C 6.857990 7.540493 5.852510
C 8.032488 7.101499 5.001031
C 8.621707 7.838375 4.998319
C 8.580874 8.439333 5.711181
C 7.904680 7.521119 5.878136
C 0.151085 0.061455 6.596005
C 0.515703 1.003576 6.468600
C 0.359522 1.562449 7.312304
C 0.245655 0.678783 7.337089
C 1.059095 0.044152 6.285681
C 1.409035 0.945806 6.679247
C 1.425152 1.581244 7.441997
C 0.933257 0.416670 7.499193
C 1.860263 0.132390 6.548763
C 2.418769 0.793778 6.536923
C 2.483160 1.587962 7.261924
C 1.912079 0.546431 7.598620
C 3.142327 0.106801 6.346676
C 3.667604 0.877078 6.692541
C 3.410963 1.422266 7.196320
C 3.008312 0.400916 7.382510
C 4.032725 0.114639 6.676569
C 4.600907 0.703530 6.482100
C 4.539057 1.365166 7.506211
C 3.815064 0.670541 7.406636
C 5.099528 0.115137 6.396684
C 5.392826 0.692477 6.489790
C 5.594777 1.536543 7.218679
C 4.878182 0.484982 7.401197
C 5.912858 0.028292 6.409227
C 6.436469 0.769966 6.429782
C 6.536933 1.545415 7.236723
C 5.972689 0.580530 7.321051
C 6.945389 0.198168 6.609006
C 7.424362 0.906197 6.735789
C 7.375421 1.596304 7.458283
C 7.064354 0.678506 7.253364
C 7.854904 0.117077 6.457446
C 8.628948 0.907598 6.471399
C 8.550567 1.612261 7.518366
C 8.042634 0.599224 7.405690
C 0.205125 1.787633 6.484720
C 0.650448 2.616497 6.591665
C 0.395834 3.048468 7.347067
C 0.226884 2.360537 7.428798
C 0.996479 1.822976 6.486884
C 1.526636 2.562347 6.658684
C 1.673681 3.154952 7.412019
C 1.032058 2.460899 7.169287
C 2.110623 1.584941 6.485462
C 2.485359 2.710409 6.440613
C 2.521249 3.161230 7.325783
C 1.996079 2.316337 7.351573
C 3.097417 1.587696 6.493461
C 3.326888 2.497281 6.483996
C 3.649558 3.248899 7.385310
C 2.922009 2.409222 7.185138
C 3.970188 1.760379 6.446618
C 4.332962 2.573715 6.368383
C 4.544853 3.074500 7.460290
C 3.816598 2.291686 7.395370
C 4.794157 1.666938 6.635598
C 5.439123 2.576808 6.496315
C 5.581927 3.189885 7.468979
C 5.189549 2.291920 7.236469
C 6.082142 1.836670 6.538046
C 6.595804 2.593556 6.770535
C 6.365799 3.172980 7.542617
C 6.107652 2.082563 7.427235
C 7.136878 1.791365 6.518589
C 7.398900 2.375087 6.552272
C 7.448432 2.994759 7.280641
C 6.871950 2.437999 7.454840
C 7.803280 1.887667 6.573925
C 8.349660 2.656919 6.635440
C 8.558221 3.248959 7.471260
C 8.026107 2.139383 7.197119
C 0.119365 3.541272 6.561105
C 0.353417 4.376022 6.644475
C 0.449161 4.893687 7.148923
C 0.075890 4.218938 7.220772
C 0.995313 3.320279 6.578546
C 1.382386 4.245521 6.515444
C 1.502974 4.746350 7.230820
C 1.066737 4.104672 7.413302
C 1.995479 3.614273 6.424031
C 2.474578 4.422351 6.597800
C 2.411245 4.883215 7.485623
C 1.837605 4.039544 7.321316
C 2.878073 3.564608 6.540562
C 3.593227 4.473257 6.619487
C 3.383791 5.039217 7.405766
C 2.871903 3.992844 7.450812
C 4.020102 3.333063 6.407398
C 4.601726 4.332080 6.517458
C 4.469354 5.056880 7.300707
C 4.141882 3.932707 7.194278
C 4.962551 3.306675 6.676969
C 5.537134 4.309055 6.661699
C 5.496368 4.688277 7.339867
C 5.132847 3.995640 7.191475
C 5.821343 3.526129 6.507378
C 6.466058 4.493857 6.556764
C 6.261895 4.879701 7.473082
C 5.944591 4.082876 7.634540
C 7.012935 3.517334 6.651332
C 7.496439 4.347296 6.358080
C 7.558314 4.891918 7.310782
C 6.952616 4.048971 7.258841
C 8.046088 3.327179 6.413461
C 8.478894 4.451346 6.452932
C 8.327374 4.888194 7.282622
C 8.069419 4.122815 7.228273
C 0.131992 5.339802 6.456266
C 0.467833 6.144058 6.346736
C 0.459908 6.766717 7.508287
C 0.112535 5.792301 7.321609
C 1.055323 5.131399 6.326622
C 1.543105 6.271949 6.634219
C 1.493453 6.775244 7.297697
C 1.013328 5.794366 7.277481
C 2.055728 5.238118 6.440736
C 2.588240 6.085273 6.473095
C 2.411657 6.763527 7.333006
C 2.191057 5.793304 7.488076
C 2.964460 5.074584 6.562137
C 3.631872 6.111744 6.761647
C 3.513601 6.750390 7.388177
C 2.859324 5.822385 7.328279
C 3.939601 4.995197 6.533239
C 4.442029 5.899293 6.572497
C 4.473779 6.416686 7.388891
C 3.914094 5.936087 7.255325
C 4.949054 5.093613 6.528406
C 5.364116 6.003840 6.553010
C 5.352391 6.640636 7.457228
C 5.198239 5.763636 7.347725
C 5.881939 5.220126 6.390769
C 6.712739 6.019206 6.609421
C 6.426602 6.655084 7.209223
C 5.989410 5.786588 7.479156
C 6.848351 5.111187 6.531990
C 7.418195 5.983886 6.399701
C 7.434712 6.755882 7.178522
C 6.975687 5.908888 7.406293
C 7.968906 5.151657 6.456853
C 8.478161 6.021578 6.566348
C 8.390610 6.695166 7.232089
C 8.162763 5.759789 7.392787
C 0.183604 6.990768 6.473347
C 0.391201 7.820048 6.604307
C 0.569823 8.161668 7.273910
C 0.009650 7.478871 7.341678
C 1.169096 6.933939 6.499576
C 1.444865 7.566432 6.444234
C 1.703616 8.273208 7.328903
C 1.008930 7.542040 7.167989
C 1.862898 6.858052 6.585291
C 2.598632 7.726696 6.406951
C 2.620059 8.397341 7.527271
C 2.041748 7.718178 7.266888
C 2.921908 7.044357 6.451385
C 3.574163 7.781673 6.486139
C 3.680460 8.413812 7.315629
C 2.901293 7.441427 7.233531
C 4.148420 6.878970 6.463753
C 4.626576 7.671385 6.402041
C 4.494385 8.304723 7.492270
C 4.056801 7.297349 7.344114
C 4.993535 6.922562 6.453403
C 5.459235 7.599889 6.644026
C 5.397837 8.349801 7.297611
C 4.796543 7.397173 7.439716
C 5.809923 7.084997 6.470959
C 6.455041 7.895120 6.348392
C 6.422237 8.402730 7.326834
C 6.150651 7.400205 7.314523
C 6.983799 7.041654 6.626425
C 7.642212 7.812810 6.560476
C 7.576941 8.397469 7.530589
C 6.998237 7.606062 7.344254
C 8.044288 6.977102 6.814340
C 8.397224 7.661377 6.474710
C 8.499334 8.427534 7.261645
C 7.868079 7.476409 7.453212
C 0.102009 0.027489 8.262683
C 0.489676 0.931789 8.165781
C 0.455732 1.479120 8.945614
C 0.198389 0.402258 8.953992
C 1.056531 0.172379 8.158383
C 1.476823 0.878591 8.312134
C 1.457925 1.535465 8.941778
C 0.981656 0.718401 9.036669
C 2.033613 0.163717 7.953426
C 2.574022 0.797363 8.230100
C 2.512969 1.570847 9.118556
C 2.095916 0.740063 8.944565
C 2.799489 0.082042 8.164126
C 3.423652 0.822656 8.246185
C 3.592850 1.529538 8.934705
C 2.934376 0.489543 8.959029
C 3.812259 0.100653 8.103252
C 4.634024 1.088348 8.114820
C 4.539995 1.548631 8.841141
C 3.911021 0.785643 8.979561
C 5.095126 0.107785 8.271439
C 5.570764 0.870725 8.111708
C 5.641423 1.544676 8.977858
C 4.925025 0.481652 8.834499
C 5.936906 0.223122 8.212261
C 6.498793 0.692240 8.254655
C 6.589281 1.501098 8.859192
C 5.922474 0.526345 8.813639
C 6.896685 0.063489 8.241142
C 7.535120 0.862319 8.053214
C 7.564142 1.409845 8.784127
C 7.090774 0.420076 8.874611
C 7.785320 0.011458 8.275799
C 8.468657 0.755233 7.996079
C 8.460862 1.434347 9.050040
C 8.036696 0.441023 9.139531
C 0.022351 1.580251 8.130804
C 0.537109 2.546460 8.090428
C 0.435745 3.197667 9.079075
C 0.029738 2.149432 8.798705
C 0.897499 1.698763 7.951553
C 1.624475 2.575857 8.158840
C 1.615708 3.273838 9.044402
C 1.074695 2.456753 8.899688
C 1.966484 1.514074 8.262891
C 2.317448 2.482738 8.159447
C 2.555496 2.959563 8.990752
C 2.170212 2.450349 9.071178
C 3.031156 1.838046 8.236716
C 3.580510 2.742799 8.206765
C 3.546202 3.253144 8.932507
C 2.948996 2.456128 8.835965
C 3.875251 1.708484 8.213987
C 4.366456 2.759848 8.232036
C 4.493767 3.230561 8.874631
C 3.906645 2.441311 8.893014
C 4.924013 1.626066 8.032335
C 5.570198 2.788260 8.158970
C 5.564282 3.197911 8.870773
C 5.005562 2.404267 8.908112
C 6.124851 1.677678 8.213514
C 6.331400 2.510367 8.146569
C 6.464763 3.273077 9.083131
C 6.027602 2.519198 8.987231
C 7.083338 1.684318 8.022216
C 7.336396 2.690260 8.307155
C 7.582978 3.263217 9.089040
C 6.953852 2.331866 8.922971
C 7.861515 1.842592 8.227064
C 8.389180 2.467834 8.153938
C 8.442141 3.224852 8.830470
C 7.947838 2.441716 8.976543
C 0.029289 3.440865 8.270871
C 0.519201 4.540744 8.133788
C 0.514768 4.789456 8.993002
C 0.000154 3.872512 8.845193
C 0.865733 3.443988 8.200917
C 1.456174 4.228546 8.104300
C 1.458362 4.872773 9.106193
C 0.843283 4.054368 9.048654
C 1.954730 3.346176 8.234228
C 2.402000 4.363337 8.318537
C 2.565758 4.782142 8.984588
C 1.900512 3.980703 8.844871
C 2.981486 3.514614 8.082327
C 3.643259 4.251681 8.349855
C 3.480318 4.723739 8.943596
C 2.860589 4.184535 9.128738
C 3.928475 3.309311 8.098633
C 4.536210 4.351539 8.082459
C 4.589609 4.857639 9.100951
C 4.105939 4.010467 9.121364
C 5.041139 3.653641 8.314037
C 5.521682 4.465852 8.205398
C 5.428312 4.969327 9.097354
C 4.999227 3.875560 8.846429
C 6.160455 3.392646 8.218209
C 6.491888 4.286489 8.259318
C 6.398133 4.817701 8.900860
C 6.108241 3.968539 8.974370
C 6.931736 3.447072 8.173335
C 7.463270 4.163375 8.199668
C 7.482262 4.813095 8.966777
C 7.060520 3.909042 8.920284
C 7.971768 3.563975 7.980118
C 8.688554 4.235073 8.260317
C 8.409275 4.817714 8.934984
C 7.928049 3.903126 9.101392
C 0.055545 5.346563 8.343796
C 0.630275 6.215216 8.040015
C 0.445337 6.686390 9.053860
C 0.055734 5.876474 9.190312
C 1.003601 5.063204 8.292811
C 1.468840 5.871481 8.081173
C 1.538080 6.496137 8.931691
C 1.084446 5.730238 8.885562
C 2.176675 5.318809 8.180975
C 2.521515 6.186429 8.010732
C 2.657046 6.637998 8.912804
C 2.005986 5.624957 8.993007
C 3.212180 5.172905 8.061680
C 3.415362 6.237594 8.159177
C 3.640973 6.682465 8.886298
C 2.984715 5.891776 9.074777
C 4.026402 5.195657 8.022736
C 4.586484 6.111013 8.126102
C 4.398747 6.573985 8.960843
C 4.040158 5.585106 8.863666
C 5.066802 5.294069 8.247980
C 5.597244 5.965360 8.093172
C 5.529595 6.528136 8.845139
C 5.078787 6.034074 8.870224
C 5.898015 5.048395 8.243558
C 6.420941 5.971093 8.160774
C 6.426784 6.709871 9.109632
C 5.892192 5.611428 8.933984
C 6.959633 5.309881 8.311936
C 7.358316 5.965716 8.203943
C 7.480501 6.470931 9.016708
C 6.840308 5.788606 9.034843
C 7.947251 5.262600 8.116887
C 8.454290 5.999101 8.370177
C 8.614537 6.778904 8.939173
C 7.918255 5.726581 9.160925
C 0.012395 6.955360 8.195152
C 0.549193 7.709070 8.144377
C 0.399997 8.444283 9.151324
C 0.019113 7.613882 8.898686
C 1.136934 6.828862 8.052688
C 1.534947 7.912987 8.047782
C 1.350050 8.293742 8.803479
C 0.850057 7.422608 8.948405
C 1.890498 6.799966 8.181102
C 2.500685 7.631665 8.150495
C 2.705455 8.473618 9.119232
C 1.938737 7.671285 8.982544
C 3.067000 6.918780 8.022582
C 3.354311 7.668808 8.086787
C 3.629204 8.238900 8.937719
C 2.965260 7.681342 9.014356
C 4.094835 7.016694 8.301687
C 4.588944 7.739054 8.199792
C 4.395696 8.450320 9.015654
C 3.888258 7.684914 8.908138
C 4.987624 6.859327 8.291017
C 5.543896 7.945494 8.127502
C 5.522240 8.246625 9.039879
C 4.854208 7.582961 9.039579
C 6.077775 6.804939 8.038374
C 6.638023 7.817329 8.179826
C 6.617982 8.198520 8.941606
C 5.920236 7.355443 8.915087
C 6.900334 6.803235 8.069528
C 7.492154 7.959765 8.072865
C 7.478833 8.334271 8.806310
C 6.912943 7.577787 9.091613
C 8.119903 6.914805 8.172862
C 8.306186 7.769173 8.180228
C 8.630415 8.336354 9.108077
C 7.988489 7.614712 9.060205
C 0.100595 0.193974 0.670719
C 0.410297 0.780762 0.707972
C 0.464549 1.469868 1.339826
C 0.068959 0.468557 1.233980
C 1.007604 0.007116 0.786703
C 1.517631 0.856235 0.516393
C 1.549109 1.443185 1.315416
C 0.936492 0.438774 1.399083
C 2.017401 0.004555 0.499492
C 2.535858 1.033600 0.726928
C 2.608773 1.390138 1.506649
C 2.177110 0.515473 1.467293
C 3.034044 0.019375 0.421006
C 3.492956 0.968679 0.637204
C 3.491750 1.516926 1.383955
C 3.135463 0.598627 1.310079
C 4.066975 0.006347 0.553510
C 4.401563 0.859461 0.716721
C 4.362921 1.544181 1.469673
C 4.007934 0.509057 1.364308
C 5.022603 0.016893 0.758735
C 5.396793 0.966538 0.716634
C 5.496019 1.527670 1.433075
C 4.947453 0.529901 1.305953
C 6.151363 0.103620 0.476445
C 6.463427 0.757328 0.458681
C 6.576120 1.571479 1.364579
C 6.197537 0.611092 1.553189
C 6.958771 0.161356 0.512825
C 7.375126 0.874241 0.686363
C 7.483950 1.370859 1.258421
C 6.861738 0.600962 1.429535
C 8.092550 0.084294 0.802852
C 8.452276 0.890577 0.473707
C 8.373891 1.332078 1.459391
C 8.010831 0.761119 1.555155
C 0.043435 1.634490 0.831951
C 0.407439 2.502856 0.616114
C 0.493887 3.141281 1.524339
C 0.029730 2.383970 1.566914
C 0.982209 1.656667 0.562093
C 1.398118 2.519178 0.694627
C 1.602260 3.368227 1.307804
C 0.895291 2.215217 1.411126
C 2.048543 1.538137 0.616067
C 2.351182 2.526030 0.486297
C 2.569030 3.136588 1.432587
C 1.972570 2.352609 1.253147
C 3.065504 1.678256 0.707851
C 3.606193 2.656034 0.513708
C 3.385754 3.072575 1.499953
C 2.803815 2.237830 1.589487
C 4.005621 1.654903 0.595098
C 4.432246 2.520589 0.567855
C 4.463597 3.021474 1.393596
C 4.166237 2.341700 1.617991
C 4.846171 1.778805 0.488844
C 5.384445 2.543232 0.741364
C 5.427662 3.121650 1.606275
C 5.000187 2.275324 1.399805
C 6.130889 1.742360 0.645899
C 6.376333 2.470652 0.586625
C 6.539131 3.178188 1.464809
C 5.918326 2.136689 1.435624
C 7.027565 1.491366 0.627821
C 7.340349 2.558476 0.610138
C 7.528551 3.129070 1.488054
C 7.035778 2.488155 1.427544
C 8.125796 1.714841 0.462997
C 8.589163 2.645409 0.492074
C 8.559073 3.012938 1.337829
C 8.182970 2.238961 1.452285
C 0.181216 3.392629 0.685073
C 0.456408 4.494804 0.740286
C 0.501688 4.756431 1.218562
C 0.000580 3.963500 1.527895
C 1.016813 3.284167 0.632064
C 1.458850 4.409695 0.770559
C 1.570641 4.804174 1.436337
C 0.802494 4.021150 1.437693
C 1.941843 3.307487 0.560024
C 2.539730 4.125741 0.608263
C 2.529815 4.968504 1.501516
C 2.130446 4.111557 1.312706
C 3.187191 3.352656 0.676616
C 3.319651 4.405275 0.588779
C 3.514889 4.990795 1.699485
C 2.999280 4.075740 1.195683
C 3.996312 3.394233 0.564559
C 4.336882 4.235217 0.667549
C 4.352636 4.826856 1.382958
C 4.036778 4.042527 1.363176
C 5.028090 3.555306 0.446346
C 5.593897 4.479620 0.758878
C 5.705321 4.951370 1.311741
C 5.081532 4.141562 1.478907
C 6.108094 3.478722 0.616455
C 6.416374 4.222538 0.550376
C 6.347132 4.858203 1.495355
C 5.872295 3.909008 1.411324
C 7.036316 3.545710 0.620747
C 7.630349 4.281919 0.571285
C 7.405844 4.822007 1.507404
C 6.939190 3.991965 1.442151
C 8.197845 3.377927 0.738326
C 8.431692 4.314976 0.419127
C 8.483881 5.071435 1.566739
C 8.064082 3.972528 1.428443
C 0.013698 5.333464 0.751685
C 0.493401 6.040085 0.663973
C 0.448701 6.797609 1.410334
C 0.078983 5.699021 1.263203
C 0.869573 5.414358 0.661212
C 1.615020 6.061324 0.481224
C 1.507865 6.563562 1.326163
C 0.990122 5.744623 1.356816
C 1.928116 5.090413 0.728941
C 2.477970 6.102914 0.586544
C 2.535951 6.771506 1.285515
C 1.873946 5.895125 1.428985
C 3.031189 5.233943 0.570803
C 3.431227 6.083321 0.536596
C 3.448645 6.698513 1.475092
C 3.020492 5.812698 1.455904
C 3.823715 5.150320 0.659924
C 4.329897 5.977755 0.713424
C 4.448079 6.623845 1.204305
C 3.921297 5.725554 1.297505
C 4.958983 5.037140 0.557642
C 5.501075 5.930388 0.776761
C 5.570582 6.697518 1.646362
C 5.053356 5.912857 1.564277
C 5.922557 5.320891 0.430472
C 6.575809 6.107243 0.565819
C 6.465446 6.777481 1.243679
C 6.116571 5.684280 1.482680
C 6.824249 5.246424 0.721258
C 7.382860 5.984739 0.684140
C 7.526321 6.593597 1.503266
C 7.054271 5.787846 1.433167
C 8.013499 5.106236 0.722537
C 8.471488 5.921806 0.605210
C 8.431839 6.663701 1.603587
C 8.050581 5.854977 1.546780
C 0.139060 6.948610 0.566728
C 0.362059 7.802336 0.757943
C 0.638763 8.396825 1.474942
C 0.097586 7.370207 1.359684
C 1.023243 6.866586 0.737124
C 1.598407 7.865916 0.724452
C 1.394383 8.484923 1.368265
C 1.073901 7.480475 1.486258
C 1.945672 6.881274 0.778835
C 2.503419 7.773673 0.627289
C 2.481751 8.427618 1.580247
C 2.116983 7.504048 1.545761
C 2.932202 6.931482 0.572482
C 3.372336 7.733772 0.424074
C 3.531066 8.426949 1.536279
C 3.058610 7.468991 1.557685
C 4.009727 6.758638 0.802868
C 4.666984 7.831032 0.605898
C 4.411248 8.320705 1.445383
C 4.109168 7.332356 1.478134
C 4.953755 7.180250 0.526016
C 5.353699 7.847802 0.566870
C 5.375100 8.397594 1.382214
C 5.203115 7.574853 1.349999
C 5.996518 6.879108 0.397056
C 6.605677 7.915058 0.644477
C 6.327829 8.409254 1.468178
C 5.946866 7.638682 1.453347
C 6.915201 6.920005 0.622275
C 7.599583 7.854697 0.425630
C 7.608307 8.509387 1.478702
C 6.877237 7.657520 1.310101
C 8.072448 6.935074 0.662170
C 8.471676 7.796788 0.577351
C 8.485443 8.430872 1.245669
C 7.909833 7.429128 1.520489
C 0.341629 0.161951 2.119520
C 0.486703 0.886377 2.322488
C 0.479284 1.560785 3.233288
C 0.122376 0.586259 3.222912
C 0.821323 0.159942 2.301148
C 1.385171 0.882848 2.202970
C 1.503944 1.402994 3.097945
C 0.956717 0.558930 3.063093
C 2.006522 0.072447 2.057121
C 2.560601 0.846767 2.221716
C 2.596211 1.380090 2.974894
C 1.901028 0.460605 3.083363
C 2.827750 0.012037 2.277043
C 3.618196 1.050338 2.222716
C 3.451381 1.473828 3.009811
C 2.814928 0.534503 3.171988
C 4.251147 0.073607 2.215207
C 4.525472 0.978584 2.290528
C 4.544382 1.440086 2.920194
C 4.116174 0.627426 3.089698
C 4.851657 0.012747 2.304792
C 5.328080 0.888145 2.377014
C 5.472394 1.318546 3.178354
C 5.061667 0.510439 2.890010
C 5.969405 0.156014 2.327877
C 6.321038 0.918738 2.200228
C 6.486676 1.318037 3.040693
C 6.088432 0.624854 3.156425
C 6.915954 0.007558 2.089202
C 7.532602 0.783062 2.397101
C 7.510128 1.520377 3.026654
C 6.821655 0.616191 3.029445
C 7.954861 0.064072 2.031750
C 8.634371 0.720414 2.253310
C 8.526230 1.473842 3.133623
C 7.881247 0.725235 3.063782
C 0.028827 1.845399 2.113159
C 0.629226 2.722866 2.351439
C 0.703534 3.091477 2.964672
C 0.082812 2.224459 3.070914
C 0.893583 1.645703 2.107219
C 1.703872 2.624752 2.163963
C 1.322138 3.313262 2.954021
C 1.035869 2.232997 3.112383
C 1.921083 1.617157 2.323324
C 2.565573 2.433880 2.364574
C 2.646549 3.297923 3.062685
C 1.970285 2.300087 2.950358
C 2.884929 1.655399 2.222936
C 3.512173 2.671898 2.081001
C 3.598958 3.006373 3.112008
C 3.153080 2.420861 3.107767
C 3.878868 1.723738 2.185003
C 4.532085 2.677686 2.262144
C 4.566976 3.228247 3.091894
C 3.899617 2.187609 2.866753
C 5.028965 1.704982 2.351813
C 5.532700 2.737997 2.244930
C 5.704164 3.223724 3.116628
C 5.001356 2.072179 3.013278
C 6.137293 1.692004 2.232141
C 6.474200 2.558744 2.118970
C 6.713390 3.205944 3.124568
C 5.971704 2.471944 2.916604
C 7.053551 1.706650 2.454536
C 7.548715 2.690869 2.206386
C 7.578112 3.358809 3.104252
C 6.838068 2.298867 2.957492
C 7.952776 1.687886 2.282367
C 8.498914 2.696838 2.069454
C 8.593632 3.216669 3.045685
C 7.807077 2.365891 3.153181
C 0.170537 3.685340 2.162933
C 0.607555 4.416042 2.175957
C 0.533708 4.734579 3.102306
C 0.149740 4.052714 3.201292
C 1.113910 3.508183 2.192147
C 1.413107 4.466878 2.119870
C 1.569882 4.746857 3.112534
C 0.906709 3.907969 3.014002
C 1.965020 3.493027 2.250693
C 2.487894 4.257831 2.339389
C 2.556718 5.041986 3.127055
C 2.073904 3.967207 3.041170
C 3.009953 3.517486 2.424347
C 3.339182 4.294433 2.182492
C 3.442573 4.852637 2.842178
C 3.092024 3.813996 3.122204
C 4.198568 3.329629 2.272598
C 4.651079 4.311025 2.206985
C 4.346618 4.750088 3.008081
C 4.061095 4.132666 3.095676
C 5.109660 3.566861 2.326667
C 5.615494 4.456937 2.246576
C 5.601151 5.000334 3.201363
C 4.855609 4.069414 3.013352
C 5.917496 3.470522 2.431115
C 6.494728 4.394674 2.179999
C 6.555575 4.667424 3.111812
C 6.160645 3.996747 2.948528
C 6.892129 3.372117 2.138020
C 7.360840 4.325203 2.146879
C 7.407546 4.918344 2.993985
C 6.879994 4.150759 3.162628
C 7.930368 3.636135 2.223249
C 8.376612 4.294636 2.282590
C 8.695767 4.937241 3.103153
C 7.989067 4.224050 3.217048
C 0.110420 5.393735 2.248086
C 0.537763 5.983764 2.268980
C 0.393656 6.729341 3.175438
C 0.204969 5.763685 3.295453
C 0.944646 5.297031 2.316518
C 1.328912 6.177185 2.351210
C 1.445962 6.677703 3.285710
C 1.025884 5.811222 3.275451
C 2.096069 5.242162 2.202341
C 2.474332 6.249779 2.297534
C 2.449356 6.573800 3.207359
C 1.866105 5.600093 3.025103
C 2.956056 5.258443 2.185153
C 3.680837 5.951559 2.263417
C 3.444103 6.653940 3.240503
C 3.058628 5.637301 3.196296
C 3.896563 5.021465 2.372438
C 4.445012 5.967840 2.381333
C 4.432751 6.697648 3.147777
C 4.034551 5.837155 2.940724
C 4.792962 5.116795 2.243541
C 5.426352 5.906992 2.345869
C 5.606754 6.545892 3.054688
C 4.918622 5.602692 2.977083
C 5.999982 5.195822 2.458375
C 6.305816 6.067765 2.254517
C 6.596207 6.558910 2.861888
C 5.957653 5.796075 2.884231
C 6.936012 5.390379 2.298899
C 7.485674 6.170003 2.293282
C 7.544548 6.588757 2.954002
C 7.179522 5.787397 3.033437
C 7.946502 5.146104 2.291097
C 8.510057 6.119654 2.136402
C 8.676098 6.562596 2.953736
C 7.932106 5.634828 3.122113
C 0.247424 6.895256 2.366946
C 0.552520 7.891428 2.293520
C 0.591324 8.241719 3.171476
C 0.013025 7.329223 3.131538
C 1.087436 6.843882 2.373080
C 1.383596 7.750115 2.271989
C 1.530266 8.318897 3.074814
C 0.960509 7.305526 3.126216
C 1.963348 6.763971 2.231584
C 2.402734 7.701514 2.340025
C 2.381781 8.270365 2.915942
C 2.048689 7.466527 3.229662
C 2.911466 6.964621 2.193198
C 3.476221 7.822924 2.227803
C 3.512186 8.597420 2.979405
C 2.985888 7.543188 3.198749
C 3.987245 6.832175 2.491440
C 4.495657 7.837283 2.182973
C 4.386561 8.391453 3.186670
C 3.966979 7.462096 3.005957
C 4.886554 6.954327 2.193731
C 5.320441 7.689912 2.344424
C 5.462378 8.489048 3.200595
C 4.895275 7.311041 2.996435
C 5.793077 6.879923 2.216030
C 6.363437 7.845647 2.319038
C 6.438475 8.357005 2.941827
C 6.029078 7.412642 3.288838
C 6.852645 6.901217 2.206172
C 7.413697 7.657486 2.391034
C 7.440134 8.380433 3.256356
C 7.167618 7.590842 3.118231
C 8.191530 6.815654 2.238754
C 8.399141 7.759121 2.389245
C 8.541554 8.483529 2.900042
C 8.159803 7.640050 3.107939
C 0.059061 0.053977 3.682048
C 0.575029 0.709629 3.749175
C 0.415632 1.429685 4.720892
C 0.028657 0.668131 4.761324
C 1.044018 0.133600 3.616729
C 1.349852 0.821050 3.785362
C 1.538733 1.652511 4.629230
C 0.890846 0.625894 4.852732
C 1.926052 0.017177 3.993754
C 2.523980 0.785952 3.873420
C 2.427574 1.431802 4.716471
C 2.177607 0.546519 4.746229
C 3.216627 0.019654 3.976528
C 3.360148 1.000156 3.999192
C 3.424052 1.380982 4.631197
C 2.896989 0.625914 4.523368
C 4.022425 0.206204 3.752948
C 4.661899 0.867913 3.728785
C 4.613742 1.330209 4.748136
C 4.006537 0.562011 4.608996
C 5.053635 0.091286 3.859850
C 5.553551 0.742910 3.817334
C 5.620640 1.423037 4.592872
C 5.173731 0.653742 4.668363
C 6.021844 0.095901 3.781162
C 6.369298 0.889952 3.945993
C 6.410516 1.313444 4.514354
C 5.913605 0.472264 4.723327
C 7.014048 0.023280 3.897972
C 7.449136 0.851155 3.759146
C 7.538838 1.376157 4.821256
C 6.918008 0.677843 4.651125
C 7.963669 0.065777 3.888339
C 8.587880 0.849873 3.868532
C 8.534182 1.332615 4.543613
C 7.804833 0.641597 4.853330
C 0.032330 1.715360 3.669552
C 0.431479 2.423794 3.901078
C 0.568058 3.206174 4.819439
C 0.071444 2.281363 4.843514
C 0.845656 1.765658 3.706349
C 1.688985 2.661477 3.914253
C 1.438485 3.312162 4.863923
C 0.961840 2.205837 4.700842
C 2.140342 1.698839 3.973469
C 2.491069 2.653349 3.999411
C 2.571960 3.177309 4.804185
C 1.940038 2.225635 4.603739
C 3.086632 1.833661 4.069874
C 3.401907 2.697975 3.819635
C 3.429783 3.165217 4.647120
C 2.841139 2.334849 4.806723
C 3.842235 1.651553 3.742112
C 4.624389 2.469768 3.856476
C 4.583959 3.382932 4.720089
C 4.020912 2.295887 4.756287
C 4.947463 1.650834 3.897654
C 5.616706 2.532541 3.885224
C 5.546826 3.174110 4.602234
C 4.932601 2.397831 4.645122
C 6.027107 1.930321 3.820661
C 6.605128 2.469440 3.941857
C 6.541069 3.210735 4.710868
C 5.977268 2.332903 4.829012
C 6.878428 1.843892 4.040749
C 7.361091 2.620495 3.847891
C 7.380083 3.116824 4.515176
C 7.033143 2.189785 4.721330
C 7.991895 1.830296 3.795607
C 8.551714 2.426846 3.878331
C 8.467937 3.156119 4.710065
C 8.077715 2.277743 4.760820
C 0.005944 3.563501 4.071601
C 0.665862 4.281504 3.992308
C 0.361627 4.727920 4.572156
C 0.065312 4.019188 4.746274
C 0.938217 3.527906 3.754178
C 1.385146 4.410554 3.767896
C 1.523556 4.762802 4.649278
C 1.009745 3.917129 4.522207
C 2.012115 3.537104 3.882344
C 2.668613 4.395439 3.870999
C 2.396773 4.821038 4.513580
C 1.857388 3.984120 4.629445
C 3.094126 3.616159 3.910418
C 3.395771 4.465899 3.762221
C 3.671403 5.067690 4.786682
C 3.060172 3.857836 4.756414
C 4.008418 3.467581 4.076427
C 4.620526 4.174719 3.901367
C 4.484714 5.043462 4.738427
C 4.075485 4.067424 4.843635
C 4.962302 3.383625 3.863899
C 5.471783 4.249778 3.885327
C 5.569184 4.802605 4.650451
C 4.983481 3.884913 4.737334
C 5.799956 3.461180 4.027867
C 6.376491 4.242573 3.794848
C 6.597080 4.923657 4.565259
C 6.039658 4.155384 4.669773
C 7.125320 3.502701 3.955724
C 7.407249 4.442217 3.865157
C 7.545193 4.959213 4.467244
C 6.926346 3.938988 4.816501
C 7.817248 3.499749 3.859937
C 8.377156 4.515654 3.912333
C 8.410356 4.786137 4.691569
C 7.818242 4.056298 4.658148
C 0.031848 5.219850 3.855840
C 0.485334 5.968107 3.748350
C 0.531272 6.763522 4.716272
C 0.236924 5.669446 4.689641
C 1.019095 5.310534 3.955392
C 1.362883 6.149108 3.982804
C 1.616884 6.832240 4.609618
C 0.960825 5.749351 4.727241
C 2.009233 5.249644 3.915311
C 2.391724 6.135428 3.954621
C 2.531288 6.811784 4.690008
C 1.950984 5.919864 4.639130
C 2.829719 5.235079 3.794600
C 3.440714 6.183777 3.838892
C 3.432034 6.546674 4.661455
C 3.152164 5.939072 4.730970
C 3.898182 5.196570 3.737624
C 4.508451 6.211424 3.849565
C 4.367588 6.693756 4.730946
C 3.930474 5.765220 4.600742
C 5.052133 5.070888 4.012221
C 5.581758 6.126289 3.927412
C 5.498656 6.602301 4.506709
C 4.855503 5.884893 4.778786
C 5.918208 5.346747 3.906682
C 6.520472 5.922407 3.888482
C 6.410017 6.746369 4.601662
C 6.019457 5.779630 4.934844
C 6.989209 5.347413 3.835908
C 7.409700 6.027009 3.993149
C 7.360475 6.756472 4.734819
C 7.037404 5.899882 4.642271
C 7.921838 5.234941 3.764014
C 8.542320 5.993017 4.033198
C 8.350915 6.634346 4.682539
C 7.800403 5.605298 4.613480
C 0.066157 6.985378 3.995370
C 0.537374 7.615122 3.824176
C 0.452593 8.375978 4.774177
C 0.000707 7.576824 4.755594
C 1.010639 6.905621 3.823994
C 1.479839 7.849371 3.754653
C 1.293050 8.413332 4.649245
C 0.857080 7.661637 4.765774
C 1.867093 6.901884 3.945322
C 2.486658 7.638711 3.757419
C 2.493651 8.521780 4.792540
C 2.029349 7.455295 4.732171
C 2.958287 6.884579 3.929243
C 3.471781 7.688059 3.683164
C 3.473315 8.214835 4.556474
C 2.782589 7.444766 4.654908
C 3.937967 6.788989 3.864231
C 4.318250 7.825850 3.879190
C 4.567456 8.328806 4.559684
C 4.064965 7.484727 4.693754
C 4.991566 6.849776 3.896816
C 5.328465 7.870592 3.835011
C 5.486557 8.281570 4.667648
C 4.816365 7.421955 4.739419
C 5.963480 7.068843 3.771364
C 6.345617 7.784650 3.941247
C 6.407547 8.275171 4.542025
C 5.914358 7.703774 4.620587
C 6.944357 6.911398 3.786936
C 7.442308 7.985737 3.800433
C 7.498150 8.501479 4.599706
C 7.072369 7.609580 4.850915
C 8.126349 6.991764 3.778662
C 8.671673 7.723591 3.873241
C 8.442633 8.241672 4.520594
C 7.976799 7.526031 4.828765
C 0.059822 0.235710 5.643443
C 0.373110 0.874969 5.416663
C 0.459006 1.424971 6.147511
C 0.062426 0.728370 6.244993
C 1.035891 0.157486 5.592609
C 1.540150 0.788852 5.538108
C 1.445978 1.442696 6.188064
C 1.036252 0.589609 6.286381
C 1.963415 0.182896 5.653485
C 2.457073 0.869104 5.624225
C 2.483053 1.394301 6.460766
C 1.919383 0.589771 6.122447
C 3.127376 0.138538 5.327362
C 3.517207 0.842231 5.663758
C 3.688774 1.432709 6.230629
C 2.939753 0.575422 6.224336
C 4.019649 0.019501 5.635287
C 4.564521 0.821189 5.508611
C 4.441759 1.639429 6.314236
C 3.809814 0.673499 6.325576
C 5.192085 0.025048 5.655286
C 5.332307 0.774840 5.562342
C 5.492056 1.544942 6.290001
C 5.025433 0.720489 6.303415
C 6.153289 0.038019 5.500947
C 6.539989 0.718905 5.556316
C 6.428556 1.343907 6.283969
C 6.034755 0.577369 6.177632
C 7.032272 0.117828 5.509005
C 7.415599 0.819437 5.648523
C 7.486006 1.563219 6.368142
C 7.045293 0.534103 6.093223
C 8.092582 0.058537 5.378113
C 8.532157 0.869082 5.556179
C 8.764469 1.416945 6.367874
C 8.141401 0.429305 6.240682
C 0.030436 1.723024 5.339265
C 0.396813 2.554989 5.632863
C 0.498623 3.366329 6.442756
C 0.051840 2.125423 6.184905
C 0.900364 1.655596 5.413464
C 1.371118 2.705684 5.422180
C 1.438502 3.211595 6.482114
C 1.205401 2.371257 6.445356
C 1.953398 1.777104 5.669706
C 2.493172 2.561008 5.572469
C 2.680920 3.356522 6.249357
C 1.830566 2.350120 6.456574
C 2.860263 1.709586 5.496620
C 3.245852 2.574035 5.483253
C 3.463649 3.387910 6.391065
C 3.097681 2.136707 6.267849
C 4.053438 1.593414 5.375071
C 4.656323 2.672206 5.572694
C 4.501033 3.178624 6.530506
C 3.940245 2.281793 6.366799
C 5.000728 1.598480 5.477926
C 5.256871 2.636198 5.614486
C 5.383369 3.271110 6.375361
C 4.864542 2.316039 6.426773
C 5.966151 1.893983 5.363499
C 6.371728 2.741425 5.415130
C 6.524423 2.950908 6.321000
C 6.107219 2.351518 6.461283
C 6.912587 1.785397 5.542004
C 7.444624 2.597788 5.459233
C 7.431127 3.168849 6.136096
C 6.898423 2.449029 6.209004
C 8.016977 1.821224 5.522657
C 8.615742 2.569605 5.596841
C 8.544274 3.282319 6.336718
C 8.010156 2.173110 6.394028
C 0.199521 3.475472 5.433485
C 0.345909 4.304093 5.486898
C 0.430194 4.842378 6.139370
C 0.002600 4.156835 6.396724
C 1.134183 3.337753 5.417921
C 1.479040 4.386633 5.422698
C 1.450710 4.902843 6.230190
C 0.941795 3.984639 6.476398
C 1.797639 3.573653 5.442434
C 2.600227 4.285838 5.527542
C 2.546528 4.977310 6.405243
C 1.908314 4.139579 6.334285
C 3.133227 3.490140 5.576446
C 3.487179 4.368551 5.712095
C 3.413017 5.054536 6.352038
C 2.919009 4.264123 6.240055
C 4.047222 3.562722 5.400455
C 4.439876 4.183374 5.374655
C 4.419898 4.904010 6.315818
C 3.945020 4.038371 6.224951
C 5.063773 3.311169 5.544920
C 5.470377 4.198915 5.676408
C 5.559397 4.921624 6.312442
C 4.921973 4.090919 6.353456
C 6.023787 3.610425 5.414682
C 6.508427 4.191527 5.562799
C 6.245665 4.907670 6.467874
C 6.037387 4.048989 6.209717
C 7.059395 3.517079 5.366684
C 7.636935 4.517173 5.505580
C 7.554960 5.013754 6.336796
C 7.054566 3.873032 6.339517
C 7.871049 3.433353 5.695468
C 8.355807 4.264721 5.599731
C 8.697525 4.850164 6.289852
C 7.998560 3.911294 6.220501
C 0.037376 5.172715 5.608870
C 0.465765 6.125898 5.674891
C 0.443728 6.493714 6.517863
C 0.059989 5.829309 6.301521
C 0.893715 5.207190 5.710999
C 1.487278 6.207268 5.545990
C 1.669078 6.621962 6.255972
C 0.818825 5.641786 6.356360
C 2.093804 5.024689 5.494887
C 2.411418 6.056121 5.682435
C 2.498380 6.741381 6.353661
C 2.099983 5.790229 6.349109
C 2.927180 5.217739 5.495485
C 3.634173 6.092717 5.646311
C 3.501414 6.639034 6.153248
C 3.070506 5.901376 6.331869
C 4.085045 5.079253 5.472394
C 4.490302 6.019121 5.714165
C 4.565045 6.798703 6.515412
C 4.139204 5.659786 6.368148
C 5.073947 5.384087 5.525486
C 5.615113 5.963110 5.547023
C 5.563564 6.433144 6.349952
C 4.916383 5.578244 6.428411
C 5.938132 5.257618 5.389318
C 6.540515 5.963881 5.455876
C 6.568083 6.511575 6.365274
C 5.950133 5.694373 6.229723
C 7.134978 5.201079 5.398969
C 7.559398 6.091148 5.496691
C 7.382626 6.755557 6.241062
C 6.939255 5.599038 6.431921
C 7.890412 5.284605 5.508526
C 8.443762 6.201275 5.652786
C 8.457852 6.732508 6.412797
C 7.946410 5.720244 6.280251
C 0.150012 6.816589 5.627435
C 0.433152 7.657156 5.345567
C 0.453967 8.452021 6.121760
C 0.008008 7.669802 6.332679
C 1.101995 6.944426 5.354569
C 1.539290 7.653003 5.481435
C 1.379952 8.300859 6.182283
C 0.901557 7.520758 6.518505
C 2.015101 6.772188 5.530110
C 2.579791 7.818585 5.469405
C 2.393408 8.476752 6.272380
C 2.046888 7.605728 6.170642
C 3.048574 6.736052 5.543903
C 3.602813 7.838630 5.448298
C 3.521384 8.389991 6.148818
C 2.953600 7.516596 6.116528
C 4.012529 7.059865 5.363364
C 4.472139 7.906189 5.700356
C 4.445915 8.381373 6.132317
C 3.922880 7.514625 6.476180
C 4.801135 6.963466 5.572421
C 5.472346 7.898055 5.516053
C 5.696459 8.207948 6.333922
C 5.083407 7.330558 6.338255
C 5.882479 6.897236 5.570914
C 6.491501 7.925615 5.483815
C 6.521635 8.356562 6.105396
C 6.153904 7.595520 6.230599
C 7.091176 6.968219 5.378393
C 7.563665 8.005558 5.544524
C 7.498287 8.284203 6.208444
C 7.055850 7.438636 6.245343
C 8.009134 7.151107 5.429336
C 8.380966 7.826792 5.467646
C 8.382678 8.467766 6.169708
C 7.922926 7.317447 6.323518
C 0.105351 0.059684 7.274228
C 0.475040 1.022684 7.339889
C 0.444680 1.534748 7.850287
C 0.174968 0.576493 8.033733
C 1.015294 0.149633 7.192821
C 1.547165 1.022340 7.254668
C 1.442601 1.588573 8.124361
C 0.968866 0.531148 7.917438
C 2.115991 0.175870 6.933564
C 2.602755 0.666294 7.110115
C 2.244595 1.450572 7.970737
C 1.844679 0.659146 8.053253
C 3.096036 0.142939 7.087158
C 3.507316 0.824300 7.101804
C 3.496560 1.566477 7.998283
C 3.065754 0.585181 8.185534
C 4.084792 0.210009 7.316249
C 4.452290 0.763155 7.241857
C 4.359339 1.444359 8.197841
C 3.998886 0.570792 7.910763
C 4.827920 0.015401 7.201382
C 5.467224 1.022310 7.103592
C 5.453277 1.478399 7.852108
C 5.069017 0.511166 7.989884
C 5.948339 0.127424 7.156955
C 6.461841 0.712001 7.192126
C 6.637630 1.563133 7.951834
C 6.062936 0.709260 7.978479
C 7.017174 0.008595 7.072974
C 7.664963 0.897559 7.207258
C 7.553153 1.431959 7.803056
C 7.080228 0.684251 7.923702
C 8.116975 0.062878 7.300751
C 8.424323 0.777497 7.221466
C 8.341602 1.471092 8.023663
C 8.126130 0.445698 7.975363
C 0.084127 1.937268 7.157293
C 0.429201 2.476940 7.079480
C 0.391766 3.257961 7.812599
C 0.034715 2.231724 8.002408
C 1.041102 1.650711 7.059391
C 1.504638 2.722517 7.272223
C 1.480720 2.996962 7.823785
C 0.983121 2.236046 7.830265
C 1.902911 1.783902 7.232985
C 2.386127 2.704038 6.947729
C 2.438278 3.098226 7.783953
C 1.919753 2.296238 7.815832
C 2.981238 1.576889 7.188773
C 3.392548 2.662159 7.098996
C 3.504094 3.295945 7.882216
C 3.037569 2.323381 7.885955
C 3.859154 1.649770 7.097372
C 4.637452 2.569585 7.289127
C 4.405730 2.994579 7.889430
C 4.009160 2.424561 7.908619
C 4.919457 1.846838 7.065122
C 5.699019 2.592578 7.285709
C 5.472458 3.323758 7.881102
C 5.023881 2.226546 8.177791
C 6.145774 1.694586 7.229196
C 6.416135 2.589135 7.166573
C 6.528799 3.054462 7.983850
C 6.027047 2.172058 8.014246
C 7.067855 1.598982 7.212115
C 7.524706 2.455225 7.102595
C 7.413518 3.133565 7.834648
C 6.929175 2.228190 8.095199
C 8.102115 1.661173 7.232330
C 8.507807 2.750247 7.121168
C 8.433629 3.150561 7.963992
C 7.991651 2.222358 7.979529
C 0.096335 3.520238 7.374183
C 0.447224 4.182214 7.035481
C 0.403387 4.932708 7.855576
C 0.191458 4.185615 8.049632
C 0.948653 3.455039 7.041931
C 1.703324 4.407303 7.126786
C 1.582061 5.049045 8.039487
C 0.917698 4.070770 7.855710
C 1.943936 3.403150 7.007944
C 2.568597 4.215157 7.093089
C 2.604186 4.887954 7.839035
C 1.992319 3.986827 7.803688
C 2.877189 3.381000 7.138926
C 3.427176 4.329756 7.101475
C 3.532300 4.935296 7.769260
C 3.055580 4.088511 7.811387
C 4.131987 3.411113 7.284032
C 4.591362 4.177128 7.148484
C 4.632204 4.963747 7.928032
C 3.931494 3.848951 8.039063
C 5.137291 3.528379 7.053993
C 5.499254 4.207813 7.328550
C 5.544040 5.096779 8.007267
C 5.050992 3.984424 8.065411
C 6.158257 3.370282 7.133708
C 6.572144 4.509096 7.233485
C 6.638766 4.857527 7.930303
C 6.161017 3.973785 8.028648
C 7.017869 3.283915 7.100423
C 7.561593 4.387407 7.340854
C 7.606522 4.935751 7.982291
C 6.857855 4.093746 7.925812
C 7.890243 3.503160 7.146317
C 8.514961 4.476177 7.203493
C 8.434563 4.808901 7.973505
C 7.859113 4.136452 8.055783
C 0.053422 5.031361 6.970177
C 0.442878 6.239890 7.262645
C 0.358620 6.762903 8.021951
C 0.079007 5.676715 8.078978
C 0.984032 5.185307 7.092069
C 1.630827 6.054943 7.056755
C 1.425422 6.417233 8.044993
C 0.930509 5.778868 7.962585
C 2.060474 5.165424 7.248522
C 2.337460 5.944603 7.138058
C 2.609966 6.602233 8.092255
C 1.905379 5.794414 7.739239
C 2.847733 5.147840 7.260215
C 3.299257 6.205289 7.214319
C 3.534070 6.786247 7.918114
C 2.991154 5.854143 7.844651
C 4.093463 5.244502 7.276048
C 4.436333 5.934645 7.042152
C 4.490491 6.699008 8.199638
C 3.834224 5.833371 8.069566
C 4.934026 5.042239 6.969977
C 5.649689 6.064989 6.983754
C 5.498277 6.502732 7.977387
C 5.059718 5.781574 8.140090
C 6.107572 5.240536 7.283335
C 6.406037 6.010369 7.036170
C 6.480268 6.519833 8.130641
C 6.050702 5.751968 8.018561
C 7.012257 5.162374 7.301387
C 7.498691 6.025283 7.213432
C 7.393790 6.492738 7.926182
C 7.052382 5.968228 7.822578
C 7.886785 5.196467 7.147029
C 8.416987 6.092476 6.996306
C 8.575080 6.541530 7.968596
C 8.121808 5.834013 8.100453
C 0.020268 6.923845 7.142176
C 0.529179 7.788568 7.067239
C 0.491495 8.408308 7.843124
C 0.098132 7.463245 7.858890
C 0.924553 6.899778 7.143879
C 1.683656 7.785637 7.057930
C 1.384894 8.535595 8.003730
C 0.945373 7.604953 8.135736
C 2.030584 7.028856 7.048970
C 2.476364 7.846197 6.899972
C 2.362274 8.426245 8.015677
C 1.892229 7.667775 7.861608
C 2.944834 6.787431 7.185402
C 3.699374 7.872450 7.106988
C 3.376255 8.516250 7.882461
C 2.910882 7.556847 8.021140
C 3.932107 7.026752 6.881930
C 4.468782 7.736567 7.196158
C 4.567450 8.259685 8.033517
C 4.030211 7.427583 8.062439
C 4.994187 6.959166 7.284284
C 5.513604 7.880050 7.078975
C 5.510321 8.480260 7.860697
C 5.214922 7.458550 8.081584
C 5.941932 6.929561 6.977718
C 6.450679 7.952774 7.133087
C 6.590482 8.255421 7.856900
C 5.984171 7.498775 8.051816
C 6.937286 6.904897 7.167549
C 7.526340 7.666607 7.238605
C 7.595994 8.400002 7.991898
C 7.090559 7.627899 7.784192
C 8.034210 7.116237 7.236381
C 8.385113 7.927930 7.055149
C 8.562176 8.386656 8.112745
C 7.847394 7.426752 7.920121
C 0.107637 0.003284 8.810841
C 0.387459 0.757872 8.849134
C 0.489875 1.512642 9.433690
C 0.204648 0.540896 9.354911
C 0.892455 0.084757 8.603348
C 1.478209 1.051981 8.750878
C 1.400077 1.311786 9.462135
C 0.964203 0.635555 9.501154
C 1.840977 0.092199 8.811092
C 2.423254 0.865226 8.648552
C 2.660905 1.310373 9.494262
C 1.866078 0.607992 9.578259
C 3.115996 0.000881 8.747809
C 3.507089 0.793810 8.822511
C 3.476813 1.324632 9.470137
C 3.095523 0.552777 9.573275
C 4.191921 0.114543 8.695854
C 4.578724 0.829656 8.774572
C 4.560924 1.514169 9.483321
C 3.976154 0.482200 9.514924
C 4.849444 0.096413 8.620513
C 5.539624 1.034450 8.829280
C 5.538735 1.417303 9.432401
C 4.997184 0.737486 9.369737
C 5.994625 0.008912 8.851089
C 6.386213 0.842183 8.856445
C 6.638130 1.591467 9.548465
C 5.801958 0.657904 9.451146
C 7.046863 0.004933 8.723386
C 7.523226 0.857041 8.729550
C 7.488617 1.430193 9.589491
C 7.004209 0.670004 9.438739
C 7.952408 0.021574 8.676403
C 8.579502 0.986327 8.944639
C 8.487581 1.291424 9.574463
C 7.824353 0.390552 9.495893
C 0.095561 1.750052 8.526528
C 0.435501 2.473564 8.670034
C 0.415471 3.252312 9.510567
C 0.301587 2.399822 9.539215
C 0.898372 1.714168 8.573761
C 1.641916 2.663756 8.864436
C 1.604273 2.995803 9.437882
C 1.019133 2.285949 9.547344
C 1.933470 1.607906 8.825257
C 2.540205 2.425940 8.703584
C 2.641562 3.140891 9.448210
C 2.195706 2.374730 9.575031
C 3.071363 1.649861 8.744109
C 3.633401 2.789793 8.901205
C 3.503052 3.263499 9.479184
C 3.070571 2.439784 9.562355
C 4.080465 1.790584 8.936819
C 4.569963 2.615769 8.735261
C 4.349667 3.115349 9.579971
C 4.112504 2.376342 9.435149
C 5.007019 1.549400 8.860424
C 5.516340 2.610576 8.596377
C 5.699407 3.185930 9.457664
C 5.109106 2.401633 9.557212
C 6.122677 1.716881 8.732297
C 6.508936 2.495890 8.778792
C 6.535762 3.017506 9.501806
C 5.870320 2.221950 9.512194
C 6.903500 1.698560 8.590443
C 7.587181 2.525500 8.581834
C 7.490559 3.038046 9.587680
C 6.723753 2.329384 9.499955
C 7.956652 1.793284 8.723376
C 8.361341 2.477507 8.828517
C 8.474097 3.156972 9.511750
C 8.031970 2.457853 9.398796
C 0.028144 3.432426 8.948489
C 0.454092 4.386800 8.628504
C 0.347954 4.948528 9.551277
C 0.220869 4.131510 9.515741
C 1.056731 3.509465 8.843681
C 1.585105 4.425781 8.961110
C 1.370675 4.962885 9.569808
C 1.103834 4.024841 9.530193
C 1.957985 3.609973 8.654531
C 2.474606 4.295351 8.785359
C 2.501565 4.875016 9.463116
C 1.840897 3.925885 9.513979
C 3.133084 3.490401 8.861475
C 3.321878 4.359477 8.955879
C 3.582286 5.056057 9.345391
C 3.173425 3.991346 9.533524
C 4.084494 3.489352 8.819766
C 4.650759 4.321408 8.991569
C 4.492613 5.175723 9.534872
C 3.903012 4.016014 9.543282
C 5.084615 3.376172 8.673874
C 5.560377 4.559558 8.738656
C 5.321378 5.032345 9.540786
C 4.958084 4.042327 9.515289
C 5.839527 3.571727 8.728518
C 6.527088 4.470740 8.706329
C 6.618371 4.736098 9.539780
C 6.180060 4.050300 9.382144
C 6.797947 3.475545 8.841241
C 7.515469 4.299438 8.706545
C 7.629760 4.893787 9.475652
C 7.041897 4.158534 9.528684
C 8.119052 3.478600 8.850747
C 8.493089 4.119357 8.739894
C 8.462656 5.034744 9.481530
C 7.824599 4.092283 9.544223
C 0.329083 5.171818 8.663329
C 0.315373 6.163623 8.879780
C 0.406929 6.616600 9.541595
C 0.086186 5.550312 9.525875
C 1.126177 5.098525 8.735640
C 1.445339 5.964563 8.825871
C 1.658540 6.690988 9.432436
C 1.025275 6.011591 9.545083
C 2.001066 5.352792 8.650669
C 2.544426 6.018182 8.819503
C 2.493164 6.495409 9.432346
C 1.794852 5.888519 9.437556
C 2.982237 5.349579 8.674610
C 3.340295 6.193455 8.912312
C 3.408256 6.699241 9.434258
C 3.026484 5.605117 9.590864
C 4.075622 5.105671 8.736379
C 4.572258 6.063444 8.578607
C 4.391186 6.801257 9.567384
C 4.007421 5.626685 9.558719
C 5.003227 5.016887 8.849902
C 5.608503 6.079000 8.913556
C 5.434204 6.698494 9.490928
C 5.063855 5.681580 9.573059
C 6.009354 5.046467 8.806008
C 6.329409 5.965189 8.867953
C 6.544269 6.777281 9.528347
C 6.135006 5.876163 9.523741
C 7.096225 5.211075 8.786047
C 7.573327 6.057109 8.906357
C 7.400640 6.614893 9.591569
C 7.101585 5.690381 9.506515
C 8.139951 5.289341 8.887920
C 8.333803 5.830358 8.732599
C 8.651398 6.566479 9.361621
C 8.165783 5.742726 9.532661
C 0.178778 6.966817 8.855470
C 0.398263 7.748743 8.615719
C 0.698949 8.455855 9.457008
C 0.011742 7.420852 9.370802
C 1.050984 6.909650 8.893766
C 1.450815 7.623564 8.832531
C 1.533629 8.318430 9.368220
C 0.918869 7.745552 9.553391
C 1.952367 6.866756 8.929018
C 2.627321 7.785169 8.796587
C 2.364434 8.327895 9.566168
C 2.043917 7.327988 9.465415
C 3.067179 6.940399 8.712003
C 3.475451 7.663950 8.883398
C 3.675448 8.387329 9.475320
C 2.965956 7.508659 9.499235
C 3.972653 7.066760 8.788219
C 4.432414 7.827057 8.693798
C 4.574071 8.301370 9.426382
C 3.872399 7.558101 9.588052
C 4.905655 6.942885 8.961683
C 5.585525 7.837406 8.913330
C 5.556579 8.332167 9.572172
C 5.317296 7.344842 9.569717
C 5.845638 6.813136 8.735818
C 6.543446 7.686488 8.883086
C 6.630623 8.553907 9.561105
C 5.825474 7.552766 9.519192
C 7.050519 7.071845 8.765830
C 7.602728 7.906279 8.731698
C 7.744805 8.211970 9.567996
C 6.879189 7.687769 9.493116
C 7.984050 6.929834 8.950991
C 8.498878 7.816430 8.949494
C 8.555629 8.148183 9.503563
C 8.011433 7.392340 9.410353
2160
Frame 9/10
C 0.265005 0.026195 0.286141
C 0.718467 0.844121 0.078421
C 0.524251 1.595866 0.833865
C 0.000708 0.725335 0.939936
C 1.254056 0.142125 0.154353
C 1.407268 0.778502 0.123578
C 1.723129 1.414864 0.855345
C 1.142476 0.670730 0.721688
C 2.068953 0.152010 0.074418
C 2.378735 0.900990 0.233844
C 2.545969 1.461128 0.985847
C 1.882857 0.559069 0.817114
C 2.813057 0.124521 0.097502
C 3.490143 0.775043 0.050899
C 3.408770 1.406088 0.753011
C 3.022412 0.723229 0.594424
C 3.843143 0.152053 0.154459
C 4.419123 0.727785 0.047398
C 4.524715 1.318121 0.754166
C 4.022066 0.387901 0.811094
C 4.811205 0.088850 0.132002
C 5.641091 0.881383 0.005834
C 5.298285 1.390702 0.790553
C 5.052243 0.545960 0.788923
C 6.136360 0.278036 0.084527
C 6.513248 0.573883 0.083718
C 6.547340 1.534453 0.852173
C 6.022517 0.361163 0.793182
C 7.237351 0.058875 0.032324
C 7.378453 0.871967 0.183723
C 7.731715 1.473736 0.856870
C 7.130017 0.629876 1.005174
C 8.069022 0.108111 0.005701
C 8.624075 1.107788 0.075132
C 8.417730 1.502508 0.680093
C 7.699152 0.631451 0.692757
C 0.405956 1.613310 0.031225
C 0.465704 2.838342 0.137814
C 0.411132 3.039441 0.819869
C 0.148493 2.074928 0.866166
C 0.852368 1.632656 0.137716
C 1.345291 2.447714 0.023901
C 1.367388 3.261340 0.843134
C 1.005691 2.421416 0.755089
C 1.889890 1.501815 0.015962
C 2.566178 2.557689 0.143112
C 2.593885 3.127893 0.898127
C 1.971488 2.255425 0.683292
C 3.021891 1.791760 0.038385
C 3.717334 2.540677 0.035635
C 3.579505 3.192490 0.642372
C 3.016520 2.225942 0.935333
C 3.814565 1.797239 0.238370
C 4.706310 2.359949 0.029608
C 4.667022 3.169154 0.963057
C 3.979209 2.458205 0.636407
C 4.732505 1.874002 0.057644
C 5.458207 2.441666 0.055005
C 5.345587 3.091875 1.012274
C 4.948254 2.443874 0.917025
C 5.973940 1.727125 0.076495
C 6.573599 2.924507 0.057439
C 6.524719 3.044356 0.710522
C 6.158801 2.283370 0.913541
C 7.079833 1.852206 0.197875
C 7.599525 2.455950 0.130296
C 7.477253 3.239041 1.017499
C 6.753273 2.259351 0.937667
C 7.890332 1.845900 0.022910
C 8.643841 2.592824 0.005334
C 8.510604 3.044166 0.830341
C 7.899532 2.135512 0.989967
C 0.042208 3.262302 0.250828
C 0.480078 4.448039 0.196376
C 0.581364 5.172946 0.776466
C 0.010338 3.897739 0.881957
C 1.067340 3.349603 0.112822
C 1.617345 4.154121 0.098552
C 1.635951 4.802407 0.909239
C 0.943787 3.937908 0.934069
C 1.947525 3.686863 0.095395
C 2.394055 4.319531 0.137643
C 2.610930 4.780294 0.973498
C 1.860880 4.031441 0.845196
C 3.062868 3.487326 0.178743
C 3.637746 4.129309 0.001158
C 3.515665 5.026354 0.959383
C 3.134072 3.928352 0.675115
C 4.086635 3.577630 0.071722
C 4.606299 4.294116 0.009496
C 4.583394 4.872651 0.785489
C 4.014280 4.293577 0.891688
C 5.012457 3.297001 0.115522
C 5.528627 4.568665 0.263266
C 5.230864 4.900430 0.886306
C 5.059770 4.196419 0.735988
C 5.885447 3.334350 0.155100
C 6.451507 4.424072 0.029968
C 6.256642 4.728331 0.901585
C 5.971239 4.130518 0.954226
C 6.955229 3.619275 0.168957
C 7.311350 4.364271 0.031776
C 7.546249 4.926361 0.698284
C 6.818405 4.055438 0.743138
C 7.913907 3.381935 0.273596
C 8.265281 4.293013 0.005592
C 8.342874 4.717975 0.693281
C 7.899086 3.796726 0.761961
C 0.205656 4.963294 0.016836
C 0.441038 6.301334 0.036874
C 0.406561 6.628336 0.639062
C 0.156126 5.840323 0.597011
C 0.960659 5.157829 0.011648
C 1.440772 6.172163 0.023662
C 1.426870 6.908406 0.722828
C 0.837797 5.844574 0.645694
C 1.881611 5.339895 0.132285
C 2.720780 6.108974 0.211435
C 2.647871 6.806179 0.841484
C 2.042236 5.903442 0.653423
C 2.991375 5.167494 0.038445
C 3.483119 5.992118 0.136859
C 3.421377 6.704237 0.855045
C 3.156060 5.822349 0.760574
C 4.199450 5.272128 0.271065
C 4.541533 6.089189 0.105542
C 4.726152 6.855736 0.851654
C 3.923603 5.712519 0.606840
C 4.878871 5.315448 0.013443
C 5.740844 6.098748 0.178761
C 5.672801 6.595812 0.797489
C 5.140895 5.829835 1.008511
C 5.801161 5.162836 0.052881
C 6.427786 6.240792 0.008023
C 6.789165 6.460924 0.858660
C 5.965377 5.777495 0.807780
C 7.200308 5.206067 0.002026
C 7.514901 5.861180 0.219180
C 7.389681 6.654805 0.678993
C 7.097632 5.789877 0.963562
C 7.886703 5.181718 0.043054
C 8.790592 6.050645 0.034425
C 8.589147 6.829329 0.727574
C 7.861711 5.740360 0.743420
C 0.003566 6.737110 0.089337
C 0.582671 7.830347 0.073484
C 0.456148 8.522962 0.671115
C 0.083860 7.412008 0.829884
C 1.150621 6.905235 0.099312
C 1.314939 7.705759 0.010626
C 1.557002 8.303333 0.785381
C 1.000097 7.326634 1.005476
C 2.138608 6.927173 0.017116
C 2.507557 8.001737 0.095707
C 2.711738 8.357948 0.839501
C 2.155838 7.473169 0.664673
C 2.933688 7.177447 0.047093
C 3.222389 7.851415 0.046500
C 3.510970 8.304878 0.683745
C 3.044431 7.577990 1.020079
C 4.103307 6.662136 0.083462
C 4.416347 7.944277 0.078525
C 4.351047 8.557852 0.698890
C 4.025930 7.523479 0.716427
C 5.022218 6.864282 0.082809
C 5.258193 7.762058 0.111943
C 5.439207 8.300979 0.598001
C 5.029253 7.594454 0.742962
C 5.750000 6.999468 0.048373
C 6.524252 7.831582 0.115513
C 6.356279 8.436999 0.684107
C 5.890474 7.580989 0.624652
C 7.248238 6.914613 0.076403
C 7.493468 7.698921 0.066664
C 7.377963 8.460728 0.855750
C 7.033032 7.683571 0.894654
C 8.002479 6.960300 0.238106
C 8.444622 7.701006 0.071800
C 8.530550 8.218239 0.868402
C 8.030724 7.568239 0.631491
C 0.019275 0.169154 1.822493
C 0.530999 0.997967 1.519121
C 0.481497 1.457292 2.339853
C 0.143910 0.434826 2.366708
C 1.140337 0.202520 1.715175
C 1.584826 0.963349 1.752696
C 1.527305 1.291101 2.376821
C 0.979833 0.577722 2.609544
C 1.859123 0.070713 1.472622
C 2.459693 0.797316 1.686298
C 2.621051 1.329592 2.398978
C 2.010153 0.395760 2.514827
C 2.840339 0.092580 1.658749
C 3.423686 0.775683 1.776050
C 3.540102 1.435069 2.406696
C 2.957774 0.477861 2.496905
C 4.015989 0.013077 1.790232
C 4.645380 0.653246 1.553298
C 4.307493 1.453056 2.611569
C 4.104833 0.491679 2.411922
C 4.843048 0.162437 1.782242
C 5.591961 0.905017 1.631380
C 5.695004 1.337180 2.292465
C 4.982455 0.660851 2.492406
C 5.822711 0.140761 1.765755
C 6.660717 0.949967 1.496455
C 6.354836 1.311471 2.468628
C 6.168676 0.677397 2.667685
C 6.927613 0.011470 1.639599
C 7.557217 0.723781 1.740329
C 7.447713 1.608112 2.583222
C 7.122809 0.605836 2.606236
C 8.203286 0.032944 1.616589
C 8.443658 0.928414 1.613345
C 8.573414 1.540797 2.203954
C 7.995802 0.666440 2.317291
C 0.094045 1.873369 1.522217
C 0.496959 2.467356 1.560947
C 0.376892 3.344561 2.591257
C 0.061289 2.286874 2.398305
C 0.839420 1.706399 1.577731
C 1.532452 2.771944 1.530409
C 1.691545 3.233311 2.611945
C 0.924533 2.107900 2.437633
C 2.053052 1.894238 1.801041
C 2.712549 2.659754 1.544792
C 2.448044 3.233523 2.288891
C 1.802420 2.174923 2.539092
C 2.976320 1.681730 1.763376
C 3.659929 2.449356 1.628773
C 3.427316 3.276363 2.606446
C 2.862061 2.106029 2.312307
C 4.063536 1.825922 1.824957
C 4.439448 2.772555 1.720978
C 4.513403 3.232082 2.575491
C 3.933648 2.276581 2.344265
C 4.986326 1.767723 1.651604
C 5.613634 2.654634 1.613607
C 5.347893 3.207475 2.267999
C 5.085341 2.321992 2.422837
C 6.075487 1.876213 1.823794
C 6.637594 2.659583 1.480224
C 6.449115 3.163814 2.602348
C 6.183407 2.355955 2.613704
C 6.985066 1.589501 1.563520
C 7.520314 2.683965 1.474643
C 7.368316 3.202220 2.549598
C 6.839749 2.074439 2.314386
C 8.065474 1.674645 1.460645
C 8.520053 2.467416 1.668785
C 8.568898 3.162897 2.376411
C 7.912402 2.392756 2.636131
C 0.004887 3.474816 1.865109
C 0.407688 4.308332 1.777394
C 0.532944 4.798900 2.358468
C 0.010263 3.998239 2.706733
C 1.046384 3.281626 1.764751
C 1.275650 4.565595 1.622488
C 1.433812 5.026787 2.428893
C 0.956771 4.192485 2.649185
C 2.140210 3.581126 1.824740
C 2.527962 4.162164 1.654763
C 2.643713 4.885159 2.499588
C 2.043260 4.144539 2.358677
C 2.884713 3.580781 1.489689
C 3.343515 4.276928 1.683604
C 3.398035 5.056959 2.473565
C 3.069408 4.107622 2.588192
C 3.987055 3.543562 1.806951
C 4.505753 4.493341 1.568773
C 4.420539 4.673115 2.326086
C 3.935528 4.027268 2.654141
C 5.118317 3.555151 1.588497
C 5.414794 4.531246 1.548841
C 5.417973 4.683591 2.506216
C 4.847806 3.928775 2.511455
C 5.890653 3.631816 1.784228
C 6.680670 4.238924 1.841308
C 6.363121 4.775194 2.320077
C 5.945724 3.944734 2.515976
C 6.875672 3.342800 1.637405
C 7.425366 4.380556 1.584128
C 7.503138 4.909867 2.272905
C 7.206847 3.844963 2.502779
C 8.188899 3.331665 1.572737
C 8.352277 4.347984 1.726034
C 8.392585 4.705901 2.608321
C 7.973893 4.087604 2.535058
C 0.146219 5.216803 1.733905
C 0.542840 6.051591 1.872009
C 0.613869 6.553528 2.644440
C 0.082327 5.762442 2.448522
C 1.114297 5.178680 1.661458
C 1.285848 6.031315 1.437816
C 1.599620 6.660495 2.379248
C 1.028340 5.712192 2.491317
C 1.873353 5.159784 1.539047
C 2.497281 5.942463 1.585755
C 2.635344 6.850067 2.462699
C 1.989144 5.563891 2.552840
C 2.847573 5.321737 1.565555
C 3.575458 6.055836 1.654855
C 3.485348 6.524525 2.354024
C 2.874049 5.812333 2.610784
C 4.014769 5.143266 1.766059
C 4.430616 5.997162 1.621723
C 4.630608 6.627372 2.524781
C 4.032031 5.938018 2.507947
C 4.756926 5.143335 1.730547
C 5.520508 6.079403 1.537432
C 5.384389 6.725819 2.553539
C 5.040360 5.625423 2.360115
C 5.931123 5.075183 1.702949
C 6.488912 6.239618 1.544114
C 6.656829 6.541555 2.321388
C 6.223038 5.738523 2.519348
C 6.992232 5.263748 1.592157
C 7.657177 5.984294 1.591435
C 7.238306 6.499130 2.432228
C 6.750297 5.821190 2.477821
C 8.073968 5.135477 1.379759
C 8.418383 5.902389 1.778133
C 8.500781 6.522025 2.592655
C 8.139349 5.787153 2.706858
C 0.013388 6.969945 1.872880
C 0.455765 7.600244 1.589793
C 0.513786 8.567726 2.299584
C 0.117464 7.642536 2.175316
C 0.971744 6.657469 1.680712
C 1.675820 7.712100 1.767554
C 1.378052 8.459595 2.386411
C 1.120310 7.373114 2.384611
C 1.836820 7.034519 1.718968
C 2.520597 7.757668 1.808390
C 2.558830 8.406878 2.518684
C 1.978631 7.440975 2.379625
C 2.993647 6.775475 1.612546
C 3.228830 7.784388 1.780074
C 3.730780 8.506441 2.386668
C 3.019743 7.500281 2.542741
C 4.075590 6.826665 1.574035
C 4.493281 7.575173 1.673075
C 4.464099 8.504690 2.217266
C 3.919813 7.256979 2.407653
C 4.891108 6.703076 1.635187
C 5.581152 7.683608 1.830554
C 5.496091 8.470972 2.401699
C 4.868610 7.658840 2.346049
C 5.943294 6.854234 1.593951
C 6.394936 7.868819 1.537170
C 6.371055 8.212922 2.526930
C 5.886611 7.527426 2.667073
C 6.983364 7.002858 1.511199
C 7.697061 7.777512 1.604777
C 7.668818 8.272591 2.459859
C 7.013390 7.616807 2.421321
C 8.021882 7.032452 1.519595
C 8.664492 7.797713 1.676022
C 8.588127 8.491694 2.204365
C 7.964471 7.588602 2.507754
C 0.033921 0.027305 3.153053
C 0.519015 0.761846 3.313843
C 0.442534 1.379801 4.229934
C 0.224439 0.690951 3.896381
C 0.913211 0.132660 3.171688
C 1.485155 1.017965 3.417218
C 1.298135 1.428312 4.213225
C 1.099142 0.731342 4.218476
C 2.167016 0.137198 3.176394
C 2.658120 0.975730 3.159522
C 2.568461 1.561672 3.921684
C 1.951739 0.511981 4.231484
C 2.972404 0.091642 3.535339
C 3.609642 0.865542 3.173081
C 3.730617 1.410852 4.180115
C 3.281084 0.627369 4.013058
C 3.886117 0.053264 3.406037
C 4.475763 1.106596 3.447713
C 4.305858 1.601467 4.065190
C 3.811103 0.402184 3.989019
C 5.115190 0.127459 3.157526
C 5.617491 0.965082 3.387978
C 5.594678 1.504789 4.075608
C 5.045841 0.435662 4.074498
C 6.103697 0.051843 3.107482
C 6.547581 1.093124 3.358704
C 6.774104 1.383642 4.153246
C 6.000829 0.687053 3.855633
C 6.909245 0.088931 3.521189
C 7.472494 0.875026 2.964674
C 7.541175 1.632779 4.207557
C 7.133671 0.705878 4.299483
C 7.879643 0.100672 3.266411
C 8.627355 1.124477 3.324351
C 8.607447 1.450288 3.889138
C 8.016482 0.605583 4.075375
C 0.276757 1.907579 3.386118
C 0.353238 2.449690 3.409573
C 0.366236 3.202878 4.002135
C 0.219102 2.460804 4.232517
C 1.150860 1.570746 3.346053
C 1.626534 2.843102 3.264564
C 1.539104 3.248867 4.152381
C 1.107583 2.321468 4.250576
C 2.088837 1.872083 3.444790
C 2.406434 2.735675 3.474855
C 2.500605 3.055504 3.881095
C 2.166523 2.130372 4.181458
C 3.052941 1.892769 3.495291
C 3.354896 2.705928 3.366232
C 3.542764 3.264959 4.145157
C 2.837937 2.297118 3.882747
C 4.094272 1.690409 3.036869
C 4.493677 2.721130 3.126794
C 4.326963 3.191816 4.041280
C 4.207411 2.147876 3.979912
C 5.186869 1.684940 3.205522
C 5.463697 2.590859 3.473464
C 5.707368 3.047070 4.023519
C 5.026571 2.476277 3.866202
C 6.204966 1.574758 3.265711
C 6.490238 2.565754 3.328875
C 6.565685 3.106409 4.133166
C 5.872575 2.175848 4.179543
C 6.955846 1.777219 3.134600
C 7.406498 2.800480 3.136842
C 7.501940 3.231737 4.089219
C 7.130096 2.149463 4.044623
C 7.829392 1.845429 3.191837
C 8.415952 2.597487 3.214040
C 8.475203 3.228202 4.275630
C 7.984679 2.414468 4.171299
C 0.169042 3.351419 3.277862
C 0.531575 4.119575 3.061173
C 0.543017 4.684966 4.050267
C 0.099213 4.231172 3.983798
C 0.842368 3.469476 3.206783
C 1.543687 4.259623 3.364702
C 1.525814 4.749536 4.022031
C 0.934477 3.895384 4.103718
C 1.902663 3.368329 3.241068
C 2.479028 4.357206 3.516235
C 2.655357 4.930898 3.969724
C 1.921344 4.154272 3.909163
C 3.072023 3.228487 3.401672
C 3.410043 4.180903 3.210895
C 3.566018 4.857196 3.860621
C 3.024324 3.878575 4.282834
C 3.909291 3.534096 3.352847
C 4.415556 4.292623 3.469795
C 4.335596 4.837392 4.197589
C 4.111671 4.054854 4.007631
C 4.987035 3.536838 3.186720
C 5.480408 4.286385 3.212102
C 5.642286 4.769647 4.240569
C 5.067370 3.847227 4.007223
C 6.197445 3.394193 3.359281
C 6.266085 4.357227 3.151969
C 6.570554 4.790094 3.913132
C 5.879195 3.882830 3.946437
C 7.177711 3.587556 3.440459
C 7.482110 4.359805 3.200182
C 7.393565 4.868584 3.856902
C 7.053408 4.064005 4.181553
C 8.125436 3.427799 3.101350
C 8.630659 4.210918 3.197637
C 8.624853 4.977629 3.866025
C 7.927370 4.014285 4.287390
C 0.123296 5.243642 3.352092
C 0.323901 6.128654 3.326750
C 0.526062 6.890617 4.039456
C 0.105562 5.732754 4.337914
C 1.035713 5.359376 3.227456
C 1.518099 6.202203 3.165087
C 1.306207 6.611858 4.103711
C 0.798953 5.914125 4.111930
C 1.872251 5.246854 3.356251
C 2.341688 6.171293 3.169079
C 2.408081 6.521326 4.146329
C 1.961839 5.778753 4.099729
C 3.014340 5.171180 3.348568
C 3.724585 6.143642 3.099818
C 3.554109 6.782419 4.259867
C 2.968277 5.953396 4.056888
C 4.070775 5.262549 3.131266
C 4.420504 5.879540 3.260673
C 4.532148 6.569274 4.217154
C 3.914667 5.782971 4.133337
C 4.995068 5.250685 3.421590
C 5.460946 5.895913 3.422901
C 5.402730 6.520357 4.000274
C 4.916651 5.640489 4.054336
C 5.928835 5.363285 3.165776
C 6.660583 5.903697 3.343462
C 6.644049 6.760004 4.044510
C 5.844673 5.778449 3.955942
C 6.860865 5.235898 3.183587
C 7.428493 6.028496 3.473236
C 7.595911 6.571250 3.881005
C 7.116024 5.717050 4.044436
C 8.151368 5.135067 3.056290
C 8.605424 6.004592 3.130938
C 8.455288 6.619439 4.127341
C 8.163502 5.777926 4.077964
C 0.227352 7.004661 3.427185
C 0.300388 7.665396 3.314775
C 0.319461 8.414426 4.108145
C 0.221887 7.585937 4.042710
C 0.891081 6.749987 3.367449
C 1.420156 7.758073 3.261945
C 1.617353 8.192944 4.017516
C 0.942442 7.456887 3.850842
C 1.842437 6.795237 3.348244
C 2.547550 7.727129 3.069961
C 2.392976 8.486364 3.923943
C 2.162305 7.393565 4.002062
C 3.072722 6.908346 3.356080
C 3.508656 7.963422 3.427279
C 3.536971 8.282021 4.000180
C 2.881573 7.436397 4.049570
C 3.993682 6.941308 3.261124
C 4.649269 7.724533 3.103245
C 4.536537 8.180906 4.171905
C 4.118325 7.431143 4.090567
C 4.905143 6.824974 3.150576
C 5.430647 7.808787 3.136679
C 5.466227 8.539779 4.287834
C 5.137625 7.522561 4.065351
C 5.899477 7.011556 3.097344
C 6.536757 7.633924 3.284219
C 6.735684 8.457438 4.054879
C 5.913828 7.445742 4.323086
C 7.011317 7.133640 3.348251
C 7.550446 7.911063 3.237518
C 7.651260 8.364561 4.272213
C 7.117833 7.571427 3.899997
C 7.966537 7.062330 3.323424
C 8.547066 7.610814 3.329393
C 8.385545 8.436187 4.033855
C 8.007137 7.554231 4.319663
C 0.196413 0.090636 4.853263
C 0.288729 0.927371 4.963328
C 0.728425 1.491694 5.733041
C 0.034694 0.745100 5.652179
C 1.063617 0.031047 5.174846
C 1.513840 0.932011 5.140824
C 1.712348 1.484993 5.588681
C 1.045158 0.571585 5.587530
C 1.828678 0.050714 4.867649
C 2.385606 0.929212 4.724094
C 2.602653 1.403229 5.680959
C 2.024524 0.721947 5.619911
C 3.048842 0.150862 4.680893
C 3.279015 1.017892 4.919265
C 3.549987 1.482114 5.650101
C 2.856819 0.653240 5.683112
C 4.062662 0.089748 4.873384
C 4.582515 0.827046 4.795958
C 4.670652 1.302529 5.795503
C 3.880157 0.660806 5.892857
C 5.164786 0.007049 5.097389
C 5.470445 0.858693 4.920973
C 5.581346 1.304079 5.850456
C 5.016399 0.434215 5.764652
C 5.837818 0.003918 4.854610
C 6.506736 0.747746 5.044148
C 6.637439 1.586566 5.789829
C 5.978523 0.775061 5.558492
C 7.151191 0.092976 5.064904
C 7.460578 1.024315 5.068383
C 7.652092 1.517213 5.667453
C 7.198475 0.468724 5.695134
C 8.009568 0.223668 4.654795
C 8.397497 0.861905 4.708946
C 8.454728 1.416370 5.690866
C 7.934971 0.529474 5.819908
C 0.019031 1.669869 4.769422
C 0.430805 2.665693 5.029513
C 0.438350 3.172435 5.604625
C 0.010310 2.451712 5.614724
C 0.833942 1.876595 5.025331
C 1.555070 2.475234 4.822689
C 1.388007 2.965864 5.703497
C 1.065889 2.252528 5.491048
C 1.988199 1.806504 4.745912
C 2.411608 2.659129 4.818581
C 2.689718 3.183793 5.855762
C 2.213514 2.259311 5.628969
C 3.082792 1.878623 4.936759
C 3.341161 2.797032 4.885114
C 3.557116 3.073525 5.627420
C 3.037674 2.117034 5.654009
C 3.986262 1.689325 4.827575
C 4.534717 2.458070 4.820520
C 4.427269 3.159639 5.567676
C 4.038252 2.388109 5.915026
C 4.952138 1.680749 4.745432
C 5.397523 2.490800 4.955048
C 5.547089 3.243087 5.915501
C 4.910116 2.382315 5.698961
C 5.802126 1.824928 4.771812
C 6.496191 2.619035 4.797972
C 6.642780 3.283541 5.637551
C 5.939488 2.479115 5.714423
C 7.080228 1.794724 5.004828
C 7.481904 2.726157 4.701998
C 7.455559 3.398215 5.697411
C 6.833304 2.307369 5.713077
C 8.010467 1.796772 4.950956
C 8.418570 2.778381 4.881538
C 8.369676 3.169944 5.741312
C 8.148656 2.316363 5.590516
C 0.100978 3.301112 4.884217
C 0.608111 4.191728 4.866222
C 0.638570 4.874345 5.788195
C 0.175188 3.904281 5.915004
C 1.057875 3.375182 4.774529
C 1.464768 4.443128 4.981294
C 1.395515 5.172659 5.786057
C 0.838906 4.084116 5.816509
C 2.144271 3.352764 4.799035
C 2.490774 4.367911 5.157325
C 2.471193 4.769136 5.697982
C 2.060158 3.981832 5.560093
C 2.846838 3.483942 4.724113
C 3.473634 4.452705 4.828976
C 3.696774 4.983947 5.619375
C 2.934935 3.883783 5.576082
C 3.941702 3.377395 4.828695
C 4.556594 4.357780 4.904173
C 4.552011 5.062823 5.784746
C 3.780421 4.196570 5.570936
C 5.137390 3.304586 4.874719
C 5.680132 4.442041 4.811372
C 5.505299 5.076530 5.921114
C 5.054023 3.971879 5.858478
C 6.027997 3.627069 4.716954
C 6.358019 4.457793 4.864833
C 6.450223 4.837815 5.789821
C 5.818533 3.964693 5.735474
C 6.868584 3.478841 4.855969
C 7.516879 4.431465 5.026539
C 7.513048 5.059827 5.718901
C 7.229982 3.897818 5.731273
C 8.154479 3.416753 4.926760
C 8.562475 4.448483 4.929205
C 8.447551 5.113281 5.589248
C 7.965067 4.127130 5.631924
C 0.018792 5.314230 5.024041
C 0.479091 5.951433 4.997024
C 0.513804 6.867054 5.835728
C 0.148385 5.718700 5.763939
C 1.117128 5.147272 5.032229
C 1.331392 5.950200 4.821548
C 1.418093 6.783315 5.546491
C 1.209091 5.676009 5.707810
C 2.082310 5.317934 5.047934
C 2.413614 6.117070 4.938578
C 2.377092 6.750958 5.745423
C 2.028257 5.694069 5.900053
C 3.225751 5.195939 4.864707
C 3.434967 5.889163 5.062261
C 3.517315 6.670926 5.570215
C 3.093345 5.780120 5.773907
C 4.139736 5.348161 4.908122
C 4.438654 6.286754 4.894268
C 4.532020 6.758192 5.841489
C 3.967617 5.863970 5.489431
C 5.055100 5.284480 4.999667
C 5.584501 6.195780 4.763806
C 5.454775 6.454531 5.735878
C 5.097415 5.858040 5.622736
C 6.062738 5.039901 5.064138
C 6.409233 6.270543 4.865467
C 6.357952 6.525230 5.850716
C 6.004507 5.889676 5.876861
C 7.125177 5.035121 4.988772
C 7.514966 5.803536 5.015310
C 7.546665 6.705929 5.723219
C 7.005363 5.791709 5.665187
C 8.069148 5.128573 4.831640
C 8.601907 5.913252 4.767915
C 8.620495 6.541649 5.576519
C 7.863747 5.748533 5.648918
C 0.118626 7.131156 4.866023
C 0.451154 7.822556 4.802590
C 0.404593 8.513677 5.612967
C 0.161183 7.279305 5.695623
C 0.963424 7.125183 4.740926
C 1.456606 7.540374 4.946103
C 1.625779 8.534821 5.695061
C 1.160123 7.717210 5.641113
C 1.943153 7.017270 4.784709
C 2.451896 8.008131 4.964381
C 2.292588 8.567059 5.693396
C 1.956874 7.412690 5.493709
C 3.086488 6.989877 5.041933
C 3.451746 7.740601 4.907067
C 3.540332 8.304199 5.604231
C 3.134268 7.469513 5.666839
C 4.182610 7.085727 4.863526
C 4.415784 7.613500 4.899914
C 4.352815 8.457804 5.645395
C 4.215443 7.377310 5.734363
C 5.002277 7.092316 4.914527
C 5.649998 7.536712 4.865670
C 5.473990 8.555879 5.704983
C 5.192768 7.611658 5.784118
C 6.068367 7.217962 4.962788
C 6.503060 7.876103 5.047855
C 6.587213 8.347272 5.396608
C 6.216226 7.555821 5.754081
C 6.776455 7.050220 4.974928
C 7.357616 7.921009 4.914060
C 7.393666 8.470080 5.732288
C 6.837703 7.545485 5.872086
C 8.037129 7.126256 5.015610
C 8.639094 7.844681 5.012511
C 8.592428 8.449012 5.710567
C 7.891063 7.523343 5.901373
C 0.172668 0.070234 6.605152
C 0.517946 1.023226 6.459547
C 0.339453 1.579459 7.307138
C 0.280748 0.693274 7.335463
C 1.067538 0.050460 6.250497
C 1.396040 0.957203 6.700287
C 1.414459 1.600939 7.455358
C 0.923722 0.393716 7.520725
C 1.840301 0.151303 6.551162
C 2.407165 0.783457 6.537630
C 2.480754 1.608617 7.249560
C 1.899519 0.542014 7.634356
C 3.162659 0.122058 6.320206
C 3.691547 0.878657 6.715480
C 3.398244 1.419250 7.174584
C 3.009500 0.375711 7.387373
C 4.037400 0.131016 6.697226
C 4.615322 0.680316 6.474975
C 4.544636 1.353992 7.528745
C 3.788645 0.683854 7.414946
C 5.113746 0.131585 6.377357
C 5.377515 0.667685 6.483764
C 5.608317 1.549852 7.200138
C 4.860779 0.471786 7.408729
C 5.900409 0.032334 6.391692
C 6.427393 0.756243 6.415183
C 6.542209 1.559991 7.220759
C 5.968787 0.580985 7.317134
C 6.937588 0.226478 6.620011
C 7.413557 0.911936 6.764906
C 7.357624 1.618150 7.473970
C 7.073548 0.692957 7.239777
C 7.834176 0.133802 6.446800
C 8.647369 0.913537 6.462746
C 8.557791 1.636386 7.542637
C 8.048725 0.602349 7.413865
C 0.234429 1.795573 6.477970
C 0.671941 2.619128 6.600192
C 0.380953 3.030330 7.346866
C 0.259296 2.367843 7.440273
C 0.995976 1.835965 6.480443
C 1.530441 2.557243 6.676787
C 1.698492 3.152026 7.421098
C 1.036637 2.482541 7.143690
C 2.126427 1.563925 6.478817
C 2.483268 2.726455 6.427562
C 2.524285 3.159202 7.322541
C 1.995519 2.317328 7.352016
C 3.111334 1.567074 6.487959
C 3.302158 2.482882 6.477142
C 3.670923 3.259395 7.390573
C 2.910868 2.423483 7.161805
C 3.965929 1.764426 6.434425
C 4.309099 2.570235 6.345013
C 4.551261 3.060082 7.476264
C 3.790398 2.289155 7.402070
C 4.764751 1.657636 6.650402
C 5.430426 2.573769 6.491221
C 5.593631 3.191949 7.486194
C 5.216628 2.289422 7.220469
C 6.093876 1.851615 6.538914
C 6.609491 2.592909 6.804616
C 6.346627 3.172630 7.570352
C 6.123031 2.050158 7.438487
C 7.156432 1.799839 6.516677
C 7.384457 2.343231 6.555172
C 7.441065 2.968948 7.270951
C 6.853657 2.456370 7.470035
C 7.775177 1.909898 6.579919
C 8.328183 2.665324 6.650221
C 8.566538 3.259463 7.488801
C 8.029837 2.115095 7.175497
C 0.136418 3.552297 6.565267
C 0.332477 4.382577 6.660547
C 0.441899 4.891716 7.120416
C 0.086732 4.244294 7.202530
C 0.994643 3.299734 6.585200
C 1.365584 4.233434 6.513083
C 1.503399 4.723331 7.214013
C 1.076271 4.113703 7.422564
C 1.994833 3.635726 6.408611
C 2.470946 4.435525 6.607204
C 2.398566 4.879749 7.505216
C 1.814406 4.039271 7.317437
C 2.860655 3.578967 6.541789
C 3.606546 4.493704 6.631989
C 3.367190 5.058036 7.413952
C 2.853603 3.985900 7.465432
C 4.022974 3.314343 6.389602
C 4.616259 4.332359 6.515385
C 4.464975 5.078223 7.293884
C 4.162151 3.917172 7.172250
C 4.957201 3.284186 6.697683
C 5.542439 4.306044 6.680231
C 5.495850 4.656963 7.338638
C 5.151825 3.989095 7.169047
C 5.795820 3.534991 6.503864
C 6.461209 4.517246 6.560306
C 6.227880 4.875732 7.490884
C 5.936675 4.088794 7.675407
C 7.014783 3.524939 6.668383
C 7.495931 4.349749 6.333238
C 7.566644 4.889695 7.305398
C 6.945847 4.050045 7.246037
C 8.052672 3.307619 6.396531
C 8.475879 4.468663 6.441641
C 8.302713 4.885439 7.273216
C 8.079336 4.134439 7.211102
C 0.150848 5.360324 6.445452
C 0.463238 6.155754 6.320274
C 0.454180 6.784887 7.531118
C 0.128611 5.794986 7.317772
C 1.063226 5.122148 6.297286
C 1.549262 6.301916 6.648826
C 1.492518 6.794631 7.290444
C 1.015232 5.797347 7.267340
C 2.063689 5.244113 6.427703
C 2.600846 6.088572 6.464685
C 2.399037 6.781241 7.330797
C 2.218351 5.796133 7.508019
C 2.959383 5.057218 6.566446
C 3.650711 6.118825 6.794458
C 3.515544 6.766227 7.393850
C 2.839227 5.829368 7.325395
C 3.930973 4.966489 6.533420
C 4.433748 5.876023 6.578287
C 4.470033 6.384851 7.394666
C 3.901822 5.959314 7.242018
C 4.941776 5.078965 6.527897
C 5.344704 5.995506 6.556016
C 5.331304 6.640794 7.472764
C 5.226558 5.762227 7.347619
C 5.865073 5.223551 6.370597
C 6.743131 6.013066 6.620485
C 6.416116 6.657306 7.189330
C 5.987897 5.788458 7.497826
C 6.826686 5.099050 6.531993
C 7.406508 5.972702 6.380806
C 7.425385 6.772504 7.154244
C 6.972214 5.928230 7.414553
C 7.964463 5.145301 6.446122
C 8.475041 6.015777 6.571259
C 8.374982 6.703114 7.215463
C 8.186015 5.757831 7.399118
C 0.209833 6.999706 6.464973
C 0.375658 7.823736 6.614641
C 0.579797 8.131680 7.263259
C 0.011029 7.475059 7.340708
C 1.193253 6.934759 6.494949
C 1.436988 7.533890 6.431700
C 1.732704 8.259154 7.326108
C 1.010206 7.547252 7.142206
C 1.843312 6.848031 6.592908
C 2.612722 7.717048 6.389091
C 2.637211 8.401021 7.552814
C 2.047712 7.748553 7.255234
C 2.910752 7.060951 6.439872
C 3.584758 7.779880 6.479592
C 3.706240 8.419845 7.310937
C 2.887192 7.432266 7.217111
C 4.169623 6.871937 6.454007
C 4.644658 7.653836 6.383480
C 4.493583 8.295172 7.512813
C 4.064916 7.267606 7.343491
C 4.992611 6.921757 6.442179
C 5.453411 7.572126 6.660034
C 5.383243 8.346690 7.290345
C 4.767478 7.381690 7.452751
C 5.782770 7.107396 6.462243
C 6.448618 7.909533 6.322167
C 6.411128 8.407180 7.323743
C 6.172173 7.385155 7.309673
C 6.981484 7.057862 6.639919
C 7.662528 7.815465 6.564549
C 7.587932 8.401168 7.556606
C 6.997985 7.620421 7.343652
C 8.050615 6.984089 6.854679
C 8.382541 7.642398 6.466530
C 8.499238 8.435528 7.249242
C 7.849233 7.472246 7.468176
C 0.116582 0.031416 8.276643
C 0.488201 0.941183 8.165896
C 0.449408 1.484226 8.940493
C 0.226730 0.377244 8.950068
C 1.064607 0.197005 8.157442
C 1.473512 0.880386 8.333157
C 1.451914 1.548620 8.936109
C 0.979036 0.738551 9.044556
C 2.038415 0.187105 7.923206
C 2.584597 0.787554 8.239404
C 2.514822 1.589057 9.138141
C 2.109618 0.763308 8.939295
C 2.770845 0.093763 8.164005
C 3.412746 0.816460 8.257787
C 3.606115 1.541846 8.928026
C 2.925001 0.476999 8.955825
C 3.785438 0.115032 8.094435
C 4.653170 1.120109 8.107656
C 4.545709 1.563667 8.821095
C 3.898310 0.815399 8.979290
C 5.108716 0.123183 8.286649
C 5.580873 0.871396 8.104099
C 5.661627 1.559147 8.977343
C 4.914315 0.467980 8.813504
C 5.927893 0.254996 8.219017
C 6.498621 0.667414 8.267467
C 6.602036 1.509343 8.841725
C 5.911399 0.519059 8.789664
C 6.881926 0.072558 8.252024
C 7.540137 0.861789 8.037249
C 7.573305 1.405054 8.755937
C 7.103742 0.397608 8.859347
C 7.754651 0.013095 8.291631
C 8.464179 0.739405 7.971952
C 8.455271 1.433056 9.059837
C 8.041938 0.421548 9.162112
C 0.025544 1.558565 8.125923
C 0.542410 2.539086 8.079779
C 0.426566 3.200844 9.093020
C 0.033986 2.126579 8.772597
C 0.882856 1.694008 7.921064
C 1.642257 2.572683 8.157964
C 1.632238 3.287896 9.053393
C 1.085366 2.477804 8.888006
C 1.961696 1.482934 8.276880
C 2.291369 2.466261 8.158658
C 2.563424 2.928725 8.992079
C 2.194528 2.470485 9.083995
C 3.035607 1.853188 8.246966
C 3.592011 2.763473 8.212736
C 3.552802 3.264246 8.925513
C 2.941710 2.477089 8.815180
C 3.857429 1.705118 8.220989
C 4.347378 2.782958 8.241616
C 4.492877 3.238437 8.859370
C 3.893308 2.460156 8.880379
C 4.913158 1.610925 8.013387
C 5.580226 2.815429 8.158112
C 5.573465 3.201123 8.854960
C 5.006356 2.417819 8.897633
C 6.142687 1.669911 8.220448
C 6.307315 2.497836 8.143940
C 6.459730 3.287026 9.097656
C 6.031546 2.549169 8.988055
C 7.095243 1.677499 8.001822
C 7.313024 2.703428 8.327467
C 7.594832 3.275758 9.104408
C 6.947259 2.335075 8.914615
C 7.841732 1.858384 8.235935
C 8.373348 2.449228 8.152362
C 8.433875 3.231912 8.808900
C 7.940386 2.460619 8.975840
C 0.033473 3.437546 8.286000
C 0.521944 4.570831 8.129333
C 0.516877 4.772596 8.994651
C 0.000176 3.848378 8.825726
C 0.846552 3.441115 8.206052
C 1.449914 4.214034 8.095633
C 1.452414 4.867815 9.124012
C 0.820894 4.056213 9.058254
C 1.948263 3.329329 8.244122
C 2.388000 4.368081 8.340475
C 2.575153 4.764237 8.985034
C 1.886299 3.972025 8.825359
C 2.978842 3.521830 8.070520
C 3.663724 4.240474 8.376267
C 3.477506 4.697490 8.938187
C 2.840673 4.204975 9.149778
C 3.918258 3.287198 8.089156
C 4.541383 4.354597 8.070672
C 4.602411 4.850519 9.118021
C 4.121073 4.006040 9.141350
C 5.047016 3.680718 8.335332
C 5.524779 4.485241 8.211173
C 5.418071 4.978163 9.113911
C 4.999117 3.851861 8.827139
C 6.183377 3.382438 8.225815
C 6.490729 4.280255 8.272796
C 6.383581 4.804875 8.889346
C 6.123704 3.958123 8.973357
C 6.921984 3.444639 8.174530
C 7.458023 4.139553 8.204624
C 7.479728 4.799612 8.964679
C 7.069165 3.890126 8.911545
C 7.967735 3.578243 7.953710
C 8.715491 4.221493 8.273938
C 8.396315 4.804891 8.928344
C 7.917770 3.883365 9.118525
C 0.063480 5.368051 8.369342
C 0.648886 6.237078 8.022164
C 0.437528 6.693084 9.064203
C 0.063695 5.891185 9.220148
C 1.004116 5.044212 8.311073
C 1.464388 5.844238 8.069202
C 1.543520 6.475652 8.924581
C 1.096510 5.724058 8.871863
C 2.201914 5.336332 8.183261
C 2.524589 6.204178 7.988698
C 2.679481 6.637779 8.902996
C 2.006841 5.603737 8.994657
C 3.242491 5.169584 8.046924
C 3.403271 6.262653 8.158350
C 3.661112 6.688599 8.872704
C 2.982531 5.908673 9.088108
C 4.030174 5.195586 8.002417
C 4.598838 6.117989 8.120549
C 4.384282 6.564621 8.957897
C 4.045895 5.558193 8.846838
C 5.076345 5.308058 8.259839
C 5.611135 5.951529 8.082915
C 5.533823 6.512222 8.825664
C 5.090042 6.071298 8.854334
C 5.883446 5.027287 8.254784
C 6.409647 5.958081 8.160174
C 6.416325 6.719919 9.127943
C 5.876791 5.588274 8.927202
C 6.953866 5.326128 8.332932
C 7.338076 5.951935 8.209511
C 7.477716 6.446846 9.021743
C 6.817495 5.790763 9.042469
C 7.939715 5.272093 8.110017
C 8.447761 5.990089 8.399492
C 8.630899 6.798815 8.933132
C 7.906577 5.719878 9.186563
C 0.014166 6.959240 8.199463
C 0.556221 7.696904 8.141435
C 0.385710 8.454670 9.175591
C 0.021844 7.629358 8.886861
C 1.156496 6.814670 8.036647
C 1.539940 7.929953 8.031040
C 1.328629 8.282622 8.778054
C 0.828637 7.410760 8.943683
C 1.874855 6.781647 8.183406
C 2.500783 7.608441 8.148428
C 2.734806 8.488194 9.138914
C 1.929986 7.694962 8.982698
C 3.076571 6.917434 8.002241
C 3.333499 7.650891 8.075618
C 3.647662 8.219946 8.931470
C 2.960298 7.706455 9.019055
C 4.108383 7.029336 8.321218
C 4.601650 7.731172 8.204767
C 4.380796 8.461568 9.020539
C 3.872295 7.710537 8.897664
C 4.985856 6.849488 8.309024
C 5.550167 7.967103 8.122150
C 5.525417 8.228774 9.048224
C 4.833380 7.594020 9.047882
C 6.088885 6.787330 8.020289
C 6.657741 7.820629 8.181948
C 6.634836 8.173797 8.935913
C 5.908841 7.333999 8.905605
C 6.886096 6.785382 8.055893
C 7.491033 7.983413 8.059707
C 7.475809 8.328941 8.781288
C 6.900506 7.588107 9.107349
C 8.137032 6.912891 8.173989
C 8.278498 7.765594 8.182408
C 8.649046 8.331322 9.126166
C 7.986845 7.630307 9.071454
C 0.114966 0.221685 0.679054
C 0.397483 0.768581 0.721629
C 0.459485 1.473651 1.327105
C 0.078810 0.453016 1.206139
C 1.008690 0.008132 0.811608
C 1.520150 0.854837 0.502682
C 1.556125 1.443157 1.299208
C 0.927419 0.418977 1.394828
C 2.019887 0.005206 0.483366
C 2.540981 1.057539 0.743293
C 2.624312 1.382532 1.517760
C 2.202411 0.506634 1.472782
C 3.038908 0.022143 0.393668
C 3.491950 0.983344 0.640751
C 3.490571 1.527433 1.377538
C 3.154815 0.601666 1.293109
C 4.076543 0.007253 0.545101
C 4.387501 0.858524 0.731629
C 4.343338 1.558581 1.475502
C 4.009068 0.499301 1.355085
C 5.025832 0.019306 0.779644
C 5.382050 0.980897 0.731529
C 5.495451 1.539711 1.433675
C 4.939946 0.523123 1.288393
C 6.172986 0.118423 0.457027
C 6.458203 0.741800 0.436725
C 6.586995 1.589779 1.355394
C 6.225756 0.615912 1.570949
C 6.952881 0.184407 0.498604
C 7.357287 0.875415 0.696933
C 7.481657 1.360499 1.234071
C 6.841987 0.604336 1.429630
C 8.105771 0.096336 0.830063
C 8.445458 0.894084 0.453898
C 8.355876 1.316178 1.463752
C 8.012379 0.787372 1.573195
C 0.049640 1.620553 0.863319
C 0.394216 2.489252 0.616649
C 0.493014 3.136403 1.537977
C 0.033977 2.394623 1.586635
C 0.979668 1.645898 0.554911
C 1.383563 2.507906 0.706378
C 1.616869 3.395769 1.290509
C 0.880333 2.201762 1.408591
C 2.055477 1.510435 0.616595
C 2.329922 2.515737 0.468286
C 2.578891 3.131039 1.433118
C 1.968651 2.358781 1.228043
C 3.074862 1.670571 0.721491
C 3.621364 2.664314 0.499613
C 3.369433 3.057881 1.510108
C 2.775789 2.227606 1.612433
C 4.006424 1.643882 0.592630
C 4.422567 2.509519 0.561495
C 4.458396 2.999480 1.388557
C 4.189985 2.346314 1.645009
C 4.824195 1.785484 0.471197
C 5.367937 2.535397 0.759791
C 5.417328 3.113967 1.631618
C 5.000213 2.270456 1.395653
C 6.149587 1.743832 0.650689
C 6.358666 2.452449 0.582947
C 6.544721 3.178582 1.469943
C 5.906659 2.112016 1.436589
C 7.031502 1.456982 0.630028
C 7.317542 2.552819 0.609819
C 7.532630 3.122448 1.496509
C 7.040889 2.513692 1.427355
C 8.143767 1.712383 0.441658
C 8.601900 2.652170 0.474889
C 8.567512 2.989725 1.324823
C 8.209109 2.228898 1.455630
C 0.207104 3.382419 0.695459
C 0.450180 4.518328 0.758559
C 0.501929 4.734853 1.188519
C 0.000663 3.952364 1.542041
C 1.019215 3.258462 0.634877
C 1.452972 4.421061 0.793157
C 1.580732 4.789415 1.437403
C 0.774279 4.018250 1.438954
C 1.933535 3.285114 0.552546
C 2.545406 4.096542 0.607676
C 2.534075 4.977222 1.511894
C 2.149082 4.121573 1.296112
C 3.213933 3.336735 0.685794
C 3.293886 4.416010 0.585408
C 3.517016 5.002697 1.738144
C 2.999177 4.080639 1.162371
C 3.995785 3.384252 0.557729
C 4.313579 4.221658 0.675431
C 4.331584 4.815338 1.376399
C 4.042032 4.042681 1.353792
C 5.032103 3.568335 0.422628
C 5.607311 4.500975 0.779808
C 5.734653 4.957640 1.295008
C 5.093179 4.155864 1.486055
C 6.123537 3.480810 0.617038
C 6.404428 4.207168 0.541519
C 6.325294 4.851163 1.504853
C 5.854051 3.890088 1.408817
C 7.041505 3.557369 0.621943
C 7.648971 4.275031 0.565416
C 7.392393 4.809796 1.518623
C 6.930503 3.984896 1.444048
C 8.226108 3.365617 0.756320
C 8.421933 4.312811 0.391520
C 8.481579 5.094857 1.586435
C 8.073236 3.962682 1.428382
C 0.015655 5.353081 0.771587
C 0.492458 6.036928 0.671345
C 0.441373 6.820192 1.407686
C 0.090267 5.688381 1.239537
C 0.850941 5.445530 0.668189
C 1.631452 6.061201 0.462488
C 1.508989 6.552709 1.311490
C 0.988711 5.740498 1.346523
C 1.917846 5.075307 0.745594
C 2.474823 6.108734 0.582855
C 2.541087 6.790359 1.265036
C 1.855939 5.912500 1.429001
C 3.035645 5.239342 0.564865
C 3.421402 6.086341 0.525770
C 3.441308 6.706939 1.481695
C 3.023419 5.818298 1.459766
C 3.798531 5.143773 0.666717
C 4.305596 5.965694 0.727860
C 4.440662 6.621605 1.172224
C 3.910054 5.718704 1.278739
C 4.953124 5.014424 0.549824
C 5.501228 5.911560 0.800246
C 5.580666 6.705802 1.677433
C 5.060978 5.932765 1.583621
C 5.911494 5.338711 0.404486
C 6.586639 6.113681 0.559168
C 6.460509 6.797188 1.217223
C 6.133224 5.671534 1.490368
C 6.799142 5.253606 0.736813
C 7.366126 5.973676 0.694392
C 7.530081 6.587035 1.513893
C 7.062024 5.789895 1.433781
C 8.015427 5.093391 0.738275
C 8.467414 5.901752 0.604187
C 8.422102 6.667154 1.628546
C 8.057807 5.866616 1.563624
C 0.158926 6.951526 0.560207
C 0.342353 7.803495 0.778738
C 0.658586 8.400432 1.481523
C 0.111527 7.350872 1.349800
C 1.026563 6.857784 0.754946
C 1.612466 7.876157 0.740464
C 1.379295 8.501114 1.359607
C 1.084458 7.476893 1.494456
C 1.937910 6.874570 0.802615
C 2.503908 7.770736 0.629420
C 2.479144 8.435623 1.601872
C 2.133695 7.503834 1.562459
C 2.922517 6.931951 0.566784
C 3.354098 7.725136 0.397175
C 3.535504 8.434858 1.551623
C 3.066983 7.463769 1.576087
C 4.011117 6.734415 0.830082
C 4.690839 7.836289 0.604973
C 4.398569 8.313437 1.447742
C 4.124763 7.307614 1.485172
C 4.947148 7.216257 0.513679
C 5.332799 7.855456 0.560370
C 5.357257 8.401310 1.375548
C 5.232131 7.584754 1.338732
C 5.996021 6.872095 0.366296
C 6.620774 7.932319 0.649064
C 6.303234 8.414636 1.473794
C 5.939276 7.657701 1.456843
C 6.903087 6.918835 0.623690
C 7.613809 7.863336 0.398952
C 7.623780 8.529074 1.485821
C 6.859700 7.679230 1.293134
C 8.082798 6.936056 0.669284
C 8.467630 7.797154 0.572348
C 8.483363 8.439342 1.219498
C 7.896952 7.418211 1.533578
C 0.390433 0.185086 2.101541
C 0.484803 0.889284 2.333504
C 0.476324 1.577557 3.257777
C 0.139858 0.587532 3.245920
C 0.795798 0.182791 2.309116
C 1.368767 0.885251 2.196912
C 1.504507 1.397224 3.103100
C 0.950534 0.556298 3.063269
C 2.007454 0.082797 2.030228
C 2.569258 0.844016 2.218337
C 2.609956 1.371049 2.962470
C 1.886890 0.443927 3.086435
C 2.803143 0.013756 2.281568
C 3.635082 1.076669 2.219480
C 3.444436 1.478178 3.002375
C 2.788489 0.528382 3.187721
C 4.287025 0.084122 2.210898
C 4.529111 0.994664 2.296979
C 4.550722 1.439615 2.899956
C 4.132770 0.634580 3.093675
C 4.830465 0.014568 2.313281
C 5.303520 0.891305 2.395821
C 5.468450 1.300713 3.194996
C 5.070476 0.500881 2.865460
C 5.965035 0.178302 2.339664
C 6.295472 0.926268 2.193779
C 6.484772 1.300131 3.037669
C 6.101065 0.631640 3.169935
C 6.903948 0.008637 2.066892
C 7.537259 0.771210 2.418777
C 7.511575 1.531377 3.021625
C 6.796177 0.621740 3.024814
C 7.948413 0.073226 2.001232
C 8.653566 0.699613 2.254444
C 8.529977 1.478194 3.143875
C 7.864283 0.746361 3.064056
C 0.032945 1.861592 2.094271
C 0.647687 2.740692 2.366592
C 0.732611 3.079484 2.950788
C 0.094643 2.212325 3.072207
C 0.878380 1.633367 2.087483
C 1.732996 2.628563 2.152334
C 1.296729 3.332953 2.938616
C 1.040993 2.222083 3.119600
C 1.909810 1.600744 2.334460
C 2.574940 2.410423 2.381603
C 2.667484 3.315423 3.062803
C 1.966040 2.298756 2.934429
C 2.868490 1.644449 2.219731
C 3.513912 2.682444 2.057520
C 3.613095 2.982222 3.119172
C 3.174949 2.436784 3.114326
C 3.861563 1.722550 2.176379
C 4.536669 2.689058 2.264540
C 4.576544 3.235792 3.096184
C 3.885277 2.170210 2.838881
C 5.033103 1.701115 2.367020
C 5.537371 2.757985 2.244867
C 5.733330 3.230623 3.124452
C 5.001550 2.038290 3.006338
C 6.156907 1.686283 2.230252
C 6.470514 2.553125 2.100913
C 6.743875 3.210303 3.133527
C 5.967661 2.495165 2.895854
C 7.061201 1.703021 2.484417
C 7.555674 2.704125 2.200817
C 7.589271 3.385007 3.110308
C 6.814934 2.297363 2.942582
C 7.946030 1.681577 2.287653
C 8.498758 2.710947 2.044324
C 8.607008 3.222560 3.043375
C 7.779517 2.373961 3.166227
C 0.194900 3.716946 2.151156
C 0.622920 4.428315 2.166041
C 0.538524 4.709879 3.108084
C 0.171131 4.054323 3.221210
C 1.130183 3.514480 2.184544
C 1.400693 4.486413 2.101942
C 1.579865 4.723911 3.119773
C 0.893381 3.888901 3.007165
C 1.960023 3.497159 2.251453
C 2.486165 4.247503 2.352820
C 2.564821 5.061201 3.136369
C 2.084461 3.956600 3.038214
C 3.011375 3.525112 2.449915
C 3.316208 4.289333 2.173509
C 3.434369 4.844802 2.810795
C 3.105170 3.781503 3.130825
C 4.226935 3.310419 2.276488
C 4.672662 4.308296 2.201501
C 4.324707 4.727603 3.000398
C 4.069822 4.145697 3.100507
C 5.125326 3.581541 2.338281
C 5.631993 4.475052 2.246749
C 5.615602 5.013599 3.221292
C 4.834982 4.073408 3.006422
C 5.905710 3.471439 2.457650
C 6.493975 4.403895 2.170661
C 6.563515 4.633130 3.118948
C 6.183594 3.990361 2.932337
C 6.876719 3.358977 2.122684
C 7.340960 4.324499 2.132809
C 7.394339 4.919896 2.984289
C 6.862850 4.166374 3.177023
C 7.920420 3.660712 2.220088
C 8.358985 4.289565 2.287907
C 8.723734 4.941492 3.109052
C 7.987505 4.250136 3.239218
C 0.126194 5.421961 2.248474
C 0.543158 5.972562 2.272353
C 0.378464 6.742171 3.191663
C 0.234250 5.762283 3.328823
C 0.936738 5.311442 2.326682
C 1.304471 6.193615 2.366330
C 1.438242 6.683157 3.317689
C 1.029581 5.816611 3.305964
C 2.109793 5.248735 2.196194
C 2.470665 6.276579 2.304987
C 2.442121 6.564411 3.228145
C 1.846977 5.575321 3.019852
C 2.949778 5.267342 2.176550
C 3.706670 5.935756 2.265995
C 3.436118 6.655998 3.266023
C 3.067004 5.617844 3.215501
C 3.881786 4.996511 2.390591
C 4.437156 5.954363 2.400756
C 4.423144 6.705951 3.160051
C 4.039487 5.846249 2.923419
C 4.763386 5.105458 2.243280
C 5.415831 5.884822 2.360226
C 5.622004 6.532516 3.053663
C 4.906997 5.578291 2.964973
C 5.999980 5.195775 2.488804
C 6.278075 6.068563 2.255824
C 6.609951 6.547393 2.833320
C 5.951604 5.799300 2.858856
C 6.926871 5.418126 2.306546
C 7.483627 6.185406 2.300127
C 7.550912 6.581503 2.938594
C 7.205168 5.789383 3.029377
C 7.938860 5.138954 2.297629
C 8.511494 6.127864 2.120836
C 8.701255 6.551605 2.938290
C 7.922407 5.615018 3.130721
C 0.282771 6.890550 2.384314
C 0.560023 7.905314 2.300398
C 0.604371 8.223167 3.187136
C 0.014885 7.304033 3.141492
C 1.099927 6.831837 2.391324
C 1.366967 7.743813 2.275791
C 1.534590 8.311371 3.076665
C 0.954868 7.276951 3.135410
C 1.958112 6.740510 2.229615
C 2.388839 7.688269 2.353548
C 2.364893 8.255905 2.895097
C 2.055645 7.460953 3.253634
C 2.898818 6.969824 2.185745
C 3.472825 7.827023 2.225293
C 3.513927 8.629683 2.967626
C 2.983872 7.548565 3.218305
C 3.985423 6.818457 2.526592
C 4.495037 7.843434 2.174059
C 4.370356 8.394292 3.204500
C 3.962261 7.455889 2.997971
C 4.870348 6.958059 2.186354
C 5.294790 7.675010 2.358575
C 5.457003 8.505829 3.220414
C 4.880314 7.283254 2.987088
C 5.763516 6.873026 2.211838
C 6.343928 7.852992 2.329562
C 6.429686 8.354923 2.924680
C 6.033233 7.399370 3.321263
C 6.831594 6.897363 2.200572
C 7.401368 7.637951 2.411844
C 7.431582 8.381698 3.284141
C 7.191563 7.603026 3.126285
C 8.218891 6.799576 2.237809
C 8.384733 7.754106 2.409799
C 8.547490 8.499522 2.876925
C 8.182632 7.659264 3.114522
C 0.067498 0.061688 3.654004
C 0.585747 0.687287 3.730720
C 0.403580 1.427729 4.724611
C 0.032751 0.681099 4.770819
C 1.050307 0.152686 3.579353
C 1.328402 0.814625 3.772077
C 1.544266 1.682387 4.619854
C 0.875253 0.632828 4.875286
C 1.915488 0.019631 4.010239
C 2.527405 0.774513 3.872714
C 2.417227 1.430148 4.719558
C 2.202980 0.542114 4.753567
C 3.247574 0.022462 3.990552
C 3.340169 1.019317 4.016454
C 3.413202 1.372068 4.622102
C 2.882273 0.632851 4.498869
C 4.025628 0.235662 3.735033
C 4.685028 0.868183 3.707418
C 4.629991 1.314041 4.755747
C 4.007470 0.559820 4.596730
C 5.061297 0.104326 3.857206
C 5.561201 0.725322 3.808616
C 5.637875 1.420131 4.578302
C 5.198550 0.664655 4.664578
C 6.024964 0.109601 3.767277
C 6.350626 0.893370 3.955655
C 6.397733 1.294881 4.488568
C 5.901263 0.457252 4.727394
C 7.016055 0.026605 3.900774
C 7.441869 0.849031 3.742115
C 7.544387 1.366554 4.839313
C 6.906295 0.692200 4.644877
C 7.958479 0.075174 3.889764
C 8.600435 0.847566 3.867128
C 8.539065 1.316792 4.522006
C 7.776952 0.650775 4.875968
C 0.036948 1.712976 3.639722
C 0.421690 2.398896 3.904323
C 0.577780 3.210566 4.837236
C 0.081650 2.277358 4.864751
C 0.823607 1.770459 3.681776
C 1.715983 2.670534 3.919381
C 1.429697 3.331695 4.888074
C 0.956388 2.191042 4.701696
C 2.160391 1.694094 3.987056
C 2.489793 2.661244 4.016704
C 2.582240 3.177577 4.819803
C 1.931472 2.213669 4.590722
C 3.099008 1.848176 4.097233
C 3.387894 2.712245 3.811246
C 3.419752 3.163758 4.640300
C 2.818444 2.338484 4.822704
C 3.819697 1.640053 3.722648
C 4.642158 2.451438 3.853350
C 4.595953 3.412576 4.723694
C 4.023900 2.293957 4.765063
C 4.939957 1.639232 3.900410
C 5.633378 2.523178 3.886205
C 5.553516 3.173921 4.589002
C 4.922972 2.410464 4.638017
C 6.030980 1.958645 3.812418
C 6.620147 2.451063 3.950928
C 6.546936 3.215779 4.713155
C 5.974020 2.336261 4.848177
C 6.861061 1.859869 4.063948
C 7.341247 2.623697 3.843539
C 7.362952 3.108451 4.489506
C 7.037878 2.172697 4.725111
C 7.990737 1.844331 3.783785
C 8.559102 2.402384 3.878327
C 8.463357 3.153360 4.712237
C 8.088817 2.273220 4.770243
C 0.006793 3.577701 4.099207
C 0.689557 4.274557 4.008586
C 0.341860 4.702269 4.554626
C 0.074642 4.016008 4.753619
C 0.929391 3.537021 3.736437
C 1.368738 4.422043 3.752115
C 1.526921 4.742134 4.642766
C 1.011137 3.899369 4.497543
C 2.013846 3.547533 3.882913
C 2.692700 4.404769 3.869947
C 2.382027 4.808689 4.487683
C 1.837015 3.975930 4.620100
C 3.107572 3.637881 3.914997
C 3.380881 4.485295 3.745630
C 3.695890 5.090577 4.799799
C 3.068768 3.831605 4.765208
C 4.009621 3.468079 4.104722
C 4.637744 4.152517 3.904654
C 4.482530 5.062887 4.744650
C 4.086269 4.071135 4.864889
C 4.956917 3.372129 3.861833
C 5.467752 4.238300 3.886323
C 5.579067 4.787623 4.644107
C 4.981122 3.862551 4.743402
C 5.771378 3.460763 4.049225
C 6.358847 4.230065 3.782917
C 6.610948 4.925968 4.546745
C 6.045323 4.171660 4.666189
C 7.143223 3.508216 3.966776
C 7.393999 4.458229 3.863271
C 7.551649 4.966604 4.434727
C 6.915824 3.924351 4.833878
C 7.791141 3.504842 3.857305
C 8.359607 4.542157 3.917186
C 8.397550 4.768802 4.691099
C 7.792276 4.058419 4.652904
C 0.036397 5.223236 3.852623
C 0.483239 5.954668 3.729778
C 0.535739 6.781235 4.719331
C 0.270770 5.654581 4.688895
C 1.021823 5.326874 3.966397
C 1.343295 6.161527 3.997725
C 1.633582 6.859770 4.597441
C 0.955229 5.745901 4.731867
C 2.010552 5.257286 3.920590
C 2.376256 6.145892 3.965516
C 2.535758 6.836392 4.689315
C 1.943982 5.940773 4.631169
C 2.805394 5.240641 3.782634
C 3.432244 6.201148 3.833254
C 3.422325 6.533409 4.656683
C 3.173902 5.962725 4.736128
C 3.883636 5.196630 3.717519
C 4.509658 6.232744 3.845451
C 4.348672 6.701502 4.736101
C 3.920542 5.764038 4.587297
C 5.059581 5.052994 4.031344
C 5.593438 6.135447 3.934419
C 5.498464 6.596982 4.479831
C 4.834860 5.900806 4.790776
C 5.906524 5.368261 3.910728
C 6.523397 5.902439 3.889928
C 6.397163 6.761632 4.588348
C 6.022236 5.780506 4.969127
C 6.987667 5.369022 3.829844
C 7.396800 6.021985 4.009547
C 7.340543 6.773178 4.740527
C 7.042748 5.917937 4.634758
C 7.910672 5.240482 3.747679
C 8.548366 5.983136 4.055318
C 8.329617 6.633606 4.680779
C 7.771889 5.581269 4.601854
C 0.075608 6.993546 4.012085
C 0.542713 7.589535 3.816436
C 0.445821 8.376606 4.785508
C 0.000807 7.587006 4.764270
C 1.012159 6.902395 3.816227
C 1.476959 7.857248 3.736980
C 1.263486 8.419296 4.642729
C 0.836662 7.683935 4.775905
C 1.848107 6.898125 3.954888
C 2.484752 7.616493 3.740142
C 2.492744 8.543238 4.806494
C 2.033541 7.448116 4.737502
C 2.952328 6.878347 3.936512
C 3.467750 7.672892 3.655279
C 3.469503 8.192442 4.536705
C 2.751531 7.436083 4.649201
C 3.929106 6.769102 3.862213
C 4.292286 7.830367 3.879308
C 4.577092 8.322696 4.540373
C 4.074245 7.481752 4.693596
C 4.990361 6.838572 3.899452
C 5.303960 7.881501 3.828819
C 5.484637 8.268711 4.663760
C 4.790132 7.410013 4.745785
C 5.958262 7.088935 3.756079
C 6.323562 7.783282 3.950231
C 6.394340 8.261398 4.520191
C 5.902123 7.732092 4.609976
C 6.936409 6.908997 3.773875
C 7.434066 8.013095 3.789300
C 7.497886 8.520035 4.586112
C 7.082707 7.624441 4.873209
C 8.144399 7.000845 3.764419
C 8.696198 7.713500 3.872510
C 8.434438 8.223114 4.495698
C 7.973484 7.528957 4.847895
C 0.068368 0.269383 5.662313
C 0.354983 0.876247 5.403136
C 0.453150 1.422341 6.121748
C 0.071344 0.749944 6.233156
C 1.041019 0.179984 5.604217
C 1.545885 0.777827 5.541930
C 1.438261 1.442598 6.168094
C 1.041431 0.591360 6.280457
C 1.958188 0.209024 5.673790
C 2.450941 0.869544 5.640350
C 2.480632 1.387289 6.479754
C 1.907866 0.591545 6.093103
C 3.145573 0.158329 5.301078
C 3.519665 0.838832 5.685531
C 3.715742 1.431185 6.216740
C 2.931146 0.575146 6.209549
C 4.022456 0.022287 5.652992
C 4.573738 0.814784 5.508219
C 4.433439 1.667436 6.312291
C 3.782645 0.687235 6.325251
C 5.219525 0.028626 5.675848
C 5.308351 0.761814 5.569626
C 5.490921 1.559451 6.284594
C 5.029067 0.740938 6.299924
C 6.175188 0.043450 5.499461
C 6.545702 0.697887 5.562740
C 6.418350 1.329697 6.277700
C 6.039720 0.577372 6.156173
C 7.036883 0.134661 5.508670
C 7.403541 0.812782 5.668120
C 7.484007 1.580339 6.373898
C 7.051764 0.527925 6.059705
C 8.105808 0.066900 5.359079
C 8.536751 0.869519 5.562583
C 8.802250 1.413169 6.373592
C 8.161601 0.408156 6.228229
C 0.034784 1.721734 5.314681
C 0.382072 2.548833 5.650222
C 0.498427 3.393600 6.459171
C 0.059246 2.099141 6.164484
C 0.886130 1.644674 5.399480
C 1.352707 2.721056 5.409442
C 1.429717 3.216761 6.504152
C 1.234745 2.380094 6.462142
C 1.946741 1.783540 5.692328
C 2.492197 2.555712 5.581200
C 2.706766 3.382393 6.238143
C 1.806361 2.355937 6.474963
C 2.840301 1.706377 5.494516
C 3.209546 2.570600 5.479239
C 3.458456 3.418264 6.400096
C 3.111636 2.112037 6.259278
C 4.061071 1.573609 5.355603
C 4.678655 2.682796 5.581457
C 4.501181 3.179080 6.559456
C 3.931709 2.277849 6.372363
C 5.000832 1.579399 5.473151
C 5.222139 2.641643 5.629220
C 5.366707 3.284779 6.382148
C 4.845190 2.316987 6.440905
C 5.961315 1.917116 5.342378
C 6.353403 2.761903 5.401385
C 6.527912 2.918834 6.320021
C 6.122536 2.357535 6.480345
C 6.900099 1.793018 5.546383
C 7.436713 2.597746 5.451788
C 7.421288 3.167909 6.108703
C 6.883913 2.468976 6.192026
C 8.019403 1.833963 5.524273
C 8.632277 2.565538 5.609054
C 8.550599 3.297589 6.337985
C 8.011607 2.153640 6.403482
C 0.228024 3.477097 5.422362
C 0.323896 4.300373 5.483404
C 0.420222 4.833078 6.112445
C 0.002971 4.173319 6.406564
C 1.153352 3.319704 5.404574
C 1.476045 4.394705 5.410034
C 1.443668 4.902180 6.216239
C 0.933479 3.976523 6.497620
C 1.768730 3.589303 5.432589
C 2.614546 4.279511 5.529855
C 2.553175 4.987286 6.416299
C 1.895216 4.153598 6.335204
C 3.152259 3.493861 5.585746
C 3.485347 4.374039 5.740773
C 3.400590 5.075544 6.355494
C 2.907439 4.295933 6.227513
C 4.053968 3.576811 5.384613
C 4.431286 4.162409 5.355127
C 4.408455 4.903514 6.314100
C 3.937165 4.037931 6.210251
C 5.072883 3.289322 5.549715
C 5.466145 4.180169 5.699987
C 5.567882 4.923644 6.310241
C 4.910826 4.097986 6.357114
C 6.027185 3.631328 5.400872
C 6.509631 4.171726 5.570149
C 6.209331 4.907697 6.487877
C 6.042728 4.050066 6.192841
C 7.067880 3.524647 5.346018
C 7.656498 4.543894 5.504755
C 7.562812 5.028936 6.338074
C 7.062361 3.848972 6.341184
C 7.852627 3.428961 5.721771
C 8.335208 4.255377 5.612357
C 8.725743 4.841976 6.284424
C 7.998354 3.892700 6.205166
C 0.042716 5.169367 5.622801
C 0.460874 6.135000 5.698254
C 0.435689 6.472883 6.545008
C 0.068559 5.837282 6.297760
C 0.878531 5.208767 5.739520
C 1.485461 6.227995 5.550939
C 1.693232 6.619453 6.245704
C 0.792943 5.622969 6.360433
C 2.107205 5.000195 5.492535
C 2.398764 6.055256 5.706875
C 2.498149 6.755931 6.357349
C 2.114266 5.792618 6.352146
C 2.916778 5.220823 5.493218
C 3.653340 6.097080 5.665591
C 3.501616 6.638963 6.128305
C 3.080578 5.919645 6.332443
C 4.097194 5.062554 5.466829
C 4.488916 6.012969 5.743138
C 4.574338 6.821442 6.542206
C 4.159090 5.643541 6.373905
C 5.084510 5.410935 5.527505
C 5.631558 5.948958 5.552119
C 5.572644 6.403660 6.353110
C 4.904438 5.550350 6.442776
C 5.929294 5.266399 5.371884
C 6.546302 5.949838 5.447951
C 6.577809 6.493295 6.370620
C 5.943009 5.683069 6.215705
C 7.154260 5.201783 5.382915
C 7.567884 6.095287 5.494597
C 7.365858 6.772132 6.228664
C 6.930577 5.574115 6.446789
C 7.874756 5.297241 5.508123
C 8.435728 6.221145 5.672991
C 8.451831 6.745791 6.424933
C 7.938754 5.712636 6.273451
C 0.171442 6.800645 5.644018
C 0.423603 7.637574 5.321884
C 0.447391 8.463513 6.092318
C 0.009152 7.693266 6.333368
C 1.116566 6.946744 5.332172
C 1.544903 7.632828 5.477162
C 1.362802 8.290756 6.161488
C 0.887493 7.522930 6.545741
C 2.017258 6.749900 5.532790
C 2.591190 7.822064 5.463413
C 2.378181 8.491777 6.264456
C 2.053586 7.620039 6.148183
C 3.055513 6.708603 5.548554
C 3.617501 7.844972 5.439290
C 3.524439 8.392621 6.123242
C 2.946971 7.518174 6.086339
C 4.014319 7.078674 5.342223
C 4.468159 7.922183 5.727357
C 4.438189 8.382772 6.104384
C 3.911862 7.515921 6.497370
C 4.772726 6.968504 5.581145
C 5.468396 7.912887 5.516725
C 5.724524 8.184572 6.334790
C 5.095323 7.305560 6.339741
C 5.865690 6.892813 5.579423
C 6.490287 7.944385 5.479881
C 6.524725 8.354417 6.073617
C 6.175890 7.608373 6.216706
C 7.104201 6.973936 5.359399
C 7.572760 8.035747 5.549263
C 7.498042 8.271720 6.191387
C 7.063829 7.429076 6.233556
C 8.010439 7.182951 5.417620
C 8.363961 7.831444 5.461403
C 8.365918 8.481507 6.147116
C 7.911915 7.290575 6.322899
C 0.120401 0.068210 7.292782
C 0.471475 1.045064 7.367823
C 0.436777 1.547800 7.834494
C 0.199963 0.576371 8.044146
C 1.017479 0.171009 7.199746
C 1.553903 1.044670 7.270428
C 1.434401 1.609315 8.147721
C 0.964418 0.524547 7.911238
C 2.132561 0.200994 6.903452
C 2.617434 0.637761 7.105225
C 2.208108 1.451600 7.972150
C 1.822490 0.670831 8.066455
C 3.109756 0.163358 7.078988
C 3.508361 0.818339 7.095727
C 3.496068 1.584062 8.003632
C 3.075147 0.586299 8.217633
C 4.096905 0.240010 7.340806
C 4.445474 0.748460 7.255787
C 4.339245 1.444498 8.231698
C 3.998727 0.569855 7.903609
C 4.803337 0.017601 7.209529
C 5.462542 1.044636 7.097769
C 5.446602 1.483402 7.836575
C 5.078877 0.501711 7.994033
C 5.940958 0.145627 7.158756
C 6.456390 0.689998 7.198951
C 6.657292 1.580241 7.950547
C 6.071927 0.728104 7.980999
C 7.019628 0.009823 7.062777
C 7.688529 0.902064 7.216245
C 7.560746 1.430327 7.780515
C 7.091689 0.699523 7.918397
C 8.133686 0.071861 7.323094
C 8.413512 0.764850 7.232482
C 8.318974 1.475051 8.032638
C 8.144149 0.426890 7.977438
C 0.096145 1.966585 7.159142
C 0.419087 2.459634 7.070213
C 0.376304 3.269751 7.791422
C 0.039674 2.220628 8.008346
C 1.046973 1.639092 7.047254
C 1.505301 2.740294 7.290490
C 1.477965 2.971467 7.804206
C 0.980710 2.225567 7.811611
C 1.889041 1.791309 7.245647
C 2.369860 2.719175 6.919640
C 2.429460 3.087197 7.758683
C 1.908290 2.294358 7.795117
C 2.978558 1.554723 7.195119
C 3.377198 2.671313 7.092516
C 3.504679 3.313161 7.870984
C 3.042937 2.325378 7.875257
C 3.839033 1.638016 7.090661
C 4.657088 2.565514 7.309809
C 4.392263 2.968743 7.879228
C 4.010469 2.441013 7.901159
C 4.907951 1.863236 7.053804
C 5.727450 2.591792 7.305903
C 5.468523 3.344947 7.869711
C 5.027292 2.214710 8.208784
C 6.166599 1.689234 7.241317
C 6.404155 2.587857 7.169747
C 6.532913 3.037180 7.987137
C 6.030911 2.152438 8.021876
C 7.077549 1.579973 7.221795
C 7.528235 2.434818 7.096630
C 7.401164 3.127585 7.816620
C 6.919057 2.216589 8.114393
C 8.116703 1.651048 7.244898
C 8.508923 2.771985 7.117857
C 8.424147 3.147009 7.964442
C 7.990458 2.209923 7.982198
C 0.110097 3.528257 7.407017
C 0.439685 4.161083 7.019928
C 0.389585 4.936312 7.840538
C 0.218810 4.206210 8.062316
C 0.941318 3.453744 7.027300
C 1.732371 4.418327 7.124277
C 1.593784 5.069268 8.050722
C 0.905941 4.074959 7.840692
C 1.935927 3.394443 6.988457
C 2.578396 4.198732 7.085766
C 2.619070 4.885164 7.821634
C 1.991222 3.979023 7.781238
C 2.859645 3.369129 7.138151
C 3.416772 4.329702 7.095350
C 3.536914 4.939270 7.741892
C 3.063520 4.095234 7.790037
C 4.150843 3.403544 7.303987
C 4.604414 4.155271 7.149074
C 4.651090 4.971786 7.923345
C 3.921708 3.821451 8.050238
C 5.156904 3.537561 7.041085
C 5.499148 4.190339 7.354865
C 5.550332 5.123822 8.013899
C 5.058277 3.976277 8.080349
C 6.180865 3.356879 7.132187
C 6.582450 4.534662 7.246218
C 6.658590 4.850391 7.925940
C 6.184020 3.964118 8.038335
C 7.020422 3.258174 7.094148
C 7.570392 4.395590 7.368926
C 7.621739 4.939789 7.985355
C 6.837548 4.101217 7.920808
C 7.874564 3.508740 7.146598
C 8.517099 4.497040 7.211942
C 8.425215 4.794818 7.975315
C 7.838986 4.150024 8.069346
C 0.061054 5.007819 6.945295
C 0.434718 6.265278 7.279545
C 0.338423 6.780528 8.030681
C 0.090294 5.662888 8.095855
C 0.981751 5.183758 7.084600
C 1.649516 6.053909 7.044241
C 1.414768 6.385476 8.057014
C 0.920581 5.779634 7.962834
C 2.069113 5.161035 7.263404
C 2.314240 5.927807 7.137159
C 2.625676 6.596905 8.111028
C 1.891862 5.797401 7.707582
C 2.825980 5.140939 7.276767
C 3.270579 6.225733 7.224315
C 3.538937 6.807207 7.912010
C 2.989890 5.865663 7.828053
C 4.106815 5.251410 7.294862
C 4.427238 5.916426 7.027553
C 4.489133 6.707505 8.233752
C 3.810541 5.841924 8.085098
C 4.924601 5.020252 6.945067
C 5.671073 6.065390 6.960812
C 5.498031 6.483190 7.979751
C 5.068249 5.782727 8.165697
C 6.122939 5.246877 7.303190
C 6.392614 6.002968 7.020716
C 6.477449 6.502734 8.154898
C 6.057946 5.748892 8.026807
C 7.014008 5.157549 7.323821
C 7.498505 6.020012 7.223301
C 7.378618 6.471768 7.921231
C 7.059865 5.996046 7.802826
C 7.870612 5.196512 7.147411
C 8.405127 6.096804 6.975157
C 8.585806 6.527530 7.969704
C 8.139209 5.842658 8.120398
C 0.023164 6.923223 7.141865
C 0.533347 7.787760 7.056223
C 0.490280 8.413555 7.826308
C 0.112150 7.457201 7.844326
C 0.913775 6.895717 7.143811
C 1.709893 7.784410 7.045584
C 1.368450 8.559026 8.009857
C 0.937569 7.619153 8.160721
C 2.034953 7.043235 7.035344
C 2.472988 7.853621 6.865061
C 2.342599 8.434054 8.023511
C 1.876833 7.690950 7.847432
C 2.936953 6.767321 7.191267
C 3.727856 7.883624 7.101651
C 3.358578 8.536917 7.871264
C 2.898151 7.564175 8.029754
C 3.922408 7.040831 6.844442
C 4.464323 7.728330 7.203559
C 4.577085 8.243700 8.043899
C 4.034526 7.416445 8.076953
C 4.993357 6.963590 7.304275
C 5.515548 7.892310 7.069636
C 5.511795 8.495786 7.846391
C 5.245625 7.451836 8.098833
C 5.933637 6.929756 6.953913
C 6.443633 7.975424 7.131478
C 6.603408 8.238827 7.842051
C 5.981910 7.497808 8.064813
C 6.928327 6.901568 7.170863
C 7.530103 7.648375 7.252070
C 7.609708 8.404063 7.996335
C 7.103496 7.645377 7.758957
C 8.039097 7.143099 7.249528
C 8.368700 7.947030 7.042406
C 8.571058 8.388810 8.134446
C 7.825593 7.415495 7.914304
C 0.123014 0.003753 8.815627
C 0.371382 0.742422 8.859391
C 0.488429 1.522537 9.410813
C 0.233883 0.535688 9.320780
C 0.877091 0.096865 8.578492
C 1.475096 1.078546 8.747097
C 1.385802 1.292986 9.443321
C 0.959090 0.643870 9.487914
C 1.818259 0.105371 8.815914
C 2.412291 0.865112 8.630153
C 2.683891 1.291372 9.480038
C 1.846946 0.612370 9.576034
C 3.132567 0.001007 8.743590
C 3.508102 0.783493 8.828964
C 3.473500 1.307668 9.452467
C 3.109169 0.549266 9.570339
C 4.219338 0.130907 8.684213
C 4.589970 0.824461 8.774177
C 4.569628 1.524281 9.467533
C 3.972748 0.468607 9.503652
C 4.827936 0.110186 8.598110
C 5.545284 1.058511 8.836700
C 5.544268 1.413577 9.409339
C 4.996782 0.760363 9.337724
C 5.993857 0.010185 8.861624
C 6.369958 0.838777 8.867746
C 6.657862 1.612623 9.541984
C 5.773666 0.669411 9.430763
C 7.053557 0.005638 8.715678
C 7.526544 0.855757 8.722723
C 7.486991 1.428309 9.588871
C 7.004810 0.683241 9.416583
C 7.945610 0.024656 8.661984
C 8.590859 1.003513 8.968538
C 8.485807 1.269716 9.571697
C 7.799261 0.363867 9.481902
C 0.109212 1.752623 8.490698
C 0.426287 2.455776 8.654704
C 0.403395 3.263295 9.498672
C 0.344670 2.412740 9.531413
C 0.883853 1.711614 8.544678
C 1.662189 2.673138 8.876879
C 1.619169 2.970142 9.415604
C 1.021866 2.282599 9.540703
C 1.923966 1.590172 8.832103
C 2.545948 2.401349 8.693048
C 2.661785 3.135957 9.427407
C 2.223664 2.384063 9.572345
C 3.081558 1.638119 8.739362
C 3.652459 2.817180 8.918900
C 3.503488 3.276080 9.462805
C 3.080652 2.458410 9.557858
C 4.091960 1.798946 8.959601
C 4.579958 2.618296 8.729250
C 4.328191 3.106766 9.577992
C 4.128576 2.385906 9.412480
C 5.008022 1.523308 8.872294
C 5.518674 2.612361 8.570526
C 5.727894 3.187430 9.438212
C 5.124693 2.414809 9.551980
C 6.140203 1.714714 8.725862
C 6.510213 2.481291 8.778999
C 6.540871 2.994945 9.488659
C 5.851794 2.209457 9.500531
C 6.889714 1.693776 8.563743
C 7.599636 2.515131 8.553905
C 7.489210 3.018419 9.586802
C 6.684289 2.332239 9.486544
C 7.950460 1.802032 8.715666
C 8.341533 2.460282 8.835828
C 8.470396 3.154335 9.500024
C 8.036537 2.479060 9.370934
C 0.032165 3.427901 8.972938
C 0.447534 4.394896 8.607242
C 0.326233 4.954391 9.545198
C 0.252422 4.144376 9.504585
C 1.064835 3.515946 8.853158
C 1.597263 4.439445 8.987363
C 1.352200 4.970799 9.566377
C 1.118667 4.022468 9.521101
C 1.951982 3.630812 8.636987
C 2.470979 4.290382 8.786505
C 2.501789 4.870378 9.444443
C 1.818168 3.909376 9.502572
C 3.152096 3.494158 8.873494
C 3.296432 4.363669 8.981385
C 3.594041 5.077282 9.309900
C 3.198200 3.984188 9.524908
C 4.096565 3.492959 8.825827
C 4.672297 4.320162 9.022173
C 4.491557 5.214044 9.526449
C 3.889157 4.012381 9.536061
C 5.096703 3.363611 8.659093
C 5.569002 4.592333 8.733129
C 5.295860 5.050183 9.533208
C 4.952096 4.042452 9.504069
C 5.816602 3.587102 8.721543
C 6.530958 4.490828 8.696185
C 6.635282 4.711615 9.532058
C 6.205783 4.051564 9.351903
C 6.769082 3.477180 8.850369
C 7.517679 4.295054 8.696432
C 7.648297 4.891831 9.458769
C 7.047883 4.175260 9.519378
C 8.136059 3.480671 8.861233
C 8.492102 4.089247 8.734545
C 8.457321 5.052925 9.465487
C 7.799541 4.099545 9.537136
C 0.376095 5.168342 8.647042
C 0.288997 6.178115 8.894414
C 0.393634 6.613324 9.534133
C 0.098499 5.518428 9.516167
C 1.144202 5.084579 8.729683
C 1.437530 5.950617 8.832804
C 1.681189 6.698339 9.409380
C 1.028886 6.045604 9.538120
C 2.001218 5.375170 8.632573
C 2.550773 6.011896 8.825526
C 2.492187 6.474820 9.409277
C 1.765545 5.904950 9.415231
C 2.979699 5.371497 8.659934
C 3.317480 6.212209 8.931594
C 3.395149 6.707771 9.411462
C 3.030267 5.581062 9.590440
C 4.086426 5.092745 8.730528
C 4.582581 6.063624 8.550216
C 4.375641 6.824360 9.563606
C 4.008481 5.605711 9.553703
C 5.003688 4.991278 8.860268
C 5.624003 6.081403 8.933016
C 5.424804 6.706918 9.476228
C 5.072977 5.668448 9.570092
C 6.010690 5.025083 8.810103
C 6.305039 5.951333 8.880898
C 6.550593 6.796959 9.518992
C 6.154293 5.890829 9.513728
C 7.109972 5.213207 8.787291
C 7.583802 6.056385 8.924788
C 7.386445 6.611374 9.591246
C 7.116097 5.678506 9.494041
C 8.159943 5.302655 8.903717
C 8.310061 5.797241 8.726208
C 8.673026 6.556043 9.328448
C 8.189466 5.738330 9.523923
C 0.204317 6.972333 8.866631
C 0.383729 7.742245 8.592630
C 0.727370 8.467895 9.437462
C 0.013420 7.408752 9.338940
C 1.058268 6.907001 8.910398
C 1.443788 7.599184 8.840416
C 1.538433 8.310837 9.335990
C 0.907279 7.779838 9.547614
C 1.945562 6.857978 8.950687
C 2.645510 7.783875 8.799336
C 2.345068 8.321655 9.562217
C 2.050191 7.302622 9.447070
C 3.076776 6.942142 8.702669
C 3.471944 7.645339 8.898549
C 3.700513 8.389579 9.458390
C 2.961092 7.509103 9.485721
C 3.968746 7.086554 8.789773
C 4.422759 7.831746 8.681863
C 4.584653 8.291340 9.402461
C 3.854170 7.565608 9.587227
C 4.892178 6.944983 8.988017
C 5.597743 7.843573 8.932757
C 5.564662 8.326536 9.569078
C 5.362624 7.321884 9.566272
C 5.823586 6.796698 8.729886
C 6.549652 7.671097 8.898193
C 6.649284 8.579954 9.556430
C 5.800541 7.559511 9.508530
C 7.057736 7.092366 8.764185
C 7.617403 7.922286 8.725178
C 7.779777 8.189169 9.564306
C 6.861930 7.713800 9.478729
C 7.981772 6.930068 8.975798
C 8.498717 7.819602 8.974088
C 8.563576 8.116269 9.490668
C 8.013066 7.376168 9.384142
2160
Frame 10/10
C 0.298131 0.029469 0.321909
C 0.745775 0.841383 0.088223
C 0.527282 1.614927 0.836036
C 0.000796 0.743834 0.955366
C 1.285813 0.159890 0.173647
C 1.395677 0.767562 0.139025
C 1.751020 1.411299 0.860201
C 1.160285 0.682403 0.709837
C 2.077572 0.171011 0.083721
C 2.363577 0.905361 0.263074
C 2.551715 1.463346 1.007016
C 1.868214 0.556784 0.817191
C 2.789689 0.140087 0.109689
C 3.488911 0.763670 0.057261
C 3.397367 1.401426 0.745075
C 3.025214 0.741464 0.566665
C 3.823536 0.171060 0.173767
C 4.409014 0.710505 0.053323
C 4.527804 1.302463 0.746375
C 4.024824 0.364220 0.810419
C 4.787605 0.099956 0.148502
C 5.658728 0.883303 0.006563
C 5.273070 1.384117 0.787310
C 5.058774 0.542037 0.785477
C 6.153405 0.312790 0.095093
C 6.514904 0.537365 0.094183
C 6.553258 1.545837 0.856633
C 6.025331 0.334140 0.790268
C 7.267020 0.066234 0.036365
C 7.363260 0.872709 0.206688
C 7.760680 1.477531 0.861916
C 7.146269 0.636442 1.028758
C 8.077649 0.121625 0.006413
C 8.639585 1.138009 0.084523
C 8.407447 1.509899 0.663042
C 7.661546 0.638214 0.677289
C 0.456701 1.598467 0.035128
C 0.461417 2.868375 0.155041
C 0.400023 3.022442 0.820291
C 0.167055 2.045619 0.872375
C 0.833913 1.620232 0.154930
C 1.325952 2.428918 0.026889
C 1.350811 3.272078 0.846463
C 1.006403 2.435418 0.747413
C 1.876126 1.473035 0.017957
C 2.574450 2.552640 0.161001
C 2.605621 3.121951 0.908331
C 1.967924 2.248678 0.666641
C 3.024627 1.799223 0.043184
C 3.744500 2.533502 0.040089
C 3.589443 3.194623 0.620607
C 3.018585 2.215510 0.950187
C 3.791386 1.805388 0.268167
C 4.732099 2.330183 0.033309
C 4.687899 3.168369 0.981376
C 3.976610 2.476806 0.613896
C 4.699069 1.891747 0.064849
C 5.452983 2.422114 0.061880
C 5.326285 3.081431 1.036746
C 4.941786 2.460683 0.929590
C 5.970682 1.726509 0.086057
C 6.582799 2.965310 0.064619
C 6.527809 3.027972 0.697275
C 6.178651 2.280117 0.925672
C 7.089812 1.867226 0.222609
C 7.611965 2.438184 0.146583
C 7.474409 3.246993 1.042625
C 6.722432 2.253095 0.952813
C 7.876624 1.860131 0.025774
C 8.661821 2.592167 0.006001
C 8.511929 3.027758 0.832072
C 7.886974 2.113777 1.011651
C 0.047484 3.237078 0.282182
C 0.477587 4.462777 0.220923
C 0.591535 5.206130 0.771462
C 0.011630 3.879775 0.890140
C 1.075757 3.335291 0.126924
C 1.632013 4.132120 0.110871
C 1.652944 4.789272 0.920832
C 0.936760 3.924966 0.948766
C 1.940965 3.714709 0.107320
C 2.380812 4.318206 0.154848
C 2.624796 4.764395 0.993123
C 1.843490 4.030189 0.848784
C 3.070727 3.490229 0.201086
C 3.654964 4.104206 0.001303
C 3.517623 5.041214 0.977243
C 3.150831 3.914215 0.657442
C 4.097464 3.591821 0.080687
C 4.619587 4.289614 0.010683
C 4.593818 4.868298 0.781613
C 4.016065 4.325093 0.901087
C 5.014014 3.276113 0.129962
C 5.532206 4.598482 0.296174
C 5.197221 4.899548 0.895032
C 5.067241 4.215790 0.725924
C 5.871128 3.318131 0.174488
C 6.445446 4.435815 0.033714
C 6.226222 4.705937 0.912221
C 5.967643 4.141651 0.971443
C 6.949633 3.638672 0.190077
C 7.287769 4.368538 0.035748
C 7.552030 4.928721 0.683508
C 6.795706 4.057186 0.733969
C 7.903145 3.371664 0.307795
C 8.235941 4.288373 0.006291
C 8.323233 4.694286 0.677879
C 7.886472 3.766135 0.755144
C 0.231363 4.934187 0.018940
C 0.433667 6.331228 0.041483
C 0.394881 6.626937 0.616883
C 0.175642 5.848676 0.569575
C 0.955742 5.153039 0.013104
C 1.433368 6.185910 0.026620
C 1.417729 6.942016 0.711119
C 0.817522 5.853459 0.624343
C 1.866813 5.357863 0.148821
C 2.748377 6.114823 0.237864
C 2.666355 6.827010 0.844607
C 2.047516 5.919684 0.633039
C 2.990297 5.163912 0.043250
C 3.481009 5.983360 0.153966
C 3.411549 6.712326 0.859864
C 3.175568 5.828455 0.753584
C 4.224381 5.281626 0.304948
C 4.546725 6.092565 0.118735
C 4.754421 6.882762 0.856048
C 3.914054 5.704896 0.580633
C 4.863729 5.330360 0.015123
C 5.770950 6.103319 0.201106
C 5.694401 6.590347 0.795113
C 5.158507 5.836877 1.032513
C 5.776306 5.158672 0.059491
C 6.418759 6.263119 0.009025
C 6.825310 6.438598 0.863930
C 5.961049 5.777995 0.806690
C 7.225346 5.207307 0.002279
C 7.516764 5.836055 0.246577
C 7.375891 6.656715 0.661805
C 7.109836 5.791924 0.981945
C 7.872541 5.179914 0.048436
C 8.826916 6.049203 0.038729
C 8.600290 6.853054 0.716458
C 7.844425 5.736218 0.734286
C 0.004012 6.713224 0.100504
C 0.593005 7.834862 0.082670
C 0.450667 8.541885 0.652943
C 0.094342 7.400316 0.831558
C 1.169448 6.902364 0.111726
C 1.291806 7.694700 0.011955
C 1.564127 8.294802 0.781491
C 1.000109 7.304269 1.029099
C 2.155934 6.927044 0.019256
C 2.508502 8.027676 0.107670
C 2.738206 8.356245 0.842377
C 2.175318 7.469121 0.645695
C 2.925399 7.208603 0.052980
C 3.187687 7.858563 0.052313
C 3.512341 8.296540 0.667151
C 3.049985 7.587045 1.045527
C 4.116220 6.628878 0.093895
C 4.405891 7.963033 0.088340
C 4.332428 8.581135 0.684189
C 4.029171 7.525720 0.703919
C 5.024995 6.856293 0.093160
C 5.227967 7.758037 0.125936
C 5.431608 8.292154 0.570689
C 5.032910 7.605567 0.733771
C 5.718750 7.008377 0.054420
C 6.527283 7.836251 0.129952
C 6.338314 8.445177 0.667558
C 5.876784 7.590418 0.600671
C 7.279268 6.912915 0.085953
C 7.492651 7.687008 0.074997
C 7.362709 8.471872 0.860657
C 7.037161 7.705824 0.904424
C 8.002788 6.964312 0.267870
C 8.437700 7.689353 0.080774
C 8.534369 8.199071 0.874890
C 8.034565 7.576075 0.608365
C 0.021684 0.190298 1.846181
C 0.534874 1.014459 1.504887
C 0.479184 1.459031 2.326148
C 0.161899 0.417011 2.356360
C 1.157879 0.227835 1.725449
C 1.595429 0.975515 1.767659
C 1.530718 1.272066 2.367738
C 0.977313 0.577768 2.629551
C 1.841513 0.079552 1.452576
C 2.454654 0.788728 1.692961
C 2.636182 1.315368 2.392664
C 2.011422 0.373061 2.522994
C 2.820381 0.104152 1.661968
C 3.414147 0.764391 1.793932
C 3.545115 1.434031 2.401347
C 2.952495 0.465425 2.502832
C 4.017988 0.014712 1.809887
C 4.663553 0.626648 1.543337
C 4.283429 1.454265 2.631829
C 4.117938 0.480970 2.407226
C 4.823429 0.182742 1.800899
C 5.603456 0.909891 1.631179
C 5.719379 1.323905 2.272837
C 4.980262 0.671289 2.497771
C 5.800550 0.158356 1.782351
C 6.680806 0.960460 1.479388
C 6.336691 1.294982 2.471020
C 6.189761 0.689903 2.694959
C 6.918565 0.012904 1.640425
C 7.564369 0.706000 1.753747
C 7.441177 1.628703 2.599938
C 7.138160 0.609397 2.625829
C 8.228697 0.037062 1.614539
C 8.436615 0.936212 1.610889
C 8.582591 1.552974 2.173261
C 7.995277 0.677577 2.300766
C 0.105800 1.891034 1.508370
C 0.496579 2.451016 1.551942
C 0.361503 3.365703 2.608978
C 0.068950 2.284058 2.391906
C 0.819347 1.703192 1.570823
C 1.536509 2.793677 1.517586
C 1.715488 3.240546 2.632252
C 0.915100 2.082712 2.436150
C 2.059683 1.914512 1.822048
C 2.739117 2.667464 1.533767
C 2.441549 3.240784 2.268816
C 1.777723 2.158113 2.550292
C 2.973360 1.675440 1.779675
C 3.679920 2.430765 1.628246
C 3.418231 3.288980 2.626066
C 2.844819 2.080607 2.295159
C 4.071478 1.837656 1.848952
C 4.431879 2.794364 1.731977
C 4.515079 3.239164 2.591241
C 3.925354 2.272478 2.331111
C 4.984617 1.772182 1.653931
C 5.627838 2.661703 1.611185
C 5.328880 3.211481 2.245312
C 5.096008 2.323566 2.419505
C 6.084923 1.894233 1.847644
C 6.654793 2.667271 1.461128
C 6.442755 3.162362 2.621455
C 6.206333 2.361775 2.634230
C 6.983199 1.571682 1.554836
C 7.522853 2.694700 1.454850
C 7.351856 3.205569 2.562111
C 6.819718 2.045068 2.297498
C 8.073658 1.667469 1.439102
C 8.522559 2.451083 1.673260
C 8.577511 3.161330 2.367276
C 7.901452 2.403176 2.659461
C 0.005498 3.476156 1.894124
C 0.396149 4.305608 1.795445
C 0.537062 4.785327 2.347090
C 0.011546 3.992838 2.738889
C 1.052182 3.258817 1.781221
C 1.247606 4.595028 1.621175
C 1.425539 5.041700 2.426318
C 0.951367 4.211364 2.674147
C 2.157736 3.595754 1.848708
C 2.531457 4.141168 1.657484
C 2.661677 4.882369 2.505850
C 2.048668 4.157425 2.347326
C 2.870302 3.595366 1.471777
C 3.323955 4.270278 1.689931
C 3.385289 5.075644 2.476574
C 3.078084 4.115894 2.605529
C 3.985437 3.553495 1.828696
C 4.506472 4.513742 1.560745
C 4.410607 4.643820 2.310660
C 3.927469 4.025495 2.679722
C 5.133107 3.566533 1.582936
C 5.404144 4.556386 1.538323
C 5.407719 4.655605 2.513307
C 4.828781 3.914690 2.519201
C 5.876985 3.652780 1.803133
C 6.703254 4.227524 1.867348
C 6.346011 4.758659 2.303900
C 5.938940 3.932644 2.524287
C 6.860131 3.327637 1.637957
C 7.416037 4.386859 1.578020
C 7.503531 4.910166 2.250832
C 7.232703 3.820402 2.509440
C 8.212512 3.315110 1.565206
C 8.333812 4.350215 1.737664
C 8.379158 4.680704 2.628174
C 7.970630 4.093374 2.545755
C 0.164497 5.219385 1.746520
C 0.548195 6.050267 1.901886
C 0.628103 6.542778 2.668809
C 0.092618 5.761060 2.448401
C 1.128584 5.176496 1.665016
C 1.259079 6.027456 1.413419
C 1.612072 6.663115 2.370468
C 1.031882 5.704529 2.496546
C 1.857522 5.155238 1.527304
C 2.496941 5.927498 1.579851
C 2.652262 6.876384 2.464350
C 1.987787 5.537690 2.565758
C 2.828519 5.337436 1.557125
C 3.584891 6.055043 1.657588
C 3.483516 6.510149 2.342091
C 2.858305 5.817187 2.630946
C 4.016616 5.136655 1.782692
C 4.421943 5.989034 1.620314
C 4.646934 6.625852 2.534192
C 4.036035 5.958583 2.515254
C 4.726542 5.136733 1.742741
C 5.523071 6.081556 1.525488
C 5.369938 6.736605 2.566545
C 5.045405 5.606914 2.348943
C 5.922514 5.060062 1.711694
C 6.487526 6.261798 1.533004
C 6.676432 6.529308 2.305375
C 6.250918 5.734151 2.528080
C 6.991261 5.272198 1.587053
C 7.676825 5.974558 1.586241
C 7.205594 6.481580 2.430070
C 6.719085 5.827151 2.481363
C 8.083214 5.127893 1.348106
C 8.408181 5.882415 1.796276
C 8.500878 6.507337 2.610550
C 8.156767 5.788860 2.739029
C 0.015062 6.975163 1.902867
C 0.450236 7.575996 1.584394
C 0.515509 8.592244 2.280845
C 0.132147 7.659659 2.141044
C 0.968212 6.623628 1.686678
C 1.697797 7.701834 1.784375
C 1.362808 8.470597 2.378526
C 1.135349 7.356559 2.376502
C 1.816422 7.047809 1.729716
C 2.523172 7.753098 1.830315
C 2.566183 8.411290 2.527333
C 1.975959 7.432903 2.370892
C 2.992853 6.756384 1.609991
C 3.194933 7.783158 1.798460
C 3.759627 8.523299 2.378815
C 3.022211 7.499622 2.554397
C 4.085038 6.813973 1.566665
C 4.492441 7.547791 1.678085
C 4.459611 8.521328 2.188238
C 3.909790 7.225908 2.402424
C 4.877497 6.674936 1.635462
C 5.591296 7.669780 1.855249
C 5.495603 8.483396 2.395726
C 4.852186 7.678002 2.333119
C 5.936206 6.844989 1.589072
C 6.381803 7.878143 1.525193
C 6.354937 8.193090 2.536611
C 5.872437 7.530160 2.694271
C 6.981284 7.012190 1.495975
C 7.721694 7.775422 1.601251
C 7.689920 8.260218 2.461156
C 7.015064 7.630714 2.417800
C 8.024617 7.045484 1.505421
C 8.685053 7.798148 1.681401
C 8.599143 8.506708 2.173724
C 7.960029 7.598983 2.515037
C 0.038161 0.030718 3.138936
C 0.521392 0.748823 3.319825
C 0.435351 1.371854 4.248366
C 0.252493 0.705151 3.873118
C 0.902363 0.149242 3.159900
C 1.483300 1.036958 3.436122
C 1.272902 1.426428 4.229568
C 1.111535 0.750590 4.235476
C 2.187893 0.154348 3.165194
C 2.677885 0.989444 3.146213
C 2.577019 1.576459 3.901584
C 1.945707 0.503810 4.250110
C 2.968954 0.103097 3.569007
C 3.623348 0.865482 3.161468
C 3.759444 1.406786 4.192320
C 3.316219 0.633622 4.004380
C 3.871882 0.059922 3.423542
C 4.472733 1.136668 3.470428
C 4.281590 1.621228 4.063029
C 3.787490 0.380288 3.977336
C 5.129588 0.143392 3.143968
C 5.632178 0.977464 3.403226
C 5.606513 1.512465 4.074749
C 5.051571 0.417951 4.073500
C 6.116659 0.058323 3.087669
C 6.553529 1.121511 3.370293
C 6.808367 1.376174 4.162092
C 6.000932 0.700765 3.827277
C 6.897901 0.100047 3.553089
C 7.469056 0.876151 2.927009
C 7.546322 1.656454 4.223191
C 7.150380 0.721944 4.326608
C 7.864599 0.113255 3.266464
C 8.643274 1.156784 3.331646
C 8.620878 1.451152 3.864970
C 8.018543 0.609112 4.074487
C 0.311352 1.929520 3.401134
C 0.334892 2.431141 3.427521
C 0.349516 3.206309 3.992092
C 0.246490 2.479729 4.251272
C 1.169717 1.550583 3.356061
C 1.642351 2.873729 3.264386
C 1.543992 3.258047 4.161119
C 1.121031 2.322977 4.271588
C 2.099941 1.889587 3.467140
C 2.394739 2.752875 3.500964
C 2.500681 3.040513 3.855921
C 2.187338 2.107994 4.193830
C 3.059559 1.912859 3.523953
C 3.336758 2.719409 3.378762
C 3.548109 3.276150 4.152992
C 2.817679 2.295583 3.857780
C 4.106056 1.685204 3.008229
C 4.492887 2.736511 3.109395
C 4.305334 3.193864 4.036130
C 4.233338 2.127686 3.967091
C 5.210228 1.679051 3.197963
C 5.459159 2.589956 3.499398
C 5.733289 3.031026 4.016149
C 5.029892 2.497137 3.839167
C 6.230587 1.555097 3.265676
C 6.489018 2.561713 3.336736
C 6.573895 3.097781 4.139502
C 5.856647 2.159154 4.191675
C 6.950326 1.782865 3.118176
C 7.394811 2.825780 3.120699
C 7.502183 3.238776 4.090061
C 7.146359 2.129471 4.039891
C 7.808066 1.859601 3.182568
C 8.405446 2.597413 3.207546
C 8.472103 3.234798 4.299774
C 7.982764 2.427602 4.182402
C 0.190172 3.337334 3.279347
C 0.535522 4.093255 3.035571
C 0.548394 4.657152 4.046240
C 0.111614 4.254887 3.971463
C 0.822664 3.470148 3.199382
C 1.549148 4.250809 3.377041
C 1.529040 4.729793 4.014475
C 0.926286 3.877126 4.106372
C 1.890496 3.356358 3.237953
C 2.476407 4.360591 3.547515
C 2.674777 4.933825 3.955629
C 1.911512 4.168375 3.887498
C 3.081025 3.199035 3.418633
C 3.398798 4.162250 3.204008
C 3.574270 4.850910 3.832888
C 3.027365 3.858216 4.307879
C 3.897952 3.542846 3.363704
C 4.405001 4.287935 3.495270
C 4.315046 4.828631 4.211978
C 4.125630 4.056530 3.998275
C 4.985414 3.545931 3.176811
C 5.477958 4.280917 3.205365
C 5.660072 4.752417 4.260330
C 5.075792 3.822949 3.997816
C 6.222126 3.385454 3.370943
C 6.236845 4.360614 3.137717
C 6.579374 4.775420 3.891963
C 5.864094 3.863002 3.929432
C 7.199925 3.602988 3.462267
C 7.479874 4.363514 3.191956
C 7.380261 4.863722 3.828705
C 7.060084 4.066824 4.193937
C 8.141116 3.423262 3.080770
C 8.646991 4.196016 3.189093
C 8.640459 4.986397 3.838968
C 7.918291 4.010889 4.313004
C 0.138708 5.249579 3.362855
C 0.301888 6.136963 3.334345
C 0.529320 6.922003 4.034078
C 0.118758 5.727661 4.369843
C 1.040177 5.379779 3.222639
C 1.520361 6.219706 3.152474
C 1.281983 6.608399 4.106364
C 0.773822 5.931703 4.115611
C 1.856283 5.253192 3.367533
C 2.321898 6.184932 3.156966
C 2.396592 6.506551 4.154310
C 1.957069 5.779409 4.101885
C 3.016133 5.168059 3.358890
C 3.752658 6.153825 3.079047
C 3.560872 6.800280 4.282041
C 2.964311 5.975883 4.053689
C 4.079622 5.270849 3.114425
C 4.410567 5.856710 3.260008
C 4.536166 6.560491 4.233988
C 3.904000 5.784155 4.139694
C 4.994452 5.257502 3.441040
C 5.456064 5.875129 3.442515
C 5.390572 6.505460 3.989998
C 4.906233 5.623863 4.050818
C 5.919940 5.384177 3.153249
C 6.680656 5.883887 3.353146
C 6.662055 6.775063 4.039764
C 5.825257 5.779068 3.940125
C 6.843473 5.240867 3.173286
C 7.419555 6.024285 3.499142
C 7.607899 6.562715 3.855821
C 7.130527 5.709994 4.039681
C 8.170289 5.127431 3.030078
C 8.618602 5.997394 3.114056
C 8.449699 6.616928 4.132949
C 8.183940 5.778479 4.077399
C 0.255772 7.014219 3.447334
C 0.275436 7.649292 3.320873
C 0.296894 8.419782 4.111354
C 0.249622 7.595985 4.037738
C 0.877466 6.727710 3.380132
C 1.410175 7.753554 3.261439
C 1.632022 8.170615 4.009395
C 0.935247 7.450804 3.821887
C 1.822742 6.778617 3.358526
C 2.553493 7.718742 3.045457
C 2.379598 8.500712 3.904126
C 2.182593 7.379567 3.992009
C 3.081812 6.905865 3.367341
C 3.509738 7.984571 3.447440
C 3.541592 8.270826 3.989893
C 2.866769 7.427753 4.045456
C 3.992892 6.942947 3.260516
C 4.667927 7.715821 3.082902
C 4.541104 8.157072 4.183084
C 4.133115 7.421842 4.091578
C 4.893286 6.812070 3.136150
C 5.421978 7.810607 3.120516
C 5.462005 8.560804 4.313503
C 5.154828 7.524688 4.063209
C 5.886912 7.021976 3.076263
C 6.541352 7.613886 3.286498
C 6.765145 8.468170 4.051429
C 5.903056 7.438266 4.353161
C 7.012732 7.159320 3.358533
C 7.556752 7.925667 3.233959
C 7.670168 8.363683 4.295930
C 7.132562 7.579662 3.877187
C 7.962354 7.079097 3.330603
C 8.552949 7.587887 3.337318
C 8.371239 8.444263 4.027777
C 8.008029 7.560316 4.349311
C 0.220964 0.101965 4.847549
C 0.262320 0.935040 4.971371
C 0.756978 1.497733 5.735237
C 0.039031 0.766069 5.644266
C 1.071570 0.034928 5.209329
C 1.515570 0.940260 5.171055
C 1.738891 1.490194 5.572831
C 1.050803 0.570865 5.571536
C 1.807263 0.057053 4.863733
C 2.371307 0.937110 4.702233
C 2.615485 1.398211 5.676644
C 2.027590 0.740021 5.607965
C 3.054947 0.169720 4.653632
C 3.251391 1.036875 4.921800
C 3.556236 1.486956 5.641929
C 2.838921 0.662726 5.679066
C 4.070495 0.100967 4.870185
C 4.592830 0.822173 4.783080
C 4.691984 1.284922 5.805506
C 3.865176 0.671238 5.915029
C 5.185385 0.007930 5.122190
C 5.466750 0.857776 4.923722
C 5.591514 1.286666 5.867328
C 5.018449 0.416323 5.770798
C 5.817545 0.004408 4.849063
C 6.507578 0.732961 5.062294
C 6.654618 1.604464 5.799122
C 5.975839 0.799775 5.538869
C 7.170090 0.104598 5.085645
C 7.455650 1.044101 5.089558
C 7.671103 1.526442 5.661449
C 7.223285 0.455146 5.692591
C 8.010764 0.251626 4.624272
C 8.384685 0.861390 4.685192
C 8.449068 1.412994 5.687789
C 7.926842 0.523489 5.832962
C 0.021410 1.662096 4.753227
C 0.422156 2.674145 5.045830
C 0.430643 3.172061 5.590768
C 0.011599 2.469501 5.602129
C 0.813184 1.894663 5.041125
C 1.561954 2.459878 4.813153
C 1.374008 2.939668 5.701999
C 1.074125 2.245419 5.462994
C 1.986724 1.815810 4.726778
C 2.400559 2.666760 4.808531
C 2.713433 3.184838 5.873298
C 2.240203 2.253049 5.618155
C 3.093141 1.896944 4.941482
C 3.321306 2.821902 4.883381
C 3.564255 3.060787 5.616412
C 3.042383 2.092988 5.646325
C 3.984545 1.683985 4.818649
C 4.539057 2.440569 4.810712
C 4.418178 3.157665 5.549200
C 4.043033 2.397948 5.939969
C 4.946155 1.674337 4.726239
C 5.384714 2.477390 4.962056
C 5.552975 3.251544 5.940504
C 4.898880 2.391430 5.696896
C 5.777391 1.836538 4.755916
C 6.495715 2.621654 4.785346
C 6.660628 3.297055 5.627810
C 5.931924 2.500329 5.714291
C 7.090256 1.802558 5.018059
C 7.479642 2.742166 4.677376
C 7.450004 3.426063 5.695153
C 6.812468 2.307115 5.712776
C 8.011776 1.804863 4.957453
C 8.408391 2.800918 4.879357
C 8.353386 3.169258 5.744541
C 8.167238 2.317233 5.574896
C 0.113600 3.280738 4.882372
C 0.621625 4.174427 4.862127
C 0.655891 4.870203 5.797284
C 0.197086 3.887134 5.939945
C 1.065110 3.364067 4.758973
C 1.460364 4.457253 4.991584
C 1.382455 5.205807 5.794879
C 0.818769 4.089449 5.829138
C 2.162305 3.338847 4.786541
C 2.489620 4.372633 5.189618
C 2.467592 4.751843 5.695795
C 2.067678 3.974379 5.540669
C 2.827692 3.486422 4.702254
C 3.470338 4.468027 4.820226
C 3.721371 4.993506 5.607362
C 2.926802 3.864075 5.558657
C 3.934415 3.366557 4.819910
C 4.563669 4.361236 4.904822
C 4.558513 5.082241 5.793404
C 3.752974 4.215960 5.552868
C 5.154564 3.284647 4.871686
C 5.702648 4.456030 4.800421
C 5.505962 5.097661 5.946818
C 5.060776 3.963183 5.876353
C 6.031496 3.647440 4.694200
C 6.340272 4.473751 4.860564
C 6.444001 4.829107 5.799114
C 5.795850 3.955098 5.737974
C 6.852158 3.480683 4.850593
C 7.518989 4.444132 5.042484
C 7.514679 5.078871 5.719329
C 7.258730 3.879865 5.733248
C 8.173789 3.410834 4.930232
C 8.570284 4.463277 4.932983
C 8.440995 5.139007 5.573469
C 7.960701 4.137840 5.621479
C 0.021140 5.328990 5.039674
C 0.476478 5.937590 5.009279
C 0.515529 6.895495 5.850759
C 0.166933 5.711850 5.769996
C 1.131769 5.141162 5.048886
C 1.310316 5.936203 4.811869
C 1.407854 6.801288 5.525367
C 1.235228 5.663822 5.706851
C 2.092599 5.333156 5.066553
C 2.402815 6.123932 4.943528
C 2.361728 6.764887 5.749166
C 2.031789 5.684140 5.923124
C 3.253970 5.195912 4.860423
C 3.426838 5.867536 5.082671
C 3.519479 6.674851 5.552057
C 3.105013 5.780948 5.781210
C 4.157203 5.367163 4.909264
C 4.430985 6.314826 4.893679
C 4.536023 6.773024 5.857240
C 3.963569 5.875279 5.461174
C 5.061988 5.295521 5.012253
C 5.595064 6.212480 4.746909
C 5.449122 6.431406 5.738428
C 5.109592 5.868608 5.611143
C 6.070581 5.020370 5.084783
C 6.397887 6.296589 4.861278
C 6.340196 6.510943 5.867620
C 6.005070 5.904198 5.897034
C 7.140824 5.014992 4.999996
C 7.516836 5.771206 5.029851
C 7.552499 6.714229 5.724186
C 7.006034 5.793985 5.658900
C 8.077792 5.120126 4.823222
C 8.614646 5.894637 4.751532
C 8.635557 6.529414 5.559149
C 7.846715 5.745412 5.640598
C 0.133454 7.156526 4.861904
C 0.445048 7.826097 4.790541
C 0.392667 8.531439 5.600152
C 0.181331 7.251025 5.693140
C 0.958852 7.149806 4.721170
C 1.451182 7.508642 4.951993
C 1.641502 8.555227 5.692508
C 1.180138 7.743667 5.631817
C 1.936047 7.028404 4.770426
C 2.445883 8.034868 4.972556
C 2.266662 8.591494 5.690636
C 1.951483 7.401083 5.465988
C 3.097299 6.997587 5.059802
C 3.445715 7.733898 4.908077
C 3.545374 8.295777 5.590325
C 3.151052 7.465008 5.660759
C 4.205436 7.105418 4.859095
C 4.405257 7.590909 4.900031
C 4.334417 8.468583 5.636635
C 4.242374 7.361280 5.736724
C 5.002561 7.112831 4.916470
C 5.668748 7.504522 4.861506
C 5.470738 8.578917 5.703670
C 5.216864 7.624921 5.792697
C 6.076913 7.254183 4.970764
C 6.503442 7.886337 5.066464
C 6.598115 8.344233 5.356749
C 6.243255 7.562105 5.758906
C 6.748512 7.065473 4.984422
C 7.339818 7.936856 4.915945
C 7.380374 8.482393 5.734389
C 6.817416 7.550477 5.891662
C 8.041770 7.151013 5.030189
C 8.656480 7.850988 5.026702
C 8.603981 8.458691 5.709952
C 7.877446 7.525568 5.924609
C 0.194252 0.079013 6.614300
C 0.520189 1.042876 6.450495
C 0.319385 1.596469 7.301971
C 0.315842 0.707764 7.333838
C 1.075980 0.056767 6.215313
C 1.383045 0.968601 6.721327
C 1.403767 1.620634 7.468719
C 0.914188 0.370761 7.542257
C 1.820339 0.170216 6.553562
C 2.395560 0.773137 6.538338
C 2.478348 1.629271 7.237196
C 1.886959 0.537597 7.670091
C 3.182991 0.137315 6.293735
C 3.715491 0.880236 6.738418
C 3.385524 1.416234 7.152848
C 3.010687 0.350506 7.392236
C 4.042076 0.147394 6.717883
C 4.629737 0.657102 6.467851
C 4.550216 1.342819 7.551280
C 3.762225 0.697167 7.423255
C 5.127965 0.148033 6.358031
C 5.362204 0.642892 6.477738
C 5.621856 1.563161 7.181596
C 4.843376 0.458591 7.416261
C 5.887960 0.036375 6.374157
C 6.418318 0.742521 6.400585
C 6.547485 1.574568 7.204795
C 5.964885 0.581439 7.313217
C 6.929786 0.254788 6.631016
C 7.402752 0.917675 6.794023
C 7.339826 1.639997 7.489658
C 7.082741 0.707408 7.226190
C 7.813448 0.150528 6.436153
C 8.665790 0.919476 6.454093
C 8.565015 1.660512 7.566908
C 8.054816 0.605473 7.422039
C 0.263732 1.803514 6.471220
C 0.693433 2.621759 6.608720
C 0.366072 3.012193 7.346666
C 0.291708 2.375148 7.451748
C 0.995473 1.848954 6.474002
C 1.534246 2.552138 6.694889
C 1.723304 3.149101 7.430176
C 1.041217 2.504184 7.118092
C 2.142230 1.542910 6.472173
C 2.481176 2.742502 6.414511
C 2.527321 3.157173 7.319300
C 1.994959 2.318319 7.352460
C 3.125250 1.546452 6.482458
C 3.277428 2.468482 6.470289
C 3.692289 3.269891 7.395836
C 2.899726 2.437743 7.138472
C 3.961670 1.768473 6.422232
C 4.285237 2.566754 6.321643
C 4.557669 3.045663 7.492239
C 3.764197 2.286625 7.408771
C 4.735345 1.648334 6.665206
C 5.421730 2.570730 6.486128
C 5.605334 3.194014 7.503410
C 5.243706 2.286925 7.204468
C 6.105611 1.866561 6.539782
C 6.623177 2.592263 6.838697
C 6.327455 3.172280 7.598087
C 6.138410 2.017752 7.449739
C 7.175986 1.808313 6.514765
C 7.370014 2.311375 6.558073
C 7.433698 2.943138 7.261261
C 6.835365 2.474741 7.485231
C 7.747074 1.932129 6.585912
C 8.306706 2.673730 6.665003
C 8.574855 3.269967 7.506342
C 8.033567 2.090807 7.153876
C 0.153470 3.563321 6.569429
C 0.311536 4.389133 6.676619
C 0.434636 4.889746 7.091909
C 0.097573 4.269649 7.184287
C 0.993974 3.279188 6.591854
C 1.348782 4.221347 6.510722
C 1.503824 4.700313 7.197206
C 1.085805 4.122735 7.431825
C 1.994187 3.657180 6.393191
C 2.467314 4.448700 6.616609
C 2.385886 4.876282 7.524809
C 1.791207 4.038999 7.313558
C 2.843236 3.593325 6.543016
C 3.619864 4.514151 6.644492
C 3.350589 5.076856 7.422137
C 2.835303 3.978956 7.480052
C 4.025846 3.295624 6.371806
C 4.630791 4.332638 6.513312
C 4.460597 5.099565 7.287061
C 4.182420 3.901637 7.150223
C 4.951852 3.261696 6.718397
C 5.547743 4.303034 6.698764
C 5.495331 4.625648 7.337409
C 5.170804 3.982551 7.146620
C 5.770298 3.543852 6.500351
C 6.456361 4.540636 6.563848
C 6.193865 4.871764 7.508686
C 5.928760 4.094712 7.716274
C 7.016631 3.532544 6.685435
C 7.495422 4.352201 6.308397
C 7.574975 4.887472 7.300014
C 6.939078 4.051120 7.233233
C 8.059256 3.288059 6.379601
C 8.472864 4.485979 6.430350
C 8.278052 4.882684 7.263809
C 8.089253 4.146063 7.193931
C 0.169703 5.380846 6.434637
C 0.458643 6.167451 6.293812
C 0.448453 6.803057 7.553949
C 0.144687 5.797672 7.313934
C 1.071129 5.112898 6.267951
C 1.555420 6.331884 6.663433
C 1.491583 6.814019 7.283190
C 1.017136 5.800327 7.257198
C 2.071650 5.250108 6.414670
C 2.613452 6.091872 6.456274
C 2.386416 6.798955 7.328587
C 2.245645 5.798962 7.527963
C 2.954306 5.039851 6.570756
C 3.669550 6.125905 6.827269
C 3.517487 6.782065 7.399522
C 2.819131 5.836352 7.322511
C 3.922345 4.937781 6.533601
C 4.425466 5.852754 6.584076
C 4.466287 6.353016 7.400440
C 3.889549 5.982541 7.228712
C 4.934498 5.064317 6.527388
C 5.325292 5.987171 6.559022
C 5.310217 6.640952 7.488301
C 5.254878 5.760818 7.347513
C 5.848208 5.226976 6.350426
C 6.773522 6.006927 6.631550
C 6.405631 6.659528 7.169438
C 5.986384 5.790328 7.516495
C 6.805022 5.086912 6.531996
C 7.394822 5.961517 6.361910
C 7.416058 6.789126 7.129966
C 6.968740 5.947571 7.422814
C 7.960021 5.138944 6.435391
C 8.471921 6.009977 6.576170
C 8.359355 6.711062 7.198837
C 8.209267 5.755872 7.405449
C 0.236063 7.008644 6.456598
C 0.360116 7.827425 6.624975
C 0.589772 8.101693 7.252608
C 0.012407 7.471248 7.339737
C 1.217409 6.935579 6.490321
C 1.429112 7.501347 6.419166
C 1.761792 8.245101 7.323312
C 1.011481 7.552465 7.116423
C 1.823726 6.838010 6.600525
C 2.626812 7.707400 6.371232
C 2.654362 8.404701 7.578357
C 2.053676 7.778929 7.243579
C 2.899596 7.077544 6.428360
C 3.595353 7.778086 6.473045
C 3.732019 8.425878 7.306246
C 2.873091 7.423106 7.200691
C 4.190826 6.864905 6.444262
C 4.662741 7.636287 6.364918
C 4.492781 8.285621 7.533356
C 4.073030 7.237863 7.342869
C 4.991688 6.920951 6.430955
C 5.447588 7.544363 6.676042
C 5.368648 8.343579 7.283079
C 4.738412 7.366208 7.465786
C 5.755616 7.129796 6.453528
C 6.442195 7.923946 6.295941
C 6.400019 8.411630 7.320652
C 6.193695 7.370106 7.304824
C 6.979170 7.074070 6.653413
C 7.682844 7.818119 6.568621
C 7.598924 8.404866 7.582623
C 6.997733 7.634780 7.343050
C 8.056942 6.991075 6.895017
C 8.367859 7.623418 6.458350
C 8.499143 8.443521 7.236838
C 7.830387 7.468083 7.483139
C 0.131155 0.035343 8.290602
C 0.486726 0.950578 8.166012
C 0.443083 1.489332 8.935372
C 0.255071 0.352231 8.946144
C 1.072683 0.221630 8.156501
C 1.470201 0.882181 8.354180
C 1.445904 1.561775 8.930440
C 0.976415 0.758701 9.052443
C 2.043217 0.210493 7.892985
C 2.595172 0.777745 8.248708
C 2.516674 1.607266 9.157726
C 2.123320 0.786553 8.934024
C 2.742200 0.105483 8.163885
C 3.401839 0.810264 8.269390
C 3.619379 1.554154 8.921346
C 2.915626 0.464455 8.952620
C 3.758618 0.129411 8.085619
C 4.672317 1.151869 8.100492
C 4.551422 1.578703 8.801050
C 3.885598 0.845155 8.979019
C 5.122305 0.138581 8.301859
C 5.590982 0.872067 8.096490
C 5.681830 1.573618 8.976829
C 4.903604 0.454309 8.792510
C 5.918879 0.286871 8.225772
C 6.498448 0.642588 8.280279
C 6.614790 1.517589 8.824259
C 5.900324 0.511772 8.765690
C 6.867167 0.081628 8.262905
C 7.545154 0.861260 8.021284
C 7.582468 1.400263 8.727747
C 7.116710 0.375141 8.844083
C 7.723983 0.014731 8.307464
C 8.459702 0.723578 7.947824
C 8.449680 1.431766 9.069634
C 8.047181 0.402073 9.184694
C 0.028737 1.536879 8.121042
C 0.547711 2.531711 8.069130
C 0.417387 3.204020 9.106965
C 0.038234 2.103726 8.746489
C 0.868212 1.689252 7.890576
C 1.660039 2.569508 8.157089
C 1.648768 3.301955 9.062385
C 1.096036 2.498854 8.876325
C 1.956908 1.451795 8.290869
C 2.265291 2.449784 8.157869
C 2.571352 2.897887 8.993407
C 2.218844 2.490620 9.096812
C 3.040058 1.868331 8.257215
C 3.603512 2.784147 8.218707
C 3.559402 3.275348 8.918520
C 2.934424 2.498050 8.794395
C 3.839608 1.701751 8.227991
C 4.328300 2.806067 8.251197
C 4.491987 3.246313 8.844109
C 3.879972 2.479000 8.867744
C 4.902303 1.595784 7.994439
C 5.590255 2.842598 8.157255
C 5.582648 3.204334 8.839148
C 5.007151 2.431372 8.887155
C 6.160523 1.662143 8.227383
C 6.283229 2.485306 8.141312
C 6.454696 3.300976 9.112180
C 6.035489 2.579140 8.988880
C 7.107149 1.670680 7.981429
C 7.289652 2.716597 8.347780
C 7.606686 3.288299 9.119777
C 6.940667 2.338285 8.906259
C 7.821948 1.874176 8.244806
C 8.357517 2.430621 8.150786
C 8.425609 3.238973 8.787330
C 7.932935 2.479521 8.975138
C 0.037657 3.434227 8.301129
C 0.524687 4.600919 8.124878
C 0.518987 4.755735 8.996300
C 0.000198 3.824244 8.806259
C 0.827371 3.438242 8.211188
C 1.443653 4.199522 8.086966
C 1.446466 4.862857 9.141831
C 0.798506 4.058058 9.067853
C 1.941796 3.312483 8.254016
C 2.374000 4.372825 8.362413
C 2.584547 4.746331 8.985481
C 1.872087 3.963347 8.805846
C 2.976197 3.529046 8.058714
C 3.684190 4.229267 8.402679
C 3.474694 4.671241 8.932778
C 2.820757 4.225416 9.170817
C 3.908040 3.265085 8.079680
C 4.546556 4.357656 8.058884
C 4.615212 4.843399 9.135091
C 4.136207 4.001614 9.161337
C 5.052893 3.707796 8.356627
C 5.527877 4.504629 8.216949
C 5.407830 4.986998 9.130467
C 4.999007 3.828163 8.807849
C 6.206299 3.372230 8.233420
C 6.489570 4.274020 8.286274
C 6.369029 4.792049 8.877831
C 6.139168 3.947707 8.972344
C 6.912232 3.442207 8.175725
C 7.452776 4.115731 8.209581
C 7.477194 4.786128 8.962582
C 7.077811 3.871211 8.902805
C 7.963701 3.592511 7.927303
C 8.742427 4.207913 8.287559
C 8.383354 4.792067 8.921705
C 7.907491 3.863605 9.135658
C 0.071415 5.389538 8.394889
C 0.667497 6.258941 8.004314
C 0.429719 6.699779 9.074545
C 0.071657 5.905896 9.249983
C 1.004630 5.025220 8.329336
C 1.459937 5.816995 8.057231
C 1.548960 6.455168 8.917471
C 1.108574 5.717878 8.858163
C 2.227153 5.353855 8.185547
C 2.527662 6.221928 7.966664
C 2.701916 6.637560 8.893188
C 2.007697 5.582517 8.996306
C 3.272803 5.166264 8.032169
C 3.391180 6.287712 8.157522
C 3.681251 6.694732 8.859109
C 2.980348 5.925569 9.101439
C 4.033945 5.195516 7.982098
C 4.611193 6.124965 8.114997
C 4.369817 6.555258 8.954952
C 4.051632 5.531279 8.830010
C 5.085888 5.322046 8.271697
C 5.625027 5.937698 8.072658
C 5.538051 6.496309 8.806190
C 5.101298 6.108523 8.838443
C 5.868877 5.006179 8.266011
C 6.398352 5.945068 8.159575
C 6.405866 6.729968 9.146253
C 5.861390 5.565121 8.920420
C 6.948100 5.342376 8.353927
C 7.317835 5.938154 8.215079
C 7.474930 6.422760 9.026778
C 6.794682 5.792921 9.050095
C 7.932180 5.281586 8.103148
C 8.441231 5.981078 8.428807
C 8.647262 6.818726 8.927091
C 7.894900 5.713175 9.212201
C 0.015937 6.963120 8.203775
C 0.563248 7.684739 8.138493
C 0.371424 8.465056 9.199857
C 0.024574 7.644834 8.875036
C 1.176058 6.800479 8.020607
C 1.544932 7.946918 8.014299
C 1.307208 8.271503 8.752628
C 0.807216 7.398911 8.938961
C 1.859211 6.763328 8.185711
C 2.500881 7.585218 8.146360
C 2.764157 8.502771 9.158595
C 1.921234 7.718638 8.982853
C 3.086142 6.916088 7.981899
C 3.312686 7.632973 8.064449
C 3.666119 8.200992 8.925222
C 2.955335 7.731568 9.023754
C 4.121930 7.041978 8.340749
C 4.614356 7.723290 8.209741
C 4.365895 8.472817 9.025423
C 3.856332 7.736160 8.887189
C 4.984088 6.839649 8.327030
C 5.556438 7.988712 8.116797
C 5.528594 8.210923 9.056570
C 4.812553 7.605078 9.056185
C 6.099996 6.769722 8.002203
C 6.677459 7.823929 8.184070
C 6.651691 8.149074 8.930219
C 5.897446 7.312555 8.896123
C 6.871858 6.767530 8.042259
C 7.489912 8.007061 8.046549
C 7.472785 8.323612 8.756267
C 6.888069 7.598426 9.123085
C 8.154161 6.910977 8.175116
C 8.250811 7.762014 8.184587
C 8.667676 8.326290 9.144254
C 7.985201 7.645902 9.082703
C 0.129337 0.249396 0.687389
C 0.384668 0.756401 0.735286
C 0.454420 1.477435 1.314385
C 0.088661 0.437474 1.178297
C 1.009776 0.009149 0.836512
C 1.522669 0.853438 0.488971
C 1.563140 1.443129 1.283001
C 0.918346 0.399181 1.390572
C 2.022373 0.005857 0.467240
C 2.546103 1.081479 0.759659
C 2.639851 1.374925 1.528871
C 2.227712 0.497794 1.478271
C 3.043771 0.024911 0.366330
C 3.490944 0.998008 0.644299
C 3.489393 1.537940 1.371122
C 3.174166 0.604706 1.276139
C 4.086111 0.008160 0.536692
C 4.373438 0.857586 0.746536
C 4.323755 1.572981 1.481331
C 4.010201 0.489545 1.345862
C 5.029061 0.021719 0.800553
C 5.367306 0.995256 0.746423
C 5.494882 1.551753 1.434276
C 4.932439 0.516345 1.270834
C 6.194609 0.133226 0.437609
C 6.452978 0.726272 0.414769
C 6.597869 1.608079 1.346210
C 6.253976 0.620732 1.588709
C 6.946991 0.207458 0.484383
C 7.339447 0.876589 0.707503
C 7.479364 1.350139 1.209722
C 6.822235 0.607709 1.429725
C 8.118992 0.108378 0.857275
C 8.438641 0.897591 0.434088
C 8.337860 1.300278 1.468112
C 8.013926 0.813625 1.591236
C 0.055845 1.606616 0.894687
C 0.380993 2.475649 0.617183
C 0.492141 3.131524 1.551616
C 0.038225 2.405276 1.606355
C 0.977126 1.635129 0.547728
C 1.369009 2.496634 0.718129
C 1.631478 3.423311 1.273214
C 0.865375 2.188307 1.406057
C 2.062412 1.482733 0.617123
C 2.308662 2.505444 0.450276
C 2.588753 3.125490 1.433649
C 1.964733 2.364954 1.202940
C 3.084220 1.662886 0.735130
C 3.636534 2.672593 0.485518
C 3.353112 3.043188 1.520263
C 2.747762 2.217381 1.635378
C 4.007227 1.632860 0.590162
C 4.412888 2.498448 0.555135
C 4.453196 2.977487 1.383517
C 4.213733 2.350928 1.672026
C 4.802220 1.792164 0.453550
C 5.351430 2.527561 0.778218
C 5.406994 3.106284 1.656962
C 5.000240 2.265588 1.391501
C 6.168286 1.745305 0.655479
C 6.340999 2.434245 0.579269
C 6.550312 3.178976 1.475077
C 5.894991 2.087343 1.437554
C 7.035440 1.422599 0.632235
C 7.294735 2.547161 0.609500
C 7.536709 3.115825 1.504964
C 7.046001 2.539228 1.427165
C 8.161738 1.709924 0.420318
C 8.614638 2.658932 0.457704
C 8.575951 2.966512 1.311818
C 8.235247 2.218835 1.458975
C 0.232992 3.372209 0.705845
C 0.443953 4.541853 0.776833
C 0.502170 4.713275 1.158475
C 0.000746 3.941229 1.556188
C 1.021617 3.232757 0.637690
C 1.447093 4.432428 0.815755
C 1.590824 4.774657 1.438470
C 0.746064 4.015350 1.440214
C 1.925227 3.262741 0.545067
C 2.551082 4.067344 0.607089
C 2.538334 4.985940 1.522272
C 2.167717 4.131588 1.279517
C 3.240675 3.320815 0.694971
C 3.268122 4.426745 0.582038
C 3.519143 5.014599 1.776804
C 2.999074 4.085537 1.129058
C 3.995258 3.374271 0.550898
C 4.290277 4.208099 0.683314
C 4.310532 4.803821 1.369840
C 4.047286 4.042835 1.344407
C 5.036115 3.581365 0.398910
C 5.620725 4.522331 0.800737
C 5.763985 4.963910 1.278276
C 5.104827 4.170166 1.493203
C 6.138979 3.482899 0.617621
C 6.392481 4.191797 0.532662
C 6.303455 4.844124 1.514351
C 5.835807 3.871168 1.406311
C 7.046693 3.569028 0.623139
C 7.667592 4.268144 0.559546
C 7.378942 4.797586 1.529842
C 6.921816 3.977827 1.445945
C 8.254372 3.353307 0.774313
C 8.412175 4.310646 0.363914
C 8.479276 5.118279 1.606131
C 8.082391 3.952836 1.428321
C 0.017612 5.372697 0.791489
C 0.491516 6.033772 0.678717
C 0.434045 6.842775 1.405038
C 0.101550 5.677742 1.215870
C 0.832308 5.476703 0.675166
C 1.647883 6.061079 0.443753
C 1.510112 6.541856 1.296818
C 0.987299 5.736373 1.336229
C 1.907577 5.060202 0.762247
C 2.471676 6.114553 0.579165
C 2.546223 6.809213 1.244556
C 1.837931 5.929875 1.429018
C 3.040100 5.244741 0.558927
C 3.411577 6.089361 0.514945
C 3.433972 6.715365 1.488298
C 3.026346 5.823897 1.463628
C 3.773347 5.137226 0.673511
C 4.281296 5.953633 0.742296
C 4.433245 6.619364 1.140143
C 3.898811 5.711855 1.259972
C 4.947264 4.991708 0.542005
C 5.501382 5.892733 0.823730
C 5.590749 6.714086 1.708503
C 5.068601 5.952673 1.602964
C 5.900431 5.356531 0.378500
C 6.597469 6.120118 0.552518
C 6.455573 6.816895 1.190767
C 6.149876 5.658788 1.498055
C 6.774035 5.260788 0.752368
C 7.349392 5.962613 0.704645
C 7.533841 6.580474 1.524521
C 7.069777 5.791944 1.434395
C 8.017355 5.080546 0.754013
C 8.463341 5.881699 0.603164
C 8.412365 6.670607 1.653506
C 8.065033 5.878256 1.580468
C 0.178791 6.954441 0.553686
C 0.322647 7.804653 0.799534
C 0.678409 8.404038 1.488105
C 0.125468 7.331537 1.339916
C 1.029883 6.848982 0.772767
C 1.626524 7.886397 0.756475
C 1.364207 8.517306 1.350949
C 1.095015 7.473310 1.502654
C 1.930149 6.867866 0.826396
C 2.504396 7.767799 0.631551
C 2.476537 8.443628 1.623498
C 2.150407 7.503619 1.579158
C 2.912831 6.932420 0.561085
C 3.335860 7.716499 0.370275
C 3.539942 8.442768 1.566967
C 3.075355 7.458546 1.594490
C 4.012506 6.710191 0.857295
C 4.714694 7.841547 0.604048
C 4.385890 8.306169 1.450101
C 4.140359 7.282873 1.492210
C 4.940542 7.252264 0.501343
C 5.311899 7.863109 0.553870
C 5.339414 8.405026 1.368883
C 5.261148 7.594654 1.327465
C 5.995523 6.865082 0.335537
C 6.635871 7.949580 0.653650
C 6.278638 8.420018 1.479409
C 5.931685 7.676720 1.460340
C 6.890972 6.917664 0.625105
C 7.628035 7.871974 0.372275
C 7.639252 8.548760 1.492940
C 6.842162 7.700940 1.276167
C 8.093147 6.937038 0.676398
C 8.463584 7.797519 0.567345
C 8.481284 8.447812 1.193326
C 7.884071 7.407294 1.546666
C 0.439237 0.208222 2.083563
C 0.482903 0.892192 2.344521
C 0.473365 1.594329 3.282267
C 0.157341 0.588804 3.268927
C 0.770273 0.205640 2.317084
C 1.352363 0.887655 2.190855
C 1.505070 1.391455 3.108255
C 0.944351 0.553667 3.063445
C 2.008386 0.093147 2.003335
C 2.577915 0.841265 2.214958
C 2.623700 1.362008 2.950046
C 1.872751 0.427249 3.089507
C 2.778536 0.015476 2.286093
C 3.651967 1.102999 2.216244
C 3.437490 1.482527 2.994940
C 2.762050 0.522262 3.203454
C 4.322903 0.094638 2.206589
C 4.532749 1.010743 2.303430
C 4.557062 1.439144 2.879718
C 4.149366 0.641733 3.097652
C 4.809273 0.016388 2.321769
C 5.278960 0.894465 2.414627
C 5.464506 1.282879 3.211637
C 5.079286 0.491322 2.840910
C 5.960664 0.200589 2.351451
C 6.269906 0.933799 2.187331
C 6.482869 1.282225 3.034645
C 6.113698 0.638426 3.183444
C 6.891941 0.009717 2.044582
C 7.541916 0.759358 2.440453
C 7.513022 1.542377 3.016595
C 6.770699 0.627289 3.020183
C 7.941964 0.082379 1.970715
C 8.672762 0.678811 2.255578
C 8.533724 1.482546 3.154127
C 7.847318 0.767488 3.064331
C 0.037063 1.877784 2.075384
C 0.666148 2.758519 2.381745
C 0.761687 3.067491 2.936904
C 0.106473 2.200190 3.073500
C 0.863178 1.621032 2.067747
C 1.762121 2.632373 2.140704
C 1.271320 3.352643 2.923210
C 1.046117 2.211168 3.126818
C 1.898536 1.584331 2.345596
C 2.584308 2.386966 2.398632
C 2.688420 3.332922 3.062921
C 1.961795 2.297426 2.918500
C 2.852051 1.633499 2.216527
C 3.515651 2.692989 2.034038
C 3.627232 2.958071 3.126336
C 3.196817 2.452707 3.120884
C 3.844258 1.721363 2.167755
C 4.541252 2.700431 2.266936
C 4.586112 3.243337 3.100475
C 3.870937 2.152811 2.811008
C 5.037240 1.697248 2.382226
C 5.542042 2.777973 2.244804
C 5.762497 3.237522 3.132276
C 5.001744 2.004402 2.999398
C 6.176520 1.680562 2.228362
C 6.466829 2.547506 2.082855
C 6.774359 3.214662 3.142485
C 5.963619 2.518385 2.875103
C 7.068851 1.699392 2.514298
C 7.562633 2.717380 2.195248
C 7.600430 3.411204 3.116364
C 6.791801 2.295858 2.927672
C 7.939284 1.675268 2.292938
C 8.498603 2.725055 2.019193
C 8.620385 3.228452 3.041064
C 7.751956 2.382032 3.179273
C 0.219262 3.748552 2.139380
C 0.638285 4.440588 2.156125
C 0.543339 4.685179 3.113862
C 0.192523 4.055932 3.241129
C 1.146456 3.520778 2.176941
C 1.388280 4.505949 2.084013
C 1.589849 4.700965 3.127012
C 0.880054 3.869832 3.000328
C 1.955026 3.501292 2.252214
C 2.484435 4.237174 2.366251
C 2.572924 5.080416 3.145683
C 2.095019 3.945994 3.035259
C 3.012797 3.532739 2.475483
C 3.293234 4.284234 2.164526
C 3.426165 4.836967 2.779411
C 3.118316 3.749009 3.139445
C 4.255302 3.291209 2.280377
C 4.694245 4.305567 2.196018
C 4.302795 4.705118 2.992715
C 4.078550 4.158728 3.105338
C 5.140992 3.596222 2.349895
C 5.648492 4.493167 2.246921
C 5.630052 5.026864 3.241221
C 4.814355 4.077403 2.999492
C 5.893923 3.472356 2.484185
C 6.493222 4.413115 2.161322
C 6.571454 4.598837 3.126084
C 6.206544 3.983975 2.916147
C 6.861309 3.345836 2.107349
C 7.321080 4.323795 2.118739
C 7.381131 4.921448 2.974593
C 6.845707 4.181990 3.191418
C 7.910473 3.685288 2.216928
C 8.341358 4.284495 2.293224
C 8.751700 4.945744 3.114951
C 7.985943 4.276222 3.261387
C 0.141968 5.450188 2.248863
C 0.548552 5.961360 2.275725
C 0.363272 6.755001 3.207888
C 0.263532 5.760881 3.362194
C 0.928831 5.325854 2.336846
C 1.280030 6.210044 2.381450
C 1.430522 6.688610 3.349668
C 1.033279 5.822000 3.336477
C 2.123517 5.255308 2.190047
C 2.466998 6.303378 2.312439
C 2.434886 6.555021 3.248931
C 1.827849 5.550548 3.014601
C 2.943501 5.276241 2.167948
C 3.732504 5.919953 2.268573
C 3.428133 6.658057 3.291543
C 3.075379 5.598387 3.234706
C 3.867010 4.971556 2.408743
C 4.429301 5.940886 2.420180
C 4.413537 6.714253 3.172325
C 4.044423 5.855342 2.906114
C 4.733809 5.094122 2.243018
C 5.405310 5.862653 2.374583
C 5.637255 6.519139 3.052639
C 4.895372 5.553890 2.952862
C 5.999977 5.195728 2.519233
C 6.250334 6.069361 2.257131
C 6.623695 6.535876 2.804753
C 5.945554 5.802525 2.833480
C 6.917730 5.445873 2.314193
C 7.481581 6.200809 2.306972
C 7.557276 6.574250 2.923185
C 7.230814 5.791368 3.025316
C 7.931217 5.131805 2.304162
C 8.512931 6.136075 2.105269
C 8.726412 6.540615 2.922844
C 7.912707 5.595208 3.139328
C 0.318117 6.885844 2.401682
C 0.567525 7.919199 2.307277
C 0.617417 8.204616 3.202795
C 0.016746 7.278844 3.151446
C 1.112418 6.819791 2.409569
C 1.350338 7.737511 2.279594
C 1.538913 8.303845 3.078516
C 0.949226 7.248376 3.144603
C 1.952876 6.717049 2.227645
C 2.374944 7.675024 2.367070
C 2.348005 8.241446 2.874251
C 2.062600 7.455378 3.277605
C 2.886170 6.975027 2.178292
C 3.469428 7.831122 2.222784
C 3.515668 8.661946 2.955846
C 2.981856 7.553942 3.237861
C 3.983601 6.804739 2.561745
C 4.494416 7.849584 2.165145
C 4.354150 8.397131 3.222330
C 3.957544 7.449681 2.989985
C 4.854141 6.961791 2.178977
C 5.269139 7.660107 2.372725
C 5.451629 8.522610 3.240233
C 4.865353 7.255467 2.977742
C 5.733956 6.866130 2.207647
C 6.324419 7.860338 2.340086
C 6.420897 8.352841 2.907532
C 6.037387 7.386097 3.353688
C 6.810543 6.893508 2.194972
C 7.389039 7.618417 2.432653
C 7.423030 8.382962 3.311927
C 7.215509 7.615211 3.134338
C 8.246252 6.783498 2.236864
C 8.370324 7.749090 2.430353
C 8.553427 8.515514 2.853808
C 8.205461 7.678478 3.121105
C 0.075936 0.069399 3.625959
C 0.596465 0.664945 3.712265
C 0.391527 1.425773 4.728330
C 0.036845 0.694068 4.780313
C 1.056595 0.171772 3.541977
C 1.306953 0.808200 3.758791
C 1.549799 1.712263 4.610478
C 0.859660 0.639763 4.897839
C 1.904924 0.022085 4.026724
C 2.530831 0.763073 3.872008
C 2.406881 1.428494 4.722645
C 2.228352 0.537710 4.760906
C 3.278521 0.025269 4.004576
C 3.320190 1.038479 4.033716
C 3.402352 1.363154 4.613007
C 2.867557 0.639789 4.474370
C 4.028832 0.265120 3.717117
C 4.708156 0.868453 3.686050
C 4.646240 1.297874 4.763358
C 4.008404 0.557629 4.584464
C 5.068960 0.117367 3.854562
C 5.568852 0.707734 3.799898
C 5.655109 1.417225 4.563732
C 5.223369 0.675568 4.660793
C 6.028085 0.123301 3.753391
C 6.331954 0.896788 3.965317
C 6.384950 1.276319 4.462781
C 5.888921 0.442240 4.731461
C 7.018062 0.029931 3.903576
C 7.434603 0.846906 3.725085
C 7.549935 1.356951 4.857370
C 6.894582 0.706556 4.638629
C 7.953289 0.084571 3.891190
C 8.612989 0.845259 3.865724
C 8.543948 1.300968 4.500399
C 7.749071 0.659953 4.898607
C 0.041567 1.710592 3.609892
C 0.411902 2.373998 3.907568
C 0.587503 3.214958 4.855033
C 0.091857 2.273352 4.885987
C 0.801557 1.775260 3.657203
C 1.742981 2.679591 3.924508
C 1.420909 3.351229 4.912226
C 0.950937 2.176247 4.702551
C 2.180440 1.689350 4.000643
C 2.488517 2.669140 4.033997
C 2.592520 3.177845 4.835421
C 1.922906 2.201702 4.577705
C 3.111384 1.862692 4.124592
C 3.373880 2.726516 3.802857
C 3.409721 3.162299 4.633480
C 2.795750 2.342120 4.838684
C 3.797159 1.628554 3.703184
C 4.659928 2.433108 3.850223
C 4.607947 3.442219 4.727298
C 4.026887 2.292026 4.773838
C 4.932452 1.627629 3.903166
C 5.650051 2.513815 3.887185
C 5.560205 3.173733 4.575770
C 4.913344 2.423097 4.630912
C 6.034852 1.986970 3.804175
C 6.635165 2.432686 3.959999
C 6.552803 3.220822 4.715442
C 5.970773 2.339618 4.867341
C 6.843693 1.875847 4.087146
C 7.321403 2.626900 3.839186
C 7.345821 3.100079 4.463837
C 7.042613 2.155609 4.728892
C 7.989579 1.858366 3.771964
C 8.566489 2.377922 3.878323
C 8.458777 3.150602 4.714410
C 8.099920 2.268698 4.779666
C 0.007642 3.591902 4.126813
C 0.713251 4.267611 4.024865
C 0.322092 4.676617 4.537097
C 0.083972 4.012827 4.760964
C 0.920565 3.546137 3.718697
C 1.352330 4.433532 3.736335
C 1.530286 4.721465 4.636255
C 1.012529 3.881608 4.472878
C 2.015576 3.557962 3.883483
C 2.716788 4.414099 3.868895
C 2.367280 4.796340 4.461786
C 1.816642 3.967740 4.610755
C 3.121019 3.659604 3.919577
C 3.365991 4.504691 3.729039
C 3.720376 5.113465 4.812917
C 3.077363 3.805375 4.774001
C 4.010824 3.468576 4.133017
C 4.654962 4.130315 3.907940
C 4.480347 5.082313 4.750874
C 4.097052 4.074845 4.886142
C 4.951531 3.360633 3.859767
C 5.463721 4.226821 3.887318
C 5.588951 4.772641 4.637763
C 4.978762 3.840188 4.749470
C 5.742800 3.460346 4.070583
C 6.341203 4.217557 3.770987
C 6.624817 4.928279 4.528230
C 6.050988 4.187936 4.662605
C 7.161126 3.513730 3.977828
C 7.380749 4.474241 3.861385
C 7.558105 4.973994 4.402211
C 6.905302 3.909713 4.851255
C 7.765033 3.509934 3.854673
C 8.342058 4.568660 3.922039
C 8.384744 4.751468 4.690629
C 7.766311 4.060540 4.647659
C 0.040947 5.226622 3.849405
C 0.481144 5.941229 3.711205
C 0.540206 6.798948 4.722390
C 0.304616 5.639716 4.688150
C 1.024551 5.343215 3.977401
C 1.323707 6.173945 4.012646
C 1.650279 6.887299 4.585263
C 0.949632 5.742451 4.736493
C 2.011871 5.264929 3.925869
C 2.360787 6.156356 3.976410
C 2.540227 6.861000 4.688622
C 1.936980 5.961682 4.623208
C 2.781068 5.246202 3.770668
C 3.423775 6.218519 3.827616
C 3.412615 6.520144 4.651911
C 3.195640 5.986378 4.741287
C 3.869091 5.196690 3.697414
C 4.510865 6.254065 3.841338
C 4.329756 6.709249 4.741256
C 3.910610 5.762855 4.573851
C 5.067028 5.035099 4.050467
C 5.605118 6.144605 3.941426
C 5.498272 6.591664 4.452952
C 4.814218 5.916719 4.802765
C 5.894839 5.389775 3.914774
C 6.526321 5.882471 3.891374
C 6.384308 6.776895 4.575034
C 6.025016 5.781382 5.003411
C 6.986125 5.390631 3.823779
C 7.383901 6.016960 4.025946
C 7.320611 6.789884 4.746236
C 7.048091 5.935991 4.627246
C 7.899506 5.246024 3.731344
C 8.554412 5.973256 4.077438
C 8.308319 6.632865 4.679019
C 7.743375 5.557240 4.590228
C 0.085059 7.001714 4.028801
C 0.548052 7.563948 3.808695
C 0.439048 8.377234 4.796839
C 0.000908 7.597188 4.772946
C 1.013679 6.899170 3.808461
C 1.474078 7.865125 3.719308
C 1.233922 8.425261 4.636213
C 0.816245 7.706233 4.786036
C 1.829120 6.894365 3.964454
C 2.482846 7.594276 3.722865
C 2.491837 8.564695 4.820449
C 2.037734 7.440936 4.742832
C 2.946369 6.872116 3.943781
C 3.463719 7.657724 3.627393
C 3.465691 8.170050 4.516936
C 2.720472 7.427400 4.643494
C 3.920244 6.749215 3.860194
C 4.266321 7.834884 3.879427
C 4.586729 8.316585 4.521062
C 4.083526 7.478777 4.693438
C 4.989157 6.827369 3.902089
C 5.279455 7.892410 3.822626
C 5.482717 8.255853 4.659873
C 4.763898 7.398071 4.752151
C 5.953045 7.109027 3.740794
C 6.301507 7.781913 3.959215
C 6.381132 8.247626 4.498357
C 5.889889 7.760410 4.599366
C 6.928460 6.906597 3.760814
C 7.425824 8.040454 3.778168
C 7.497622 8.538592 4.572519
C 7.093045 7.639303 4.895502
C 8.162449 7.009926 3.750177
C 8.720722 7.703409 3.871778
C 8.426243 8.204555 4.470803
C 7.970170 7.531883 4.867024
C 0.076914 0.303056 5.681184
C 0.336856 0.877525 5.389610
C 0.447293 1.419711 6.095985
C 0.080262 0.771518 6.221319
C 1.046146 0.202482 5.615825
C 1.551621 0.766802 5.545753
C 1.430544 1.442500 6.148125
C 1.046610 0.593111 6.274533
C 1.952962 0.235153 5.694095
C 2.444808 0.869984 5.656475
C 2.478211 1.380278 6.498742
C 1.896350 0.593320 6.063760
C 3.163769 0.178120 5.274794
C 3.522123 0.835433 5.707303
C 3.742710 1.429660 6.202852
C 2.922539 0.574871 6.194761
C 4.025263 0.025073 5.670698
C 4.582955 0.808379 5.507828
C 4.425119 1.695443 6.310346
C 3.755476 0.700970 6.324926
C 5.246966 0.032204 5.696410
C 5.284395 0.748788 5.576911
C 5.489787 1.573960 6.279187
C 5.032700 0.761386 6.296433
C 6.197086 0.048881 5.497975
C 6.551415 0.676870 5.569163
C 6.408144 1.315486 6.271431
C 6.044685 0.577375 6.134713
C 7.041493 0.151493 5.508336
C 7.391484 0.806126 5.687716
C 7.482008 1.597458 6.379654
C 7.058234 0.521747 6.026186
C 8.119034 0.075262 5.340045
C 8.541345 0.869956 5.568987
C 8.840032 1.409393 6.379309
C 8.181801 0.387007 6.215777
C 0.039132 1.720445 5.290098
C 0.367331 2.542677 5.667581
C 0.498230 3.420872 6.475587
C 0.066651 2.072858 6.144063
C 0.871896 1.633752 5.385496
C 1.334295 2.736427 5.396703
C 1.420931 3.221928 6.526189
C 1.264088 2.388931 6.478929
C 1.940083 1.789977 5.714950
C 2.491221 2.550416 5.589932
C 2.732611 3.408263 6.226930
C 1.782156 2.361754 6.493352
C 2.820338 1.703168 5.492412
C 3.173239 2.567165 5.475225
C 3.453263 3.448618 6.409127
C 3.125590 2.087366 6.250706
C 4.068705 1.553804 5.336135
C 4.700987 2.693385 5.590220
C 4.501328 3.179536 6.588407
C 3.923173 2.273905 6.377928
C 5.000936 1.560318 5.468376
C 5.187406 2.647089 5.643954
C 5.350046 3.298447 6.388935
C 4.825839 2.317936 6.455037
C 5.956479 1.940250 5.321256
C 6.335079 2.782381 5.387639
C 6.531401 2.886759 6.319042
C 6.137853 2.363551 6.499406
C 6.887612 1.800639 5.550763
C 7.428802 2.597704 5.444342
C 7.411449 3.166969 6.081310
C 6.869402 2.488923 6.175048
C 8.021828 1.846703 5.525888
C 8.648811 2.561470 5.621267
C 8.556924 3.312858 6.339252
C 8.013058 2.134170 6.412936
C 0.256527 3.478722 5.411238
C 0.301883 4.296654 5.479911
C 0.410250 4.823777 6.085519
C 0.003342 4.189802 6.416403
C 1.172521 3.301654 5.391227
C 1.473051 4.402777 5.397369
C 1.436627 4.901518 6.202287
C 0.925164 3.968407 6.518841
C 1.739821 3.604953 5.422744
C 2.628864 4.273183 5.532168
C 2.559822 4.997262 6.427355
C 1.882118 4.167616 6.336123
C 3.171291 3.497581 5.595045
C 3.483516 4.379528 5.769451
C 3.388164 5.096552 6.358949
C 2.895869 4.327744 6.214971
C 4.060714 3.590900 5.368771
C 4.422697 4.141444 5.335600
C 4.397012 4.903018 6.312381
C 3.929311 4.037491 6.195551
C 5.081993 3.267474 5.554511
C 5.461914 4.161424 5.723567
C 5.576368 4.925665 6.308040
C 4.899680 4.105053 6.360772
C 6.030583 3.652232 5.387062
C 6.510834 4.151926 5.577499
C 6.172997 4.907724 6.507881
C 6.048069 4.051143 6.175964
C 7.076365 3.532216 5.325351
C 7.676060 4.570614 5.503931
C 7.570663 5.044118 6.339352
C 7.070157 3.824913 6.342851
C 7.834206 3.424568 5.748073
C 8.314609 4.246033 5.624983
C 8.753961 4.833789 6.278996
C 7.998148 3.874106 6.189830
C 0.048055 5.166019 5.636733
C 0.455983 6.144103 5.721617
C 0.427651 6.452052 6.572152
C 0.077128 5.845255 6.293999
C 0.863348 5.210344 5.768041
C 1.483643 6.248722 5.555888
C 1.717386 6.616943 6.235435
C 0.767061 5.604153 6.364506
C 2.120606 4.975700 5.490183
C 2.386109 6.054390 5.731316
C 2.497918 6.770481 6.361036
C 2.128549 5.795008 6.355183
C 2.906375 5.223907 5.490952
C 3.672508 6.101442 5.684871
C 3.501818 6.638892 6.103362
C 3.090650 5.937913 6.333017
C 4.109344 5.045854 5.461264
C 4.487531 6.006818 5.772112
C 4.583630 6.844181 6.569001
C 4.178977 5.627296 6.379662
C 5.095074 5.437783 5.529525
C 5.648003 5.934805 5.557215
C 5.581725 6.374176 6.356267
C 4.892493 5.522457 6.457142
C 5.920456 5.275180 5.354451
C 6.552090 5.935795 5.440027
C 6.587536 6.475016 6.375966
C 5.935885 5.671765 6.201686
C 7.173543 5.202487 5.366860
C 7.576369 6.099425 5.492502
C 7.349091 6.788707 6.216265
C 6.921899 5.549191 6.461656
C 7.859101 5.309878 5.507719
C 8.427694 6.241016 5.693196
C 8.445810 6.759073 6.437068
C 7.931099 5.705028 6.266651
C 0.192872 6.784701 5.660602
C 0.414053 7.617992 5.298201
C 0.440815 8.475004 6.062877
C 0.010296 7.716731 6.334058
C 1.131137 6.949062 5.309775
C 1.550516 7.612652 5.472888
C 1.345652 8.280653 6.140693
C 0.873430 7.525103 6.572978
C 2.019415 6.727613 5.535470
C 2.602589 7.825544 5.457421
C 2.362954 8.506801 6.256532
C 2.060285 7.634350 6.125725
C 3.062452 6.681153 5.553204
C 3.632188 7.851315 5.430283
C 3.527494 8.395252 6.097666
C 2.940342 7.519752 6.056150
C 4.016109 7.097483 5.321082
C 4.464179 7.938177 5.754358
C 4.430463 8.384170 6.076450
C 3.900845 7.517217 6.518560
C 4.744316 6.973542 5.589870
C 5.464445 7.927719 5.517397
C 5.752590 8.161196 6.335657
C 5.107238 7.280561 6.341228
C 5.848901 6.888390 5.587933
C 6.489072 7.963154 5.475947
C 6.527816 8.352271 6.041837
C 6.197877 7.621226 6.202813
C 7.117226 6.979653 5.340405
C 7.581854 8.065937 5.554002
C 7.497798 8.259238 6.174329
C 7.071808 7.419517 6.221770
C 8.011744 7.214795 5.405903
C 8.346956 7.836096 5.455159
C 8.349158 8.495248 6.124524
C 7.900905 7.263704 6.322280
C 0.135451 0.076737 7.311335
C 0.467909 1.067444 7.395757
C 0.428874 1.560853 7.818701
C 0.224958 0.576249 8.054559
C 1.019664 0.192385 7.206670
C 1.560641 1.067001 7.286188
C 1.426201 1.630057 8.171081
C 0.959970 0.517947 7.905038
C 2.149131 0.226118 6.873340
C 2.632113 0.609227 7.100334
C 2.171622 1.452627 7.973564
C 1.800302 0.682516 8.079657
C 3.123475 0.183778 7.070818
C 3.509406 0.812378 7.089649
C 3.495577 1.601647 8.008981
C 3.084541 0.587418 8.249732
C 4.109018 0.270012 7.365363
C 4.438658 0.733764 7.269717
C 4.319151 1.444638 8.265556
C 3.998567 0.568918 7.896455
C 4.778754 0.019801 7.217677
C 5.457860 1.066962 7.091946
C 5.439927 1.488405 7.821041
C 5.088737 0.492256 7.998182
C 5.933578 0.163830 7.160556
C 6.450939 0.667994 7.205776
C 6.676953 1.597348 7.949261
C 6.080918 0.746949 7.983519
C 7.022081 0.011050 7.052581
C 7.712096 0.906569 7.225232
C 7.568340 1.428696 7.757975
C 7.103150 0.714794 7.913091
C 8.150397 0.080843 7.345437
C 8.402701 0.752203 7.243499
C 8.296346 1.479010 8.041612
C 8.162167 0.408083 7.979512
C 0.108163 1.995902 7.160991
C 0.408973 2.442329 7.060946
C 0.360842 3.281541 7.770245
C 0.044634 2.209531 8.014284
C 1.052845 1.627472 7.035117
C 1.505964 2.758070 7.308758
C 1.475211 2.945971 7.784627
C 0.978299 2.215087 7.792958
C 1.875171 1.798717 7.258309
C 2.353592 2.734312 6.891551
C 2.420643 3.076168 7.733413
C 1.896826 2.292477 7.774401
C 2.975878 1.532557 7.201465
C 3.361848 2.680467 7.086037
C 3.505264 3.330377 7.859751
C 3.048304 2.327376 7.864559
C 3.818912 1.626262 7.083950
C 4.676724 2.561444 7.330491
C 4.378796 2.942908 7.869027
C 4.011777 2.457464 7.893699
C 4.896445 1.879635 7.042486
C 5.755881 2.591006 7.326097
C 5.464588 3.366137 7.858320
C 5.030704 2.202873 8.239777
C 6.187424 1.683882 7.253438
C 6.392174 2.586580 7.172922
C 6.537027 3.019899 7.990424
C 6.034775 2.132817 8.029505
C 7.087242 1.560963 7.231476
C 7.531765 2.414410 7.090665
C 7.388809 3.121604 7.798593
C 6.908939 2.204987 8.133587
C 8.131291 1.640923 7.257467
C 8.510038 2.793724 7.114545
C 8.414666 3.143456 7.964893
C 7.989266 2.197488 7.984868
C 0.123859 3.536277 7.439850
C 0.432146 4.139952 7.004375
C 0.375783 4.939916 7.825500
C 0.246161 4.226805 8.075001
C 0.933983 3.452450 7.012669
C 1.761417 4.429352 7.121768
C 1.605507 5.089492 8.061957
C 0.894183 4.079147 7.825673
C 1.927918 3.385736 6.968970
C 2.588196 4.182307 7.078443
C 2.633954 4.882375 7.804234
C 1.990124 3.971220 7.758787
C 2.842100 3.357257 7.137376
C 3.406369 4.329649 7.089224
C 3.541528 4.943244 7.714523
C 3.071460 4.101957 7.768687
C 4.169698 3.395974 7.323941
C 4.617466 4.133413 7.149665
C 4.669976 4.979824 7.918658
C 3.911921 3.793951 8.061413
C 5.176517 3.546744 7.028177
C 5.499041 4.172866 7.381179
C 5.556623 5.150865 8.020531
C 5.065562 3.968131 8.095288
C 6.203474 3.343476 7.130667
C 6.592757 4.560229 7.258952
C 6.678414 4.843255 7.921578
C 6.207022 3.954452 8.048022
C 7.022975 3.232433 7.087873
C 7.579191 4.403772 7.396998
C 7.636957 4.943828 7.988419
C 6.817242 4.108688 7.915804
C 7.858884 3.514320 7.146879
C 8.519236 4.517904 7.220391
C 8.415866 4.780735 7.977124
C 7.818859 4.163596 8.082910
C 0.068686 4.984278 6.920413
C 0.426557 6.290665 7.296444
C 0.318226 6.798152 8.039411
C 0.101580 5.649062 8.112731
C 0.979469 5.182209 7.077132
C 1.668206 6.052875 7.031728
C 1.404114 6.353719 8.069036
C 0.910654 5.780401 7.963083
C 2.077753 5.156646 7.278286
C 2.291020 5.911010 7.136260
C 2.641385 6.591577 8.129802
C 1.878345 5.800389 7.675924
C 2.804228 5.134037 7.293319
C 3.241901 6.246177 7.234311
C 3.543804 6.828167 7.905906
C 2.988626 5.877183 7.811455
C 4.120166 5.258317 7.313675
C 4.418143 5.898206 7.012953
C 4.487774 6.716002 8.267866
C 3.786859 5.850477 8.100631
C 4.915176 4.998264 6.920156
C 5.692458 6.065791 6.937869
C 5.497785 6.463647 7.982115
C 5.076780 5.783881 8.191304
C 6.138307 5.253218 7.323045
C 6.379191 5.995566 7.005262
C 6.474630 6.485634 8.179156
C 6.065189 5.745816 8.035053
C 7.015759 5.152724 7.346255
C 7.498318 6.014741 7.233170
C 7.363445 6.450797 7.916279
C 7.067348 6.023865 7.783074
C 7.854438 5.196558 7.147794
C 8.393268 6.101132 6.954007
C 8.596532 6.513530 7.970812
C 8.156610 5.851303 8.140342
C 0.026059 6.922601 7.141555
C 0.537515 7.786951 7.045207
C 0.489065 8.418802 7.809491
C 0.126169 7.451158 7.829762
C 0.902997 6.891657 7.143744
C 1.736129 7.783182 7.033238
C 1.352007 8.582457 8.015984
C 0.929765 7.633353 8.185706
C 2.039322 7.057614 7.021718
C 2.469611 7.861045 6.830150
C 2.322924 8.441864 8.031345
C 1.861437 7.714125 7.833256
C 2.929072 6.747211 7.197132
C 3.756338 7.894799 7.096313
C 3.340900 8.557584 7.860067
C 2.885420 7.571503 8.038368
C 3.912709 7.054910 6.806953
C 4.459863 7.720092 7.210961
C 4.586721 8.227714 8.054282
C 4.038842 7.405306 8.091467
C 4.992527 6.968013 7.324266
C 5.517491 7.904570 7.060296
C 5.513270 8.511312 7.832085
C 5.276329 7.445122 8.116082
C 5.925341 6.929950 6.930109
C 6.436587 7.998073 7.129869
C 6.616335 8.222233 7.827202
C 5.979649 7.496840 8.077809
C 6.919368 6.898239 7.174177
C 7.533866 7.630143 7.265535
C 7.623421 8.408123 8.000772
C 7.116434 7.662856 7.733721
C 8.043984 7.169962 7.262675
C 8.352288 7.966129 7.029663
C 8.579940 8.390964 8.156147
C 7.803792 7.404238 7.908487
C 0.138391 0.004223 8.820412
C 0.355305 0.726971 8.869647
C 0.486983 1.532431 9.387935
C 0.263119 0.530480 9.286649
C 0.861728 0.108974 8.553636
C 1.471983 1.105111 8.743317
C 1.371527 1.274187 9.424508
C 0.953976 0.652185 9.474675
C 1.795542 0.118542 8.820735
C 2.401327 0.864998 8.611755
C 2.706877 1.272371 9.465814
C 1.827814 0.616747 9.573810
C 3.149138 0.001133 8.739372
C 3.509114 0.773177 8.835417
C 3.470188 1.290704 9.434797
C 3.122815 0.545756 9.567403
C 4.246755 0.147270 8.672572
C 4.601216 0.819265 8.773782
C 4.578331 1.534394 9.451746
C 3.969341 0.455014 9.492379
C 4.806428 0.123959 8.575706
C 5.550945 1.082571 8.844120
C 5.549802 1.409852 9.386278
C 4.996380 0.783239 9.305710
C 5.993089 0.011458 8.872160
C 6.353702 0.835371 8.879046
C 6.677595 1.633778 9.535503
C 5.745374 0.680919 9.410379
C 7.060252 0.006343 8.707971
C 7.529862 0.854474 8.715896
C 7.485365 1.426425 9.588251
C 7.005411 0.696477 9.394427
C 7.938811 0.027738 8.647564
C 8.602216 1.020699 8.992438
C 8.484033 1.248008 9.568930
C 7.774168 0.337182 9.467911
C 0.122864 1.755195 8.454868
C 0.417073 2.437988 8.639375
C 0.391320 3.274278 9.486777
C 0.387754 2.425657 9.523611
C 0.869335 1.709059 8.515595
C 1.682463 2.682520 8.889321
C 1.634065 2.944481 9.393325
C 1.024600 2.279248 9.534062
C 1.914461 1.572437 8.838948
C 2.551692 2.376757 8.682511
C 2.682008 3.131023 9.406604
C 2.251622 2.393396 9.569660
C 3.091753 1.626378 8.734615
C 3.671516 2.844568 8.936595
C 3.503924 3.288662 9.446427
C 3.090734 2.477036 9.553362
C 4.103455 1.807308 8.982384
C 4.589952 2.620823 8.723239
C 4.306714 3.098183 9.576012
C 4.144647 2.395469 9.389811
C 5.009024 1.497215 8.884163
C 5.521009 2.614146 8.544674
C 5.756380 3.188930 9.418760
C 5.140279 2.427985 9.546749
C 6.157728 1.712547 8.719428
C 6.511490 2.466693 8.779207
C 6.545980 2.972384 9.475513
C 5.833268 2.196964 9.488869
C 6.875929 1.688992 8.537043
C 7.612090 2.504762 8.525975
C 7.487862 2.998793 9.585923
C 6.644825 2.335094 9.473133
C 7.944267 1.810780 8.707957
C 8.321724 2.443057 8.843139
C 8.466696 3.151698 9.488299
C 8.041104 2.500268 9.343072
C 0.036185 3.423376 8.997388
C 0.440975 4.402992 8.585980
C 0.304512 4.960255 9.539119
C 0.283975 4.157241 9.493429
C 1.072939 3.522426 8.862636
C 1.609421 4.453110 9.013616
C 1.333725 4.978714 9.562945
C 1.133501 4.020095 9.512010
C 1.945980 3.651651 8.619442
C 2.467351 4.285414 8.787650
C 2.502012 4.865741 9.425769
C 1.795439 3.892866 9.491165
C 3.171108 3.497916 8.885513
C 3.270986 4.367862 9.006890
C 3.605796 5.098508 9.274409
C 3.222975 3.977030 9.516293
C 4.108636 3.496567 8.831888
C 4.693834 4.318916 9.052777
C 4.490502 5.252364 9.518027
C 3.875301 4.008747 9.528839
C 5.108791 3.351050 8.644312
C 5.577627 4.625109 8.727603
C 5.270343 5.068021 9.525630
C 4.946109 4.042578 9.492849
C 5.793678 3.602477 8.714569
C 6.534827 4.510915 8.686041
C 6.652192 4.687132 9.524337
C 6.231506 4.052828 9.321663
C 6.740217 3.478815 8.859498
C 7.519889 4.290669 8.686318
C 7.666834 4.889875 9.441886
C 7.053868 4.191987 9.510071
C 8.153067 3.482742 8.871720
C 8.491115 4.059136 8.729196
C 8.451986 5.071105 9.449444
C 7.774484 4.106806 9.530049
C 0.423106 5.164866 8.630754
C 0.262622 6.192607 8.909048
C 0.380338 6.610049 9.526671
C 0.110811 5.486544 9.506459
C 1.162228 5.070632 8.723726
C 1.429721 5.936672 8.839737
C 1.703838 6.705690 9.386323
C 1.032496 6.079617 9.531156
C 2.001370 5.397547 8.614478
C 2.557120 6.005611 8.831550
C 2.491211 6.454231 9.386208
C 1.736238 5.921381 9.392906
C 2.977162 5.393416 8.645258
C 3.294665 6.230962 8.950876
C 3.382043 6.716301 9.388666
C 3.034050 5.557007 9.590017
C 4.097229 5.079820 8.724676
C 4.592903 6.063805 8.521826
C 4.360096 6.847464 9.559828
C 4.009542 5.584738 9.548687
C 5.004149 4.965669 8.870635
C 5.639504 6.083805 8.952475
C 5.415405 6.715341 9.461528
C 5.082100 5.655317 9.567124
C 6.012026 5.003700 8.814199
C 6.280669 5.937477 8.893842
C 6.556917 6.816638 9.509638
C 6.173579 5.905495 9.503715
C 7.123718 5.215339 8.788534
C 7.594277 6.055661 8.943219
C 7.372251 6.607854 9.590923
C 7.130609 5.666632 9.481568
C 8.179936 5.315968 8.919515
C 8.286318 5.764123 8.719816
C 8.694655 6.545608 9.295275
C 8.213149 5.733934 9.515185
C 0.229857 6.977850 8.877793
C 0.369195 7.735747 8.569541
C 0.755791 8.479934 9.417916
C 0.015097 7.396652 9.307079
C 1.065551 6.904351 8.927030
C 1.436762 7.574803 8.848300
C 1.543237 8.303244 9.303760
C 0.895688 7.814124 9.541837
C 1.938757 6.849200 8.972355
C 2.663699 7.782580 8.802086
C 2.325701 8.315414 9.558265
C 2.056465 7.277256 9.428725
C 3.086373 6.943885 8.693335
C 3.468438 7.626727 8.913700
C 3.725577 8.391829 9.441460
C 2.956229 7.509547 9.472207
C 3.964840 7.106349 8.791328
C 4.413103 7.836436 8.669929
C 4.595234 8.281310 9.378539
C 3.835941 7.573115 9.586402
C 4.878700 6.947081 9.014352
C 5.609961 7.849741 8.952184
C 5.572744 8.320906 9.565984
C 5.407951 7.298926 9.562827
C 5.801534 6.780261 8.723954
C 6.555859 7.655705 8.913299
C 6.667944 8.606000 9.551754
C 5.775609 7.566256 9.497867
C 7.064953 7.112886 8.762541
C 7.632079 7.938293 8.718658
C 7.814749 8.166367 9.560615
C 6.844672 7.739832 9.464341
C 7.979493 6.930301 9.000606
C 8.498557 7.822773 8.998681
C 8.571523 8.084355 9.477772
C 8.014700 7.359995 9.357931
