2160
Frame 1/10
C 0.000000 0.000000 0.000000
C 0.500000 0.866025 0.000000
C 0.500000 1.443380 0.816497
C 0.000000 0.577350 0.816497
C 1.000000 0.000000 0.000000
C 1.500000 0.866025 0.000000
C 1.500000 1.443380 0.816497
C 1.000000 0.577350 0.816497
C 2.000000 0.000000 0.000000
C 2.500000 0.866025 0.000000
C 2.500000 1.443380 0.816497
C 2.000000 0.577350 0.816497
C 3.000000 0.000000 0.000000
C 3.500000 0.866025 0.000000
C 3.500000 1.443380 0.816497
C 3.000000 0.577350 0.816497
C 4.000000 0.000000 0.000000
C 4.500000 0.866025 0.000000
C 4.500000 1.443380 0.816497
C 4.000000 0.577350 0.816497
C 5.000000 0.000000 0.000000
C 5.500000 0.866025 0.000000
C 5.500000 1.443380 0.816497
C 5.000000 0.577350 0.816497
C 6.000000 0.000000 0.000000
C 6.500000 0.866025 0.000000
C 6.500000 1.443380 0.816497
C 6.000000 0.577350 0.816497
C 7.000000 0.000000 0.000000
C 7.500000 0.866025 0.000000
C 7.500000 1.443380 0.816497
C 7.000000 0.577350 0.816497
C 8.000000 0.000000 0.000000
C 8.500000 0.866025 0.000000
C 8.500000 1.443380 0.816497
C 8.000000 0.577350 0.816497
C 0.000000 1.732050 0.000000
C 0.500000 2.598080 0.000000
C 0.500000 3.175430 0.816497
C 0.000000 2.309400 0.816497
C 1.000000 1.732050 0.000000
C 1.500000 2.598080 0.000000
C 1.500000 3.175430 0.816497
C 1.000000 2.309400 0.816497
C 2.000000 1.732050 0.000000
C 2.500000 2.598080 0.000000
C 2.500000 3.175430 0.816497
C 2.000000 2.309400 0.816497
C 3.000000 1.732050 0.000000
C 3.500000 2.598080 0.000000
C 3.500000 3.175430 0.816497
C 3.000000 2.309400 0.816497
C 4.000000 1.732050 0.000000
C 4.500000 2.598080 0.000000
C 4.500000 3.175430 0.816497
C 4.000000 2.309400 0.816497
C 5.000000 1.732050 0.000000
C 5.500000 2.598080 0.000000
C 5.500000 3.175430 0.816497
C 5.000000 2.309400 0.816497
C 6.000000 1.732050 0.000000
C 6.500000 2.598080 0.000000
C 6.500000 3.175430 0.816497
C 6.000000 2.309400 0.816497
C 7.000000 1.732050 0.000000
C 7.500000 2.598080 0.000000
C 7.500000 3.175430 0.816497
C 7.000000 2.309400 0.816497
C 8.000000 1.732050 0.000000
C 8.500000 2.598080 0.000000
C 8.500000 3.175430 0.816497
C 8.000000 2.309400 0.816497
C 0.000000 3.464100 0.000000
C 0.500000 4.330130 0.000000
C 0.500000 4.907480 0.816497
C 0.000000 4.041450 0.816497
C 1.000000 3.464100 0.000000
C 1.500000 4.330130 0.000000
C 1.500000 4.907480 0.816497
C 1.000000 4.041450 0.816497
C 2.000000 3.464100 0.000000
C 2.500000 4.330130 0.000000
C 2.500000 4.907480 0.816497
C 2.000000 4.041450 0.816497
C 3.000000 3.464100 0.000000
C 3.500000 4.330130 0.000000
C 3.500000 4.907480 0.816497
C 3.000000 4.041450 0.816497
C 4.000000 3.464100 0.000000
C 4.500000 4.330130 0.000000
C 4.500000 4.907480 0.816497
C 4.000000 4.041450 0.816497
C 5.000000 3.464100 0.000000
C 5.500000 4.330130 0.000000
C 5.500000 4.907480 0.816497
C 5.000000 4.041450 0.816497
C 6.000000 3.464100 0.000000
C 6.500000 4.330130 0.000000
C 6.500000 4.907480 0.816497
C 6.000000 4.041450 0.816497
C 7.000000 3.464100 0.000000
C 7.500000 4.330130 0.000000
C 7.500000 4.907480 0.816497
C 7.000000 4.041450 0.816497
C 8.000000 3.464100 0.000000
C 8.500000 4.330130 0.000000
C 8.500000 4.907480 0.816497
C 8.000000 4.041450 0.816497
C 0.000000 5.196150 0.000000
C 0.500000 6.062180 0.000000
C 0.500000 6.639530 0.816497
C 0.000000 5.773500 0.816497
C 1.000000 5.196150 0.000000
C 1.500000 6.062180 0.000000
C 1.500000 6.639530 0.816497
C 1.000000 5.773500 0.816497
C 2.000000 5.196150 0.000000
C 2.500000 6.062180 0.000000
C 2.500000 6.639530 0.816497
C 2.000000 5.773500 0.816497
C 3.000000 5.196150 0.000000
C 3.500000 6.062180 0.000000
C 3.500000 6.639530 0.816497
C 3.000000 5.773500 0.816497
C 4.000000 5.196150 0.000000
C 4.500000 6.062180 0.000000
C 4.500000 6.639530 0.816497
C 4.000000 5.773500 0.816497
C 5.000000 5.196150 0.000000
C 5.500000 6.062180 0.000000
C 5.500000 6.639530 0.816497
C 5.000000 5.773500 0.816497
C 6.000000 5.196150 0.000000
C 6.500000 6.062180 0.000000
C 6.500000 6.639530 0.816497
C 6.000000 5.773500 0.816497
C 7.000000 5.196150 0.000000
C 7.500000 6.062180 0.000000
C 7.500000 6.639530 0.816497
C 7.000000 5.773500 0.816497
C 8.000000 5.196150 0.000000
C 8.500000 6.062180 0.000000
C 8.500000 6.639530 0.816497
C 8.000000 5.773500 0.816497
C 0.000000 6.928200 0.000000
C 0.500000 7.794230 0.000000
C 0.500000 8.371580 0.816497
C 0.000000 7.505550 0.816497
C 1.000000 6.928200 0.000000
C 1.500000 7.794230 0.000000
C 1.500000 8.371580 0.816497
C 1.000000 7.505550 0.816497
C 2.000000 6.928200 0.000000
C 2.500000 7.794230 0.000000
C 2.500000 8.371580 0.816497
C 2.000000 7.505550 0.816497
C 3.000000 6.928200 0.000000
C 3.500000 7.794230 0.000000
C 3.500000 8.371580 0.816497
C 3.000000 7.505550 0.816497
C 4.000000 6.928200 0.000000
C 4.500000 7.794230 0.000000
C 4.500000 8.371580 0.816497
C 4.000000 7.505550 0.816497
C 5.000000 6.928200 0.000000
C 5.500000 7.794230 0.000000
C 5.500000 8.371580 0.816497
C 5.000000 7.505550 0.816497
C 6.000000 6.928200 0.000000
C 6.500000 7.794230 0.000000
C 6.500000 8.371580 0.816497
C 6.000000 7.505550 0.816497
C 7.000000 6.928200 0.000000
C 7.500000 7.794230 0.000000
C 7.500000 8.371580 0.816497
C 7.000000 7.505550 0.816497
C 8.000000 6.928200 0.000000
C 8.500000 7.794230 0.000000
C 8.500000 8.371580 0.816497
C 8.000000 7.505550 0.816497
C 0.000000 0.000000 1.632990
C 0.500000 0.866025 1.632990
C 0.500000 1.443380 2.449490
C 0.000000 0.577350 2.449490
C 1.000000 0.000000 1.632990
C 1.500000 0.866025 1.632990
C 1.500000 1.443380 2.449490
C 1.000000 0.577350 2.449490
C 2.000000 0.000000 1.632990
C 2.500000 0.866025 1.632990
C 2.500000 1.443380 2.449490
C 2.000000 0.577350 2.449490
C 3.000000 0.000000 1.632990
C 3.500000 0.866025 1.632990
C 3.500000 1.443380 2.449490
C 3.000000 0.577350 2.449490
C 4.000000 0.000000 1.632990
C 4.500000 0.866025 1.632990
C 4.500000 1.443380 2.449490
C 4.000000 0.577350 2.449490
C 5.000000 0.000000 1.632990
C 5.500000 0.866025 1.632990
C 5.500000 1.443380 2.449490
C 5.000000 0.577350 2.449490
C 6.000000 0.000000 1.632990
C 6.500000 0.866025 1.632990
C 6.500000 1.443380 2.449490
C 6.000000 0.577350 2.449490
C 7.000000 0.000000 1.632990
C 7.500000 0.866025 1.632990
C 7.500000 1.443380 2.449490
C 7.000000 0.577350 2.449490
C 8.000000 0.000000 1.632990
C 8.500000 0.866025 1.632990
C 8.500000 1.443380 2.449490
C 8.000000 0.577350 2.449490
C 0.000000 1.732050 1.632990
C 0.500000 2.598080 1.632990
C 0.500000 3.175430 2.449490
C 0.000000 2.309400 2.449490
C 1.000000 1.732050 1.632990
C 1.500000 2.598080 1.632990
C 1.500000 3.175430 2.449490
C 1.000000 2.309400 2.449490
C 2.000000 1.732050 1.632990
C 2.500000 2.598080 1.632990
C 2.500000 3.175430 2.449490
C 2.000000 2.309400 2.449490
C 3.000000 1.732050 1.632990
C 3.500000 2.598080 1.632990
C 3.500000 3.175430 2.449490
C 3.000000 2.309400 2.449490
C 4.000000 1.732050 1.632990
C 4.500000 2.598080 1.632990
C 4.500000 3.175430 2.449490
C 4.000000 2.309400 2.449490
C 5.000000 1.732050 1.632990
C 5.500000 2.598080 1.632990
C 5.500000 3.175430 2.449490
C 5.000000 2.309400 2.449490
C 6.000000 1.732050 1.632990
C 6.500000 2.598080 1.632990
C 6.500000 3.175430 2.449490
C 6.000000 2.309400 2.449490
C 7.000000 1.732050 1.632990
C 7.500000 2.598080 1.632990
C 7.500000 3.175430 2.449490
C 7.000000 2.309400 2.449490
C 8.000000 1.732050 1.632990
C 8.500000 2.598080 1.632990
C 8.500000 3.175430 2.449490
C 8.000000 2.309400 2.449490
C 0.000000 3.464100 1.632990
C 0.500000 4.330130 1.632990
C 0.500000 4.907480 2.449490
C 0.000000 4.041450 2.449490
C 1.000000 3.464100 1.632990
C 1.500000 4.330130 1.632990
C 1.500000 4.907480 2.449490
C 1.000000 4.041450 2.449490
C 2.000000 3.464100 1.632990
C 2.500000 4.330130 1.632990
C 2.500000 4.907480 2.449490
C 2.000000 4.041450 2.449490
C 3.000000 3.464100 1.632990
C 3.500000 4.330130 1.632990
C 3.500000 4.907480 2.449490
C 3.000000 4.041450 2.449490
C 4.000000 3.464100 1.632990
C 4.500000 4.330130 1.632990
C 4.500000 4.907480 2.449490
C 4.000000 4.041450 2.449490
C 5.000000 3.464100 1.632990
C 5.500000 4.330130 1.632990
C 5.500000 4.907480 2.449490
C 5.000000 4.041450 2.449490
C 6.000000 3.464100 1.632990
C 6.500000 4.330130 1.632990
C 6.500000 4.907480 2.449490
C 6.000000 4.041450 2.449490
C 7.000000 3.464100 1.632990
C 7.500000 4.330130 1.632990
C 7.500000 4.907480 2.449490
C 7.000000 4.041450 2.449490
C 8.000000 3.464100 1.632990
C 8.500000 4.330130 1.632990
C 8.500000 4.907480 2.449490
C 8.000000 4.041450 2.449490
C 0.000000 5.196150 1.632990
C 0.500000 6.062180 1.632990
C 0.500000 6.639530 2.449490
C 0.000000 5.773500 2.449490
C 1.000000 5.196150 1.632990
C 1.500000 6.062180 1.632990
C 1.500000 6.639530 2.449490
C 1.000000 5.773500 2.449490
C 2.000000 5.196150 1.632990
C 2.500000 6.062180 1.632990
C 2.500000 6.639530 2.449490
C 2.000000 5.773500 2.449490
C 3.000000 5.196150 1.632990
C 3.500000 6.062180 1.632990
C 3.500000 6.639530 2.449490
C 3.000000 5.773500 2.449490
C 4.000000 5.196150 1.632990
C 4.500000 6.062180 1.632990
C 4.500000 6.639530 2.449490
C 4.000000 5.773500 2.449490
C 5.000000 5.196150 1.632990
C 5.500000 6.062180 1.632990
C 5.500000 6.639530 2.449490
C 5.000000 5.773500 2.449490
C 6.000000 5.196150 1.632990
C 6.500000 6.062180 1.632990
C 6.500000 6.639530 2.449490
C 6.000000 5.773500 2.449490
C 7.000000 5.196150 1.632990
C 7.500000 6.062180 1.632990
C 7.500000 6.639530 2.449490
C 7.000000 5.773500 2.449490
C 8.000000 5.196150 1.632990
C 8.500000 6.062180 1.632990
C 8.500000 6.639530 2.449490
C 8.000000 5.773500 2.449490
C 0.000000 6.928200 1.632990
C 0.500000 7.794230 1.632990
C 0.500000 8.371580 2.449490
C 0.000000 7.505550 2.449490
C 1.000000 6.928200 1.632990
C 1.500000 7.794230 1.632990
C 1.500000 8.371580 2.449490
C 1.000000 7.505550 2.449490
C 2.000000 6.928200 1.632990
C 2.500000 7.794230 1.632990
C 2.500000 8.371580 2.449490
C 2.000000 7.505550 2.449490
C 3.000000 6.928200 1.632990
C 3.500000 7.794230 1.632990
C 3.500000 8.371580 2.449490
C 3.000000 7.505550 2.449490
C 4.000000 6.928200 1.632990
C 4.500000 7.794230 1.632990
C 4.500000 8.371580 2.449490
C 4.000000 7.505550 2.449490
C 5.000000 6.928200 1.632990
C 5.500000 7.794230 1.632990
C 5.500000 8.371580 2.449490
C 5.000000 7.505550 2.449490
C 6.000000 6.928200 1.632990
C 6.500000 7.794230 1.632990
C 6.500000 8.371580 2.449490
C 6.000000 7.505550 2.449490
C 7.000000 6.928200 1.632990
C 7.500000 7.794230 1.632990
C 7.500000 8.371580 2.449490
C 7.000000 7.505550 2.449490
C 8.000000 6.928200 1.632990
C 8.500000 7.794230 1.632990
C 8.500000 8.371580 2.449490
C 8.000000 7.505550 2.449490
C 0.000000 0.000000 3.265990
C 0.500000 0.866025 3.265990
C 0.500000 1.443380 4.082480
C 0.000000 0.577350 4.082480
C 1.000000 0.000000 3.265990
C 1.500000 0.866025 3.265990
C 1.500000 1.443380 4.082480
C 1.000000 0.577350 4.082480
C 2.000000 0.000000 3.265990
C 2.500000 0.866025 3.265990
C 2.500000 1.443380 4.082480
C 2.000000 0.577350 4.082480
C 3.000000 0.000000 3.265990
C 3.500000 0.866025 3.265990
C 3.500000 1.443380 4.082480
C 3.000000 0.577350 4.082480
C 4.000000 0.000000 3.265990
C 4.500000 0.866025 3.265990
C 4.500000 1.443380 4.082480
C 4.000000 0.577350 4.082480
C 5.000000 0.000000 3.265990
C 5.500000 0.866025 3.265990
C 5.500000 1.443380 4.082480
C 5.000000 0.577350 4.082480
C 6.000000 0.000000 3.265990
C 6.500000 0.866025 3.265990
C 6.500000 1.443380 4.082480
C 6.000000 0.577350 4.082480
C 7.000000 0.000000 3.265990
C 7.500000 0.866025 3.265990
C 7.500000 1.443380 4.082480
C 7.000000 0.577350 4.082480
C 8.000000 0.000000 3.265990
C 8.500000 0.866025 3.265990
C 8.500000 1.443380 4.082480
C 8.000000 0.577350 4.082480
C 0.000000 1.732050 3.265990
C 0.500000 2.598080 3.265990
C 0.500000 3.175430 4.082480
C 0.000000 2.309400 4.082480
C 1.000000 1.732050 3.265990
C 1.500000 2.598080 3.265990
C 1.500000 3.175430 4.082480
C 1.000000 2.309400 4.082480
C 2.000000 1.732050 3.265990
C 2.500000 2.598080 3.265990
C 2.500000 3.175430 4.082480
C 2.000000 2.309400 4.082480
C 3.000000 1.732050 3.265990
C 3.500000 2.598080 3.265990
C 3.500000 3.175430 4.082480
C 3.000000 2.309400 4.082480
C 4.000000 1.732050 3.265990
C 4.500000 2.598080 3.265990
C 4.500000 3.175430 4.082480
C 4.000000 2.309400 4.082480
C 5.000000 1.732050 3.265990
C 5.500000 2.598080 3.265990
C 5.500000 3.175430 4.082480
C 5.000000 2.309400 4.082480
C 6.000000 1.732050 3.265990
C 6.500000 2.598080 3.265990
C 6.500000 3.175430 4.082480
C 6.000000 2.309400 4.082480
C 7.000000 1.732050 3.265990
C 7.500000 2.598080 3.265990
C 7.500000 3.175430 4.082480
C 7.000000 2.309400 4.082480
C 8.000000 1.732050 3.265990
C 8.500000 2.598080 3.265990
C 8.500000 3.175430 4.082480
C 8.000000 2.309400 4.082480
C 0.000000 3.464100 3.265990
C 0.500000 4.330130 3.265990
C 0.500000 4.907480 4.082480
C 0.000000 4.041450 4.082480
C 1.000000 3.464100 3.265990
C 1.500000 4.330130 3.265990
C 1.500000 4.907480 4.082480
C 1.000000 4.041450 4.082480
C 2.000000 3.464100 3.265990
C 2.500000 4.330130 3.265990
C 2.500000 4.907480 4.082480
C 2.000000 4.041450 4.082480
C 3.000000 3.464100 3.265990
C 3.500000 4.330130 3.265990
C 3.500000 4.907480 4.082480
C 3.000000 4.041450 4.082480
C 4.000000 3.464100 3.265990
C 4.500000 4.330130 3.265990
C 4.500000 4.907480 4.082480
C 4.000000 4.041450 4.082480
C 5.000000 3.464100 3.265990
C 5.500000 4.330130 3.265990
C 5.500000 4.907480 4.082480
C 5.000000 4.041450 4.082480
C 6.000000 3.464100 3.265990
C 6.500000 4.330130 3.265990
C 6.500000 4.907480 4.082480
C 6.000000 4.041450 4.082480
C 7.000000 3.464100 3.265990
C 7.500000 4.330130 3.265990
C 7.500000 4.907480 4.082480
C 7.000000 4.041450 4.082480
C 8.000000 3.464100 3.265990
C 8.500000 4.330130 3.265990
C 8.500000 4.907480 4.082480
C 8.000000 4.041450 4.082480
C 0.000000 5.196150 3.265990
C 0.500000 6.062180 3.265990
C 0.500000 6.639530 4.082480
C 0.000000 5.773500 4.082480
C 1.000000 5.196150 3.265990
C 1.500000 6.062180 3.265990
C 1.500000 6.639530 4.082480
C 1.000000 5.773500 4.082480
C 2.000000 5.196150 3.265990
C 2.500000 6.062180 3.265990
C 2.500000 6.639530 4.082480
C 2.000000 5.773500 4.082480
C 3.000000 5.196150 3.265990
C 3.500000 6.062180 3.265990
C 3.500000 6.639530 4.082480
C 3.000000 5.773500 4.082480
C 4.000000 5.196150 3.265990
C 4.500000 6.062180 3.265990
C 4.500000 6.639530 4.082480
C 4.000000 5.773500 4.082480
C 5.000000 5.196150 3.265990
C 5.500000 6.062180 3.265990
C 5.500000 6.639530 4.082480
C 5.000000 5.773500 4.082480
C 6.000000 5.196150 3.265990
C 6.500000 6.062180 3.265990
C 6.500000 6.639530 4.082480
C 6.000000 5.773500 4.082480
C 7.000000 5.196150 3.265990
C 7.500000 6.062180 3.265990
C 7.500000 6.639530 4.082480
C 7.000000 5.773500 4.082480
C 8.000000 5.196150 3.265990
C 8.500000 6.062180 3.265990
C 8.500000 6.639530 4.082480
C 8.000000 5.773500 4.082480
C 0.000000 6.928200 3.265990
C 0.500000 7.794230 3.265990
C 0.500000 8.371580 4.082480
C 0.000000 7.505550 4.082480
C 1.000000 6.928200 3.265990
C 1.500000 7.794230 3.265990
C 1.500000 8.371580 4.082480
C 1.000000 7.505550 4.082480
C 2.000000 6.928200 3.265990
C 2.500000 7.794230 3.265990
C 2.500000 8.371580 4.082480
C 2.000000 7.505550 4.082480
C 3.000000 6.928200 3.265990
C 3.500000 7.794230 3.265990
C 3.500000 8.371580 4.082480
C 3.000000 7.505550 4.082480
C 4.000000 6.928200 3.265990
C 4.500000 7.794230 3.265990
C 4.500000 8.371580 4.082480
C 4.000000 7.505550 4.082480
C 5.000000 6.928200 3.265990
C 5.500000 7.794230 3.265990
C 5.500000 8.371580 4.082480
C 5.000000 7.505550 4.082480
C 6.000000 6.928200 3.265990
C 6.500000 7.794230 3.265990
C 6.500000 8.371580 4.082480
C 6.000000 7.505550 4.082480
C 7.000000 6.928200 3.265990
C 7.500000 7.794230 3.265990
C 7.500000 8.371580 4.082480
C 7.000000 7.505550 4.082480
C 8.000000 6.928200 3.265990
C 8.500000 7.794230 3.265990
C 8.500000 8.371580 4.082480
C 8.000000 7.505550 4.082480
C 0.000000 0.000000 4.898980
C 0.500000 0.866025 4.898980
C 0.500000 1.443380 5.715480
C 0.000000 0.577350 5.715480
C 1.000000 0.000000 4.898980
C 1.500000 0.866025 4.898980
C 1.500000 1.443380 5.715480
C 1.000000 0.577350 5.715480
C 2.000000 0.000000 4.898980
C 2.500000 0.866025 4.898980
C 2.500000 1.443380 5.715480
C 2.000000 0.577350 5.715480
C 3.000000 0.000000 4.898980
C 3.500000 0.866025 4.898980
C 3.500000 1.443380 5.715480
C 3.000000 0.577350 5.715480
C 4.000000 0.000000 4.898980
C 4.500000 0.866025 4.898980
C 4.500000 1.443380 5.715480
C 4.000000 0.577350 5.715480
C 5.000000 0.000000 4.898980
C 5.500000 0.866025 4.898980
C 5.500000 1.443380 5.715480
C 5.000000 0.577350 5.715480
C 6.000000 0.000000 4.898980
C 6.500000 0.866025 4.898980
C 6.500000 1.443380 5.715480
C 6.000000 0.577350 5.715480
C 7.000000 0.000000 4.898980
C 7.500000 0.866025 4.898980
C 7.500000 1.443380 5.715480
C 7.000000 0.577350 5.715480
C 8.000000 0.000000 4.898980
C 8.500000 0.866025 4.898980
C 8.500000 1.443380 5.715480
C 8.000000 0.577350 5.715480
C 0.000000 1.732050 4.898980
C 0.500000 2.598080 4.898980
C 0.500000 3.175430 5.715480
C 0.000000 2.309400 5.715480
C 1.000000 1.732050 4.898980
C 1.500000 2.598080 4.898980
C 1.500000 3.175430 5.715480
C 1.000000 2.309400 5.715480
C 2.000000 1.732050 4.898980
C 2.500000 2.598080 4.898980
C 2.500000 3.175430 5.715480
C 2.000000 2.309400 5.715480
C 3.000000 1.732050 4.898980
C 3.500000 2.598080 4.898980
C 3.500000 3.175430 5.715480
C 3.000000 2.309400 5.715480
C 4.000000 1.732050 4.898980
C 4.500000 2.598080 4.898980
C 4.500000 3.175430 5.715480
C 4.000000 2.309400 5.715480
C 5.000000 1.732050 4.898980
C 5.500000 2.598080 4.898980
C 5.500000 3.175430 5.715480
C 5.000000 2.309400 5.715480
C 6.000000 1.732050 4.898980
C 6.500000 2.598080 4.898980
C 6.500000 3.175430 5.715480
C 6.000000 2.309400 5.715480
C 7.000000 1.732050 4.898980
C 7.500000 2.598080 4.898980
C 7.500000 3.175430 5.715480
C 7.000000 2.309400 5.715480
C 8.000000 1.732050 4.898980
C 8.500000 2.598080 4.898980
C 8.500000 3.175430 5.715480
C 8.000000 2.309400 5.715480
C 0.000000 3.464100 4.898980
C 0.500000 4.330130 4.898980
C 0.500000 4.907480 5.715480
C 0.000000 4.041450 5.715480
C 1.000000 3.464100 4.898980
C 1.500000 4.330130 4.898980
C 1.500000 4.907480 5.715480
C 1.000000 4.041450 5.715480
C 2.000000 3.464100 4.898980
C 2.500000 4.330130 4.898980
C 2.500000 4.907480 5.715480
C 2.000000 4.041450 5.715480
C 3.000000 3.464100 4.898980
C 3.500000 4.330130 4.898980
C 3.500000 4.907480 5.715480
C 3.000000 4.041450 5.715480
C 4.000000 3.464100 4.898980
C 4.500000 4.330130 4.898980
C 4.500000 4.907480 5.715480
C 4.000000 4.041450 5.715480
C 5.000000 3.464100 4.898980
C 5.500000 4.330130 4.898980
C 5.500000 4.907480 5.715480
C 5.000000 4.041450 5.715480
C 6.000000 3.464100 4.898980
C 6.500000 4.330130 4.898980
C 6.500000 4.907480 5.715480
C 6.000000 4.041450 5.715480
C 7.000000 3.464100 4.898980
C 7.500000 4.330130 4.898980
C 7.500000 4.907480 5.715480
C 7.000000 4.041450 5.715480
C 8.000000 3.464100 4.898980
C 8.500000 4.330130 4.898980
C 8.500000 4.907480 5.715480
C 8.000000 4.041450 5.715480
C 0.000000 5.196150 4.898980
C 0.500000 6.062180 4.898980
C 0.500000 6.639530 5.715480
C 0.000000 5.773500 5.715480
C 1.000000 5.196150 4.898980
C 1.500000 6.062180 4.898980
C 1.500000 6.639530 5.715480
C 1.000000 5.773500 5.715480
C 2.000000 5.196150 4.898980
C 2.500000 6.062180 4.898980
C 2.500000 6.639530 5.715480
C 2.000000 5.773500 5.715480
C 3.000000 5.196150 4.898980
C 3.500000 6.062180 4.898980
C 3.500000 6.639530 5.715480
C 3.000000 5.773500 5.715480
C 4.000000 5.196150 4.898980
C 4.500000 6.062180 4.898980
C 4.500000 6.639530 5.715480
C 4.000000 5.773500 5.715480
C 5.000000 5.196150 4.898980
C 5.500000 6.062180 4.898980
C 5.500000 6.639530 5.715480
C 5.000000 5.773500 5.715480
C 6.000000 5.196150 4.898980
C 6.500000 6.062180 4.898980
C 6.500000 6.639530 5.715480
C 6.000000 5.773500 5.715480
C 7.000000 5.196150 4.898980
C 7.500000 6.062180 4.898980
C 7.500000 6.639530 5.715480
C 7.000000 5.773500 5.715480
C 8.000000 5.196150 4.898980
C 8.500000 6.062180 4.898980
C 8.500000 6.639530 5.715480
C 8.000000 5.773500 5.715480
C 0.000000 6.928200 4.898980
C 0.500000 7.794230 4.898980
C 0.500000 8.371580 5.715480
C 0.000000 7.505550 5.715480
C 1.000000 6.928200 4.898980
C 1.500000 7.794230 4.898980
C 1.500000 8.371580 5.715480
C 1.000000 7.505550 5.715480
C 2.000000 6.928200 4.898980
C 2.500000 7.794230 4.898980
C 2.500000 8.371580 5.715480
C 2.000000 7.505550 5.715480
C 3.000000 6.928200 4.898980
C 3.500000 7.794230 4.898980
C 3.500000 8.371580 5.715480
C 3.000000 7.505550 5.715480
C 4.000000 6.928200 4.898980
C 4.500000 7.794230 4.898980
C 4.500000 8.371580 5.715480
C 4.000000 7.505550 5.715480
C 5.000000 6.928200 4.898980
C 5.500000 7.794230 4.898980
C 5.500000 8.371580 5.715480
C 5.000000 7.505550 5.715480
C 6.000000 6.928200 4.898980
C 6.500000 7.794230 4.898980
C 6.500000 8.371580 5.715480
C 6.000000 7.505550 5.715480
C 7.000000 6.928200 4.898980
C 7.500000 7.794230 4.898980
C 7.500000 8.371580 5.715480
C 7.000000 7.505550 5.715480
C 8.000000 6.928200 4.898980
C 8.500000 7.794230 4.898980
C 8.500000 8.371580 5.715480
C 8.000000 7.505550 5.715480
C 0.000000 0.000000 6.531970
C 0.500000 0.866025 6.531970
C 0.500000 1.443380 7.348470
C 0.000000 0.577350 7.348470
C 1.000000 0.000000 6.531970
C 1.500000 0.866025 6.531970
C 1.500000 1.443380 7.348470
C 1.000000 0.577350 7.348470
C 2.000000 0.000000 6.531970
C 2.500000 0.866025 6.531970
C 2.500000 1.443380 7.348470
C 2.000000 0.577350 7.348470
C 3.000000 0.000000 6.531970
C 3.500000 0.866025 6.531970
C 3.500000 1.443380 7.348470
C 3.000000 0.577350 7.348470
C 4.000000 0.000000 6.531970
C 4.500000 0.866025 6.531970
C 4.500000 1.443380 7.348470
C 4.000000 0.577350 7.348470
C 5.000000 0.000000 6.531970
C 5.500000 0.866025 6.531970
C 5.500000 1.443380 7.348470
C 5.000000 0.577350 7.348470
C 6.000000 0.000000 6.531970
C 6.500000 0.866025 6.531970
C 6.500000 1.443380 7.348470
C 6.000000 0.577350 7.348470
C 7.000000 0.000000 6.531970
C 7.500000 0.866025 6.531970
C 7.500000 1.443380 7.348470
C 7.000000 0.577350 7.348470
C 8.000000 0.000000 6.531970
C 8.500000 0.866025 6.531970
C 8.500000 1.443380 7.348470
C 8.000000 0.577350 7.348470
C 0.000000 1.732050 6.531970
C 0.500000 2.598080 6.531970
C 0.500000 3.175430 7.348470
C 0.000000 2.309400 7.348470
C 1.000000 1.732050 6.531970
C 1.500000 2.598080 6.531970
C 1.500000 3.175430 7.348470
C 1.000000 2.309400 7.348470
C 2.000000 1.732050 6.531970
C 2.500000 2.598080 6.531970
C 2.500000 3.175430 7.348470
C 2.000000 2.309400 7.348470
C 3.000000 1.732050 6.531970
C 3.500000 2.598080 6.531970
C 3.500000 3.175430 7.348470
C 3.000000 2.309400 7.348470
C 4.000000 1.732050 6.531970
C 4.500000 2.598080 6.531970
C 4.500000 3.175430 7.348470
C 4.000000 2.309400 7.348470
C 5.000000 1.732050 6.531970
C 5.500000 2.598080 6.531970
C 5.500000 3.175430 7.348470
C 5.000000 2.309400 7.348470
C 6.000000 1.732050 6.531970
C 6.500000 2.598080 6.531970
C 6.500000 3.175430 7.348470
C 6.000000 2.309400 7.348470
C 7.000000 1.732050 6.531970
C 7.500000 2.598080 6.531970
C 7.500000 3.175430 7.348470
C 7.000000 2.309400 7.348470
C 8.000000 1.732050 6.531970
C 8.500000 2.598080 6.531970
C 8.500000 3.175430 7.348470
C 8.000000 2.309400 7.348470
C 0.000000 3.464100 6.531970
C 0.500000 4.330130 6.531970
C 0.500000 4.907480 7.348470
C 0.000000 4.041450 7.348470
C 1.000000 3.464100 6.531970
C 1.500000 4.330130 6.531970
C 1.500000 4.907480 7.348470
C 1.000000 4.041450 7.348470
C 2.000000 3.464100 6.531970
C 2.500000 4.330130 6.531970
C 2.500000 4.907480 7.348470
C 2.000000 4.041450 7.348470
C 3.000000 3.464100 6.531970
C 3.500000 4.330130 6.531970
C 3.500000 4.907480 7.348470
C 3.000000 4.041450 7.348470
C 4.000000 3.464100 6.531970
C 4.500000 4.330130 6.531970
C 4.500000 4.907480 7.348470
C 4.000000 4.041450 7.348470
C 5.000000 3.464100 6.531970
C 5.500000 4.330130 6.531970
C 5.500000 4.907480 7.348470
C 5.000000 4.041450 7.348470
C 6.000000 3.464100 6.531970
C 6.500000 4.330130 6.531970
C 6.500000 4.907480 7.348470
C 6.000000 4.041450 7.348470
C 7.000000 3.464100 6.531970
C 7.500000 4.330130 6.531970
C 7.500000 4.907480 7.348470
C 7.000000 4.041450 7.348470
C 8.000000 3.464100 6.531970
C 8.500000 4.330130 6.531970
C 8.500000 4.907480 7.348470
C 8.000000 4.041450 7.348470
C 0.000000 5.196150 6.531970
C 0.500000 6.062180 6.531970
C 0.500000 6.639530 7.348470
C 0.000000 5.773500 7.348470
C 1.000000 5.196150 6.531970
C 1.500000 6.062180 6.531970
C 1.500000 6.639530 7.348470
C 1.000000 5.773500 7.348470
C 2.000000 5.196150 6.531970
C 2.500000 6.062180 6.531970
C 2.500000 6.639530 7.348470
C 2.000000 5.773500 7.348470
C 3.000000 5.196150 6.531970
C 3.500000 6.062180 6.531970
C 3.500000 6.639530 7.348470
C 3.000000 5.773500 7.348470
C 4.000000 5.196150 6.531970
C 4.500000 6.062180 6.531970
C 4.500000 6.639530 7.348470
C 4.000000 5.773500 7.348470
C 5.000000 5.196150 6.531970
C 5.500000 6.062180 6.531970
C 5.500000 6.639530 7.348470
C 5.000000 5.773500 7.348470
C 6.000000 5.196150 6.531970
C 6.500000 6.062180 6.531970
C 6.500000 6.639530 7.348470
C 6.000000 5.773500 7.348470
C 7.000000 5.196150 6.531970
C 7.500000 6.062180 6.531970
C 7.500000 6.639530 7.348470
C 7.000000 5.773500 7.348470
C 8.000000 5.196150 6.531970
C 8.500000 6.062180 6.531970
C 8.500000 6.639530 7.348470
C 8.000000 5.773500 7.348470
C 0.000000 6.928200 6.531970
C 0.500000 7.794230 6.531970
C 0.500000 8.371580 7.348470
C 0.000000 7.505550 7.348470
C 1.000000 6.928200 6.531970
C 1.500000 7.794230 6.531970
C 1.500000 8.371580 7.348470
C 1.000000 7.505550 7.348470
C 2.000000 6.928200 6.531970
C 2.500000 7.794230 6.531970
C 2.500000 8.371580 7.348470
C 2.000000 7.505550 7.348470
C 3.000000 6.928200 6.531970
C 3.500000 7.794230 6.531970
C 3.500000 8.371580 7.348470
C 3.000000 7.505550 7.348470
C 4.000000 6.928200 6.531970
C 4.500000 7.794230 6.531970
C 4.500000 8.371580 7.348470
C 4.000000 7.505550 7.348470
C 5.000000 6.928200 6.531970
C 5.500000 7.794230 6.531970
C 5.500000 8.371580 7.348470
C 5.000000 7.505550 7.348470
C 6.000000 6.928200 6.531970
C 6.500000 7.794230 6.531970
C 6.500000 8.371580 7.348470
C 6.000000 7.505550 7.348470
C 7.000000 6.928200 6.531970
C 7.500000 7.794230 6.531970
C 7.500000 8.371580 7.348470
C 7.000000 7.505550 7.348470
C 8.000000 6.928200 6.531970
C 8.500000 7.794230 6.531970
C 8.500000 8.371580 7.348470
C 8.000000 7.505550 7.348470
C 0.000000 0.000000 8.164970
C 0.500000 0.866025 8.164970
C 0.500000 1.443380 8.981460
C 0.000000 0.577350 8.981460
C 1.000000 0.000000 8.164970
C 1.500000 0.866025 8.164970
C 1.500000 1.443380 8.981460
C 1.000000 0.577350 8.981460
C 2.000000 0.000000 8.164970
C 2.500000 0.866025 8.164970
C 2.500000 1.443380 8.981460
C 2.000000 0.577350 8.981460
C 3.000000 0.000000 8.164970
C 3.500000 0.866025 8.164970
C 3.500000 1.443380 8.981460
C 3.000000 0.577350 8.981460
C 4.000000 0.000000 8.164970
C 4.500000 0.866025 8.164970
C 4.500000 1.443380 8.981460
C 4.000000 0.577350 8.981460
C 5.000000 0.000000 8.164970
C 5.500000 0.866025 8.164970
C 5.500000 1.443380 8.981460
C 5.000000 0.577350 8.981460
C 6.000000 0.000000 8.164970
C 6.500000 0.866025 8.164970
C 6.500000 1.443380 8.981460
C 6.000000 0.577350 8.981460
C 7.000000 0.000000 8.164970
C 7.500000 0.866025 8.164970
C 7.500000 1.443380 8.981460
C 7.000000 0.577350 8.981460
C 8.000000 0.000000 8.164970
C 8.500000 0.866025 8.164970
C 8.500000 1.443380 8.981460
C 8.000000 0.577350 8.981460
C 0.000000 1.732050 8.164970
C 0.500000 2.598080 8.164970
C 0.500000 3.175430 8.981460
C 0.000000 2.309400 8.981460
C 1.000000 1.732050 8.164970
C 1.500000 2.598080 8.164970
C 1.500000 3.175430 8.981460
C 1.000000 2.309400 8.981460
C 2.000000 1.732050 8.164970
C 2.500000 2.598080 8.164970
C 2.500000 3.175430 8.981460
C 2.000000 2.309400 8.981460
C 3.000000 1.732050 8.164970
C 3.500000 2.598080 8.164970
C 3.500000 3.175430 8.981460
C 3.000000 2.309400 8.981460
C 4.000000 1.732050 8.164970
C 4.500000 2.598080 8.164970
C 4.500000 3.175430 8.981460
C 4.000000 2.309400 8.981460
C 5.000000 1.732050 8.164970
C 5.500000 2.598080 8.164970
C 5.500000 3.175430 8.981460
C 5.000000 2.309400 8.981460
C 6.000000 1.732050 8.164970
C 6.500000 2.598080 8.164970
C 6.500000 3.175430 8.981460
C 6.000000 2.309400 8.981460
C 7.000000 1.732050 8.164970
C 7.500000 2.598080 8.164970
C 7.500000 3.175430 8.981460
C 7.000000 2.309400 8.981460
C 8.000000 1.732050 8.164970
C 8.500000 2.598080 8.164970
C 8.500000 3.175430 8.981460
C 8.000000 2.309400 8.981460
C 0.000000 3.464100 8.164970
C 0.500000 4.330130 8.164970
C 0.500000 4.907480 8.981460
C 0.000000 4.041450 8.981460
C 1.000000 3.464100 8.164970
C 1.500000 4.330130 8.164970
C 1.500000 4.907480 8.981460
C 1.000000 4.041450 8.981460
C 2.000000 3.464100 8.164970
C 2.500000 4.330130 8.164970
C 2.500000 4.907480 8.981460
C 2.000000 4.041450 8.981460
C 3.000000 3.464100 8.164970
C 3.500000 4.330130 8.164970
C 3.500000 4.907480 8.981460
C 3.000000 4.041450 8.981460
C 4.000000 3.464100 8.164970
C 4.500000 4.330130 8.164970
C 4.500000 4.907480 8.981460
C 4.000000 4.041450 8.981460
C 5.000000 3.464100 8.164970
C 5.500000 4.330130 8.164970
C 5.500000 4.907480 8.981460
C 5.000000 4.041450 8.981460
C 6.000000 3.464100 8.164970
C 6.500000 4.330130 8.164970
C 6.500000 4.907480 8.981460
C 6.000000 4.041450 8.981460
C 7.000000 3.464100 8.164970
C 7.500000 4.330130 8.164970
C 7.500000 4.907480 8.981460
C 7.000000 4.041450 8.981460
C 8.000000 3.464100 8.164970
C 8.500000 4.330130 8.164970
C 8.500000 4.907480 8.981460
C 8.000000 4.041450 8.981460
C 0.000000 5.196150 8.164970
C 0.500000 6.062180 8.164970
C 0.500000 6.639530 8.981460
C 0.000000 5.773500 8.981460
C 1.000000 5.196150 8.164970
C 1.500000 6.062180 8.164970
C 1.500000 6.639530 8.981460
C 1.000000 5.773500 8.981460
C 2.000000 5.196150 8.164970
C 2.500000 6.062180 8.164970
C 2.500000 6.639530 8.981460
C 2.000000 5.773500 8.981460
C 3.000000 5.196150 8.164970
C 3.500000 6.062180 8.164970
C 3.500000 6.639530 8.981460
C 3.000000 5.773500 8.981460
C 4.000000 5.196150 8.164970
C 4.500000 6.062180 8.164970
C 4.500000 6.639530 8.981460
C 4.000000 5.773500 8.981460
C 5.000000 5.196150 8.164970
C 5.500000 6.062180 8.164970
C 5.500000 6.639530 8.981460
C 5.000000 5.773500 8.981460
C 6.000000 5.196150 8.164970
C 6.500000 6.062180 8.164970
C 6.500000 6.639530 8.981460
C 6.000000 5.773500 8.981460
C 7.000000 5.196150 8.164970
C 7.500000 6.062180 8.164970
C 7.500000 6.639530 8.981460
C 7.000000 5.773500 8.981460
C 8.000000 5.196150 8.164970
C 8.500000 6.062180 8.164970
C 8.500000 6.639530 8.981460
C 8.000000 5.773500 8.981460
C 0.000000 6.928200 8.164970
C 0.500000 7.794230 8.164970
C 0.500000 8.371580 8.981460
C 0.000000 7.505550 8.981460
C 1.000000 6.928200 8.164970
C 1.500000 7.794230 8.164970
C 1.500000 8.371580 8.981460
C 1.000000 7.505550 8.981460
C 2.000000 6.928200 8.164970
C 2.500000 7.794230 8.164970
C 2.500000 8.371580 8.981460
C 2.000000 7.505550 8.981460
C 3.000000 6.928200 8.164970
C 3.500000 7.794230 8.164970
C 3.500000 8.371580 8.981460
C 3.000000 7.505550 8.981460
C 4.000000 6.928200 8.164970
C 4.500000 7.794230 8.164970
C 4.500000 8.371580 8.981460
C 4.000000 7.505550 8.981460
C 5.000000 6.928200 8.164970
C 5.500000 7.794230 8.164970
C 5.500000 8.371580 8.981460
C 5.000000 7.505550 8.981460
C 6.000000 6.928200 8.164970
C 6.500000 7.794230 8.164970
C 6.500000 8.371580 8.981460
C 6.000000 7.505550 8.981460
C 7.000000 6.928200 8.164970
C 7.500000 7.794230 8.164970
C 7.500000 8.371580 8.981460
C 7.000000 7.505550 8.981460
C 8.000000 6.928200 8.164970
C 8.500000 7.794230 8.164970
C 8.500000 8.371580 8.981460
C 8.000000 7.505550 8.981460
C 0.000000 0.000000 0.612372
C 0.500000 0.866025 0.612372
C 0.500000 1.443380 1.428870
C 0.000000 0.577350 1.428870
C 1.000000 0.000000 0.612372
C 1.500000 0.866025 0.612372
C 1.500000 1.443380 1.428870
C 1.000000 0.577350 1.428870
C 2.000000 0.000000 0.612372
C 2.500000 0.866025 0.612372
C 2.500000 1.443380 1.428870
C 2.000000 0.577350 1.428870
C 3.000000 0.000000 0.612372
C 3.500000 0.866025 0.612372
C 3.500000 1.443380 1.428870
C 3.000000 0.577350 1.428870
C 4.000000 0.000000 0.612372
C 4.500000 0.866025 0.612372
C 4.500000 1.443380 1.428870
C 4.000000 0.577350 1.428870
C 5.000000 0.000000 0.612372
C 5.500000 0.866025 0.612372
C 5.500000 1.443380 1.428870
C 5.000000 0.577350 1.428870
C 6.000000 0.000000 0.612372
C 6.500000 0.866025 0.612372
C 6.500000 1.443380 1.428870
C 6.000000 0.577350 1.428870
C 7.000000 0.000000 0.612372
C 7.500000 0.866025 0.612372
C 7.500000 1.443380 1.428870
C 7.000000 0.577350 1.428870
C 8.000000 0.000000 0.612372
C 8.500000 0.866025 0.612372
C 8.500000 1.443380 1.428870
C 8.000000 0.577350 1.428870
C 0.000000 1.732050 0.612372
C 0.500000 2.598080 0.612372
C 0.500000 3.175430 1.428870
C 0.000000 2.309400 1.428870
C 1.000000 1.732050 0.612372
C 1.500000 2.598080 0.612372
C 1.500000 3.175430 1.428870
C 1.000000 2.309400 1.428870
C 2.000000 1.732050 0.612372
C 2.500000 2.598080 0.612372
C 2.500000 3.175430 1.428870
C 2.000000 2.309400 1.428870
C 3.000000 1.732050 0.612372
C 3.500000 2.598080 0.612372
C 3.500000 3.175430 1.428870
C 3.000000 2.309400 1.428870
C 4.000000 1.732050 0.612372
C 4.500000 2.598080 0.612372
C 4.500000 3.175430 1.428870
C 4.000000 2.309400 1.428870
C 5.000000 1.732050 0.612372
C 5.500000 2.598080 0.612372
C 5.500000 3.175430 1.428870
C 5.000000 2.309400 1.428870
C 6.000000 1.732050 0.612372
C 6.500000 2.598080 0.612372
C 6.500000 3.175430 1.428870
C 6.000000 2.309400 1.428870
C 7.000000 1.732050 0.612372
C 7.500000 2.598080 0.612372
C 7.500000 3.175430 1.428870
C 7.000000 2.309400 1.428870
C 8.000000 1.732050 0.612372
C 8.500000 2.598080 0.612372
C 8.500000 3.175430 1.428870
C 8.000000 2.309400 1.428870
C 0.000000 3.464100 0.612372
C 0.500000 4.330130 0.612372
C 0.500000 4.907480 1.428870
C 0.000000 4.041450 1.428870
C 1.000000 3.464100 0.612372
C 1.500000 4.330130 0.612372
C 1.500000 4.907480 1.428870
C 1.000000 4.041450 1.428870
C 2.000000 3.464100 0.612372
C 2.500000 4.330130 0.612372
C 2.500000 4.907480 1.428870
C 2.000000 4.041450 1.428870
C 3.000000 3.464100 0.612372
C 3.500000 4.330130 0.612372
C 3.500000 4.907480 1.428870
C 3.000000 4.041450 1.428870
C 4.000000 3.464100 0.612372
C 4.500000 4.330130 0.612372
C 4.500000 4.907480 1.428870
C 4.000000 4.041450 1.428870
C 5.000000 3.464100 0.612372
C 5.500000 4.330130 0.612372
C 5.500000 4.907480 1.428870
C 5.000000 4.041450 1.428870
C 6.000000 3.464100 0.612372
C 6.500000 4.330130 0.612372
C 6.500000 4.907480 1.428870
C 6.000000 4.041450 1.428870
C 7.000000 3.464100 0.612372
C 7.500000 4.330130 0.612372
C 7.500000 4.907480 1.428870
C 7.000000 4.041450 1.428870
C 8.000000 3.464100 0.612372
C 8.500000 4.330130 0.612372
C 8.500000 4.907480 1.428870
C 8.000000 4.041450 1.428870
C 0.000000 5.196150 0.612372
C 0.500000 6.062180 0.612372
C 0.500000 6.639530 1.428870
C 0.000000 5.773500 1.428870
C 1.000000 5.196150 0.612372
C 1.500000 6.062180 0.612372
C 1.500000 6.639530 1.428870
C 1.000000 5.773500 1.428870
C 2.000000 5.196150 0.612372
C 2.500000 6.062180 0.612372
C 2.500000 6.639530 1.428870
C 2.000000 5.773500 1.428870
C 3.000000 5.196150 0.612372
C 3.500000 6.062180 0.612372
C 3.500000 6.639530 1.428870
C 3.000000 5.773500 1.428870
C 4.000000 5.196150 0.612372
C 4.500000 6.062180 0.612372
C 4.500000 6.639530 1.428870
C 4.000000 5.773500 1.428870
C 5.000000 5.196150 0.612372
C 5.500000 6.062180 0.612372
C 5.500000 6.639530 1.428870
C 5.000000 5.773500 1.428870
C 6.000000 5.196150 0.612372
C 6.500000 6.062180 0.612372
C 6.500000 6.639530 1.428870
C 6.000000 5.773500 1.428870
C 7.000000 5.196150 0.612372
C 7.500000 6.062180 0.612372
C 7.500000 6.639530 1.428870
C 7.000000 5.773500 1.428870
C 8.000000 5.196150 0.612372
C 8.500000 6.062180 0.612372
C 8.500000 6.639530 1.428870
C 8.000000 5.773500 1.428870
C 0.000000 6.928200 0.612372
C 0.500000 7.794230 0.612372
C 0.500000 8.371580 1.428870
C 0.000000 7.505550 1.428870
C 1.000000 6.928200 0.612372
C 1.500000 7.794230 0.612372
C 1.500000 8.371580 1.428870
C 1.000000 7.505550 1.428870
C 2.000000 6.928200 0.612372
C 2.500000 7.794230 0.612372
C 2.500000 8.371580 1.428870
C 2.000000 7.505550 1.428870
C 3.000000 6.928200 0.612372
C 3.500000 7.794230 0.612372
C 3.500000 8.371580 1.428870
C 3.000000 7.505550 1.428870
C 4.000000 6.928200 0.612372
C 4.500000 7.794230 0.612372
C 4.500000 8.371580 1.428870
C 4.000000 7.505550 1.428870
C 5.000000 6.928200 0.612372
C 5.500000 7.794230 0.612372
C 5.500000 8.371580 1.428870
C 5.000000 7.505550 1.428870
C 6.000000 6.928200 0.612372
C 6.500000 7.794230 0.612372
C 6.500000 8.371580 1.428870
C 6.000000 7.505550 1.428870
C 7.000000 6.928200 0.612372
C 7.500000 7.794230 0.612372
C 7.500000 8.371580 1.428870
C 7.000000 7.505550 1.428870
C 8.000000 6.928200 0.612372
C 8.500000 7.794230 0.612372
C 8.500000 8.371580 1.428870
C 8.000000 7.505550 1.428870
C 0.000000 0.000000 2.245370
C 0.500000 0.866025 2.245370
C 0.500000 1.443380 3.061860
C 0.000000 0.577350 3.061860
C 1.000000 0.000000 2.245370
C 1.500000 0.866025 2.245370
C 1.500000 1.443380 3.061860
C 1.000000 0.577350 3.061860
C 2.000000 0.000000 2.245370
C 2.500000 0.866025 2.245370
C 2.500000 1.443380 3.061860
C 2.000000 0.577350 3.061860
C 3.000000 0.000000 2.245370
C 3.500000 0.866025 2.245370
C 3.500000 1.443380 3.061860
C 3.000000 0.577350 3.061860
C 4.000000 0.000000 2.245370
C 4.500000 0.866025 2.245370
C 4.500000 1.443380 3.061860
C 4.000000 0.577350 3.061860
C 5.000000 0.000000 2.245370
C 5.500000 0.866025 2.245370
C 5.500000 1.443380 3.061860
C 5.000000 0.577350 3.061860
C 6.000000 0.000000 2.245370
C 6.500000 0.866025 2.245370
C 6.500000 1.443380 3.061860
C 6.000000 0.577350 3.061860
C 7.000000 0.000000 2.245370
C 7.500000 0.866025 2.245370
C 7.500000 1.443380 3.061860
C 7.000000 0.577350 3.061860
C 8.000000 0.000000 2.245370
C 8.500000 0.866025 2.245370
C 8.500000 1.443380 3.061860
C 8.000000 0.577350 3.061860
C 0.000000 1.732050 2.245370
C 0.500000 2.598080 2.245370
C 0.500000 3.175430 3.061860
C 0.000000 2.309400 3.061860
C 1.000000 1.732050 2.245370
C 1.500000 2.598080 2.245370
C 1.500000 3.175430 3.061860
C 1.000000 2.309400 3.061860
C 2.000000 1.732050 2.245370
C 2.500000 2.598080 2.245370
C 2.500000 3.175430 3.061860
C 2.000000 2.309400 3.061860
C 3.000000 1.732050 2.245370
C 3.500000 2.598080 2.245370
C 3.500000 3.175430 3.061860
C 3.000000 2.309400 3.061860
C 4.000000 1.732050 2.245370
C 4.500000 2.598080 2.245370
C 4.500000 3.175430 3.061860
C 4.000000 2.309400 3.061860
C 5.000000 1.732050 2.245370
C 5.500000 2.598080 2.245370
C 5.500000 3.175430 3.061860
C 5.000000 2.309400 3.061860
C 6.000000 1.732050 2.245370
C 6.500000 2.598080 2.245370
C 6.500000 3.175430 3.061860
C 6.000000 2.309400 3.061860
C 7.000000 1.732050 2.245370
C 7.500000 2.598080 2.245370
C 7.500000 3.175430 3.061860
C 7.000000 2.309400 3.061860
C 8.000000 1.732050 2.245370
C 8.500000 2.598080 2.245370
C 8.500000 3.175430 3.061860
C 8.000000 2.309400 3.061860
C 0.000000 3.464100 2.245370
C 0.500000 4.330130 2.245370
C 0.500000 4.907480 3.061860
C 0.000000 4.041450 3.061860
C 1.000000 3.464100 2.245370
C 1.500000 4.330130 2.245370
C 1.500000 4.907480 3.061860
C 1.000000 4.041450 3.061860
C 2.000000 3.464100 2.245370
C 2.500000 4.330130 2.245370
C 2.500000 4.907480 3.061860
C 2.000000 4.041450 3.061860
C 3.000000 3.464100 2.245370
C 3.500000 4.330130 2.245370
C 3.500000 4.907480 3.061860
C 3.000000 4.041450 3.061860
C 4.000000 3.464100 2.245370
C 4.500000 4.330130 2.245370
C 4.500000 4.907480 3.061860
C 4.000000 4.041450 3.061860
C 5.000000 3.464100 2.245370
C 5.500000 4.330130 2.245370
C 5.500000 4.907480 3.061860
C 5.000000 4.041450 3.061860
C 6.000000 3.464100 2.245370
C 6.500000 4.330130 2.245370
C 6.500000 4.907480 3.061860
C 6.000000 4.041450 3.061860
C 7.000000 3.464100 2.245370
C 7.500000 4.330130 2.245370
C 7.500000 4.907480 3.061860
C 7.000000 4.041450 3.061860
C 8.000000 3.464100 2.245370
C 8.500000 4.330130 2.245370
C 8.500000 4.907480 3.061860
C 8.000000 4.041450 3.061860
C 0.000000 5.196150 2.245370
C 0.500000 6.062180 2.245370
C 0.500000 6.639530 3.061860
C 0.000000 5.773500 3.061860
C 1.000000 5.196150 2.245370
C 1.500000 6.062180 2.245370
C 1.500000 6.639530 3.061860
C 1.000000 5.773500 3.061860
C 2.000000 5.196150 2.245370
C 2.500000 6.062180 2.245370
C 2.500000 6.639530 3.061860
C 2.000000 5.773500 3.061860
C 3.000000 5.196150 2.245370
C 3.500000 6.062180 2.245370
C 3.500000 6.639530 3.061860
C 3.000000 5.773500 3.061860
C 4.000000 5.196150 2.245370
C 4.500000 6.062180 2.245370
C 4.500000 6.639530 3.061860
C 4.000000 5.773500 3.061860
C 5.000000 5.196150 2.245370
C 5.500000 6.062180 2.245370
C 5.500000 6.639530 3.061860
C 5.000000 5.773500 3.061860
C 6.000000 5.196150 2.245370
C 6.500000 6.062180 2.245370
C 6.500000 6.639530 3.061860
C 6.000000 5.773500 3.061860
C 7.000000 5.196150 2.245370
C 7.500000 6.062180 2.245370
C 7.500000 6.639530 3.061860
C 7.000000 5.773500 3.061860
C 8.000000 5.196150 2.245370
C 8.500000 6.062180 2.245370
C 8.500000 6.639530 3.061860
C 8.000000 5.773500 3.061860
C 0.000000 6.928200 2.245370
C 0.500000 7.794230 2.245370
C 0.500000 8.371580 3.061860
C 0.000000 7.505550 3.061860
C 1.000000 6.928200 2.245370
C 1.500000 7.794230 2.245370
C 1.500000 8.371580 3.061860
C 1.000000 7.505550 3.061860
C 2.000000 6.928200 2.245370
C 2.500000 7.794230 2.245370
C 2.500000 8.371580 3.061860
C 2.000000 7.505550 3.061860
C 3.000000 6.928200 2.245370
C 3.500000 7.794230 2.245370
C 3.500000 8.371580 3.061860
C 3.000000 7.505550 3.061860
C 4.000000 6.928200 2.245370
C 4.500000 7.794230 2.245370
C 4.500000 8.371580 3.061860
C 4.000000 7.505550 3.061860
C 5.000000 6.928200 2.245370
C 5.500000 7.794230 2.245370
C 5.500000 8.371580 3.061860
C 5.000000 7.505550 3.061860
C 6.000000 6.928200 2.245370
C 6.500000 7.794230 2.245370
C 6.500000 8.371580 3.061860
C 6.000000 7.505550 3.061860
C 7.000000 6.928200 2.245370
C 7.500000 7.794230 2.245370
C 7.500000 8.371580 3.061860
C 7.000000 7.505550 3.061860
C 8.000000 6.928200 2.245370
C 8.500000 7.794230 2.245370
C 8.500000 8.371580 3.061860
C 8.000000 7.505550 3.061860
C 0.000000 0.000000 3.878360
C 0.500000 0.866025 3.878360
C 0.500000 1.443380 4.694860
C 0.000000 0.577350 4.694860
C 1.000000 0.000000 3.878360
C 1.500000 0.866025 3.878360
C 1.500000 1.443380 4.694860
C 1.000000 0.577350 4.694860
C 2.000000 0.000000 3.878360
C 2.500000 0.866025 3.878360
C 2.500000 1.443380 4.694860
C 2.000000 0.577350 4.694860
C 3.000000 0.000000 3.878360
C 3.500000 0.866025 3.878360
C 3.500000 1.443380 4.694860
C 3.000000 0.577350 4.694860
C 4.000000 0.000000 3.878360
C 4.500000 0.866025 3.878360
C 4.500000 1.443380 4.694860
C 4.000000 0.577350 4.694860
C 5.000000 0.000000 3.878360
C 5.500000 0.866025 3.878360
C 5.500000 1.443380 4.694860
C 5.000000 0.577350 4.694860
C 6.000000 0.000000 3.878360
C 6.500000 0.866025 3.878360
C 6.500000 1.443380 4.694860
C 6.000000 0.577350 4.694860
C 7.000000 0.000000 3.878360
C 7.500000 0.866025 3.878360
C 7.500000 1.443380 4.694860
C 7.000000 0.577350 4.694860
C 8.000000 0.000000 3.878360
C 8.500000 0.866025 3.878360
C 8.500000 1.443380 4.694860
C 8.000000 0.577350 4.694860
C 0.000000 1.732050 3.878360
C 0.500000 2.598080 3.878360
C 0.500000 3.175430 4.694860
C 0.000000 2.309400 4.694860
C 1.000000 1.732050 3.878360
C 1.500000 2.598080 3.878360
C 1.500000 3.175430 4.694860
C 1.000000 2.309400 4.694860
C 2.000000 1.732050 3.878360
C 2.500000 2.598080 3.878360
C 2.500000 3.175430 4.694860
C 2.000000 2.309400 4.694860
C 3.000000 1.732050 3.878360
C 3.500000 2.598080 3.878360
C 3.500000 3.175430 4.694860
C 3.000000 2.309400 4.694860
C 4.000000 1.732050 3.878360
C 4.500000 2.598080 3.878360
C 4.500000 3.175430 4.694860
C 4.000000 2.309400 4.694860
C 5.000000 1.732050 3.878360
C 5.500000 2.598080 3.878360
C 5.500000 3.175430 4.694860
C 5.000000 2.309400 4.694860
C 6.000000 1.732050 3.878360
C 6.500000 2.598080 3.878360
C 6.500000 3.175430 4.694860
C 6.000000 2.309400 4.694860
C 7.000000 1.732050 3.878360
C 7.500000 2.598080 3.878360
C 7.500000 3.175430 4.694860
C 7.000000 2.309400 4.694860
C 8.000000 1.732050 3.878360
C 8.500000 2.598080 3.878360
C 8.500000 3.175430 4.694860
C 8.000000 2.309400 4.694860
C 0.000000 3.464100 3.878360
C 0.500000 4.330130 3.878360
C 0.500000 4.907480 4.694860
C 0.000000 4.041450 4.694860
C 1.000000 3.464100 3.878360
C 1.500000 4.330130 3.878360
C 1.500000 4.907480 4.694860
C 1.000000 4.041450 4.694860
C 2.000000 3.464100 3.878360
C 2.500000 4.330130 3.878360
C 2.500000 4.907480 4.694860
C 2.000000 4.041450 4.694860
C 3.000000 3.464100 3.878360
C 3.500000 4.330130 3.878360
C 3.500000 4.907480 4.694860
C 3.000000 4.041450 4.694860
C 4.000000 3.464100 3.878360
C 4.500000 4.330130 3.878360
C 4.500000 4.907480 4.694860
C 4.000000 4.041450 4.694860
C 5.000000 3.464100 3.878360
C 5.500000 4.330130 3.878360
C 5.500000 4.907480 4.694860
C 5.000000 4.041450 4.694860
C 6.000000 3.464100 3.878360
C 6.500000 4.330130 3.878360
C 6.500000 4.907480 4.694860
C 6.000000 4.041450 4.694860
C 7.000000 3.464100 3.878360
C 7.500000 4.330130 3.878360
C 7.500000 4.907480 4.694860
C 7.000000 4.041450 4.694860
C 8.000000 3.464100 3.878360
C 8.500000 4.330130 3.878360
C 8.500000 4.907480 4.694860
C 8.000000 4.041450 4.694860
C 0.000000 5.196150 3.878360
C 0.500000 6.062180 3.878360
C 0.500000 6.639530 4.694860
C 0.000000 5.773500 4.694860
C 1.000000 5.196150 3.878360
C 1.500000 6.062180 3.878360
C 1.500000 6.639530 4.694860
C 1.000000 5.773500 4.694860
C 2.000000 5.196150 3.878360
C 2.500000 6.062180 3.878360
C 2.500000 6.639530 4.694860
C 2.000000 5.773500 4.694860
C 3.000000 5.196150 3.878360
C 3.500000 6.062180 3.878360
C 3.500000 6.639530 4.694860
C 3.000000 5.773500 4.694860
C 4.000000 5.196150 3.878360
C 4.500000 6.062180 3.878360
C 4.500000 6.639530 4.694860
C 4.000000 5.773500 4.694860
C 5.000000 5.196150 3.878360
C 5.500000 6.062180 3.878360
C 5.500000 6.639530 4.694860
C 5.000000 5.773500 4.694860
C 6.000000 5.196150 3.878360
C 6.500000 6.062180 3.878360
C 6.500000 6.639530 4.694860
C 6.000000 5.773500 4.694860
C 7.000000 5.196150 3.878360
C 7.500000 6.062180 3.878360
C 7.500000 6.639530 4.694860
C 7.000000 5.773500 4.694860
C 8.000000 5.196150 3.878360
C 8.500000 6.062180 3.878360
C 8.500000 6.639530 4.694860
C 8.000000 5.773500 4.694860
C 0.000000 6.928200 3.878360
C 0.500000 7.794230 3.878360
C 0.500000 8.371580 4.694860
C 0.000000 7.505550 4.694860
C 1.000000 6.928200 3.878360
C 1.500000 7.794230 3.878360
C 1.500000 8.371580 4.694860
C 1.000000 7.505550 4.694860
C 2.000000 6.928200 3.878360
C 2.500000 7.794230 3.878360
C 2.500000 8.371580 4.694860
C 2.000000 7.505550 4.694860
C 3.000000 6.928200 3.878360
C 3.500000 7.794230 3.878360
C 3.500000 8.371580 4.694860
C 3.000000 7.505550 4.694860
C 4.000000 6.928200 3.878360
C 4.500000 7.794230 3.878360
C 4.500000 8.371580 4.694860
C 4.000000 7.505550 4.694860
C 5.000000 6.928200 3.878360
C 5.500000 7.794230 3.878360
C 5.500000 8.371580 4.694860
C 5.000000 7.505550 4.694860
C 6.000000 6.928200 3.878360
C 6.500000 7.794230 3.878360
C 6.500000 8.371580 4.694860
C 6.000000 7.505550 4.694860
C 7.000000 6.928200 3.878360
C 7.500000 7.794230 3.878360
C 7.500000 8.371580 4.694860
C 7.000000 7.505550 4.694860
C 8.000000 6.928200 3.878360
C 8.500000 7.794230 3.878360
C 8.500000 8.371580 4.694860
C 8.000000 7.505550 4.694860
C 0.000000 0.000000 5.511350
C 0.500000 0.866025 5.511350
C 0.500000 1.443380 6.327850
C 0.000000 0.577350 6.327850
C 1.000000 0.000000 5.511350
C 1.500000 0.866025 5.511350
C 1.500000 1.443380 6.327850
C 1.000000 0.577350 6.327850
C 2.000000 0.000000 5.511350
C 2.500000 0.866025 5.511350
C 2.500000 1.443380 6.327850
C 2.000000 0.577350 6.327850
C 3.000000 0.000000 5.511350
C 3.500000 0.866025 5.511350
C 3.500000 1.443380 6.327850
C 3.000000 0.577350 6.327850
C 4.000000 0.000000 5.511350
C 4.500000 0.866025 5.511350
C 4.500000 1.443380 6.327850
C 4.000000 0.577350 6.327850
C 5.000000 0.000000 5.511350
C 5.500000 0.866025 5.511350
C 5.500000 1.443380 6.327850
C 5.000000 0.577350 6.327850
C 6.000000 0.000000 5.511350
C 6.500000 0.866025 5.511350
C 6.500000 1.443380 6.327850
C 6.000000 0.577350 6.327850
C 7.000000 0.000000 5.511350
C 7.500000 0.866025 5.511350
C 7.500000 1.443380 6.327850
C 7.000000 0.577350 6.327850
C 8.000000 0.000000 5.511350
C 8.500000 0.866025 5.511350
C 8.500000 1.443380 6.327850
C 8.000000 0.577350 6.327850
C 0.000000 1.732050 5.511350
C 0.500000 2.598080 5.511350
C 0.500000 3.175430 6.327850
C 0.000000 2.309400 6.327850
C 1.000000 1.732050 5.511350
C 1.500000 2.598080 5.511350
C 1.500000 3.175430 6.327850
C 1.000000 2.309400 6.327850
C 2.000000 1.732050 5.511350
C 2.500000 2.598080 5.511350
C 2.500000 3.175430 6.327850
C 2.000000 2.309400 6.327850
C 3.000000 1.732050 5.511350
C 3.500000 2.598080 5.511350
C 3.500000 3.175430 6.327850
C 3.000000 2.309400 6.327850
C 4.000000 1.732050 5.511350
C 4.500000 2.598080 5.511350
C 4.500000 3.175430 6.327850
C 4.000000 2.309400 6.327850
C 5.000000 1.732050 5.511350
C 5.500000 2.598080 5.511350
C 5.500000 3.175430 6.327850
C 5.000000 2.309400 6.327850
C 6.000000 1.732050 5.511350
C 6.500000 2.598080 5.511350
C 6.500000 3.175430 6.327850
C 6.000000 2.309400 6.327850
C 7.000000 1.732050 5.511350
C 7.500000 2.598080 5.511350
C 7.500000 3.175430 6.327850
C 7.000000 2.309400 6.327850
C 8.000000 1.732050 5.511350
C 8.500000 2.598080 5.511350
C 8.500000 3.175430 6.327850
C 8.000000 2.309400 6.327850
C 0.000000 3.464100 5.511350
C 0.500000 4.330130 5.511350
C 0.500000 4.907480 6.327850
C 0.000000 4.041450 6.327850
C 1.000000 3.464100 5.511350
C 1.500000 4.330130 5.511350
C 1.500000 4.907480 6.327850
C 1.000000 4.041450 6.327850
C 2.000000 3.464100 5.511350
C 2.500000 4.330130 5.511350
C 2.500000 4.907480 6.327850
C 2.000000 4.041450 6.327850
C 3.000000 3.464100 5.511350
C 3.500000 4.330130 5.511350
C 3.500000 4.907480 6.327850
C 3.000000 4.041450 6.327850
C 4.000000 3.464100 5.511350
C 4.500000 4.330130 5.511350
C 4.500000 4.907480 6.327850
C 4.000000 4.041450 6.327850
C 5.000000 3.464100 5.511350
C 5.500000 4.330130 5.511350
C 5.500000 4.907480 6.327850
C 5.000000 4.041450 6.327850
C 6.000000 3.464100 5.511350
C 6.500000 4.330130 5.511350
C 6.500000 4.907480 6.327850
C 6.000000 4.041450 6.327850
C 7.000000 3.464100 5.511350
C 7.500000 4.330130 5.511350
C 7.500000 4.907480 6.327850
C 7.000000 4.041450 6.327850
C 8.000000 3.464100 5.511350
C 8.500000 4.330130 5.511350
C 8.500000 4.907480 6.327850
C 8.000000 4.041450 6.327850
C 0.000000 5.196150 5.511350
C 0.500000 6.062180 5.511350
C 0.500000 6.639530 6.327850
C 0.000000 5.773500 6.327850
C 1.000000 5.196150 5.511350
C 1.500000 6.062180 5.511350
C 1.500000 6.639530 6.327850
C 1.000000 5.773500 6.327850
C 2.000000 5.196150 5.511350
C 2.500000 6.062180 5.511350
C 2.500000 6.639530 6.327850
C 2.000000 5.773500 6.327850
C 3.000000 5.196150 5.511350
C 3.500000 6.062180 5.511350
C 3.500000 6.639530 6.327850
C 3.000000 5.773500 6.327850
C 4.000000 5.196150 5.511350
C 4.500000 6.062180 5.511350
C 4.500000 6.639530 6.327850
C 4.000000 5.773500 6.327850
C 5.000000 5.196150 5.511350
C 5.500000 6.062180 5.511350
C 5.500000 6.639530 6.327850
C 5.000000 5.773500 6.327850
C 6.000000 5.196150 5.511350
C 6.500000 6.062180 5.511350
C 6.500000 6.639530 6.327850
C 6.000000 5.773500 6.327850
C 7.000000 5.196150 5.511350
C 7.500000 6.062180 5.511350
C 7.500000 6.639530 6.327850
C 7.000000 5.773500 6.327850
C 8.000000 5.196150 5.511350
C 8.500000 6.062180 5.511350
C 8.500000 6.639530 6.327850
C 8.000000 5.773500 6.327850
C 0.000000 6.928200 5.511350
C 0.500000 7.794230 5.511350
C 0.500000 8.371580 6.327850
C 0.000000 7.505550 6.327850
C 1.000000 6.928200 5.511350
C 1.500000 7.794230 5.511350
C 1.500000 8.371580 6.327850
C 1.000000 7.505550 6.327850
C 2.000000 6.928200 5.511350
C 2.500000 7.794230 5.511350
C 2.500000 8.371580 6.327850
C 2.000000 7.505550 6.327850
C 3.000000 6.928200 5.511350
C 3.500000 7.794230 5.511350
C 3.500000 8.371580 6.327850
C 3.000000 7.505550 6.327850
C 4.000000 6.928200 5.511350
C 4.500000 7.794230 5.511350
C 4.500000 8.371580 6.327850
C 4.000000 7.505550 6.327850
C 5.000000 6.928200 5.511350
C 5.500000 7.794230 5.511350
C 5.500000 8.371580 6.327850
C 5.000000 7.505550 6.327850
C 6.000000 6.928200 5.511350
C 6.500000 7.794230 5.511350
C 6.500000 8.371580 6.327850
C 6.000000 7.505550 6.327850
C 7.000000 6.928200 5.511350
C 7.500000 7.794230 5.511350
C 7.500000 8.371580 6.327850
C 7.000000 7.505550 6.327850
C 8.000000 6.928200 5.511350
C 8.500000 7.794230 5.511350
C 8.500000 8.371580 6.327850
C 8.000000 7.505550 6.327850
C 0.000000 0.000000 7.144350
C 0.500000 0.866025 7.144350
C 0.500000 1.443380 7.960840
C 0.000000 0.577350 7.960840
C 1.000000 0.000000 7.144350
C 1.500000 0.866025 7.144350
C 1.500000 1.443380 7.960840
C 1.000000 0.577350 7.960840
C 2.000000 0.000000 7.144350
C 2.500000 0.866025 7.144350
C 2.500000 1.443380 7.960840
C 2.000000 0.577350 7.960840
C 3.000000 0.000000 7.144350
C 3.500000 0.866025 7.144350
C 3.500000 1.443380 7.960840
C 3.000000 0.577350 7.960840
C 4.000000 0.000000 7.144350
C 4.500000 0.866025 7.144350
C 4.500000 1.443380 7.960840
C 4.000000 0.577350 7.960840
C 5.000000 0.000000 7.144350
C 5.500000 0.866025 7.144350
C 5.500000 1.443380 7.960840
C 5.000000 0.577350 7.960840
C 6.000000 0.000000 7.144350
C 6.500000 0.866025 7.144350
C 6.500000 1.443380 7.960840
C 6.000000 0.577350 7.960840
C 7.000000 0.000000 7.144350
C 7.500000 0.866025 7.144350
C 7.500000 1.443380 7.960840
C 7.000000 0.577350 7.960840
C 8.000000 0.000000 7.144350
C 8.500000 0.866025 7.144350
C 8.500000 1.443380 7.960840
C 8.000000 0.577350 7.960840
C 0.000000 1.732050 7.144350
C 0.500000 2.598080 7.144350
C 0.500000 3.175430 7.960840
C 0.000000 2.309400 7.960840
C 1.000000 1.732050 7.144350
C 1.500000 2.598080 7.144350
C 1.500000 3.175430 7.960840
C 1.000000 2.309400 7.960840
C 2.000000 1.732050 7.144350
C 2.500000 2.598080 7.144350
C 2.500000 3.175430 7.960840
C 2.000000 2.309400 7.960840
C 3.000000 1.732050 7.144350
C 3.500000 2.598080 7.144350
C 3.500000 3.175430 7.960840
C 3.000000 2.309400 7.960840
C 4.000000 1.732050 7.144350
C 4.500000 2.598080 7.144350
C 4.500000 3.175430 7.960840
C 4.000000 2.309400 7.960840
C 5.000000 1.732050 7.144350
C 5.500000 2.598080 7.144350
C 5.500000 3.175430 7.960840
C 5.000000 2.309400 7.960840
C 6.000000 1.732050 7.144350
C 6.500000 2.598080 7.144350
C 6.500000 3.175430 7.960840
C 6.000000 2.309400 7.960840
C 7.000000 1.732050 7.144350
C 7.500000 2.598080 7.144350
C 7.500000 3.175430 7.960840
C 7.000000 2.309400 7.960840
C 8.000000 1.732050 7.144350
C 8.500000 2.598080 7.144350
C 8.500000 3.175430 7.960840
C 8.000000 2.309400 7.960840
C 0.000000 3.464100 7.144350
C 0.500000 4.330130 7.144350
C 0.500000 4.907480 7.960840
C 0.000000 4.041450 7.960840
C 1.000000 3.464100 7.144350
C 1.500000 4.330130 7.144350
C 1.500000 4.907480 7.960840
C 1.000000 4.041450 7.960840
C 2.000000 3.464100 7.144350
C 2.500000 4.330130 7.144350
C 2.500000 4.907480 7.960840
C 2.000000 4.041450 7.960840
C 3.000000 3.464100 7.144350
C 3.500000 4.330130 7.144350
C 3.500000 4.907480 7.960840
C 3.000000 4.041450 7.960840
C 4.000000 3.464100 7.144350
C 4.500000 4.330130 7.144350
C 4.500000 4.907480 7.960840
C 4.000000 4.041450 7.960840
C 5.000000 3.464100 7.144350
C 5.500000 4.330130 7.144350
C 5.500000 4.907480 7.960840
C 5.000000 4.041450 7.960840
C 6.000000 3.464100 7.144350
C 6.500000 4.330130 7.144350
C 6.500000 4.907480 7.960840
C 6.000000 4.041450 7.960840
C 7.000000 3.464100 7.144350
C 7.500000 4.330130 7.144350
C 7.500000 4.907480 7.960840
C 7.000000 4.041450 7.960840
C 8.000000 3.464100 7.144350
C 8.500000 4.330130 7.144350
C 8.500000 4.907480 7.960840
C 8.000000 4.041450 7.960840
C 0.000000 5.196150 7.144350
C 0.500000 6.062180 7.144350
C 0.500000 6.639530 7.960840
C 0.000000 5.773500 7.960840
C 1.000000 5.196150 7.144350
C 1.500000 6.062180 7.144350
C 1.500000 6.639530 7.960840
C 1.000000 5.773500 7.960840
C 2.000000 5.196150 7.144350
C 2.500000 6.062180 7.144350
C 2.500000 6.639530 7.960840
C 2.000000 5.773500 7.960840
C 3.000000 5.196150 7.144350
C 3.500000 6.062180 7.144350
C 3.500000 6.639530 7.960840
C 3.000000 5.773500 7.960840
C 4.000000 5.196150 7.144350
C 4.500000 6.062180 7.144350
C 4.500000 6.639530 7.960840
C 4.000000 5.773500 7.960840
C 5.000000 5.196150 7.144350
C 5.500000 6.062180 7.144350
C 5.500000 6.639530 7.960840
C 5.000000 5.773500 7.960840
C 6.000000 5.196150 7.144350
C 6.500000 6.062180 7.144350
C 6.500000 6.639530 7.960840
C 6.000000 5.773500 7.960840
C 7.000000 5.196150 7.144350
C 7.500000 6.062180 7.144350
C 7.500000 6.639530 7.960840
C 7.000000 5.773500 7.960840
C 8.000000 5.196150 7.144350
C 8.500000 6.062180 7.144350
C 8.500000 6.639530 7.960840
C 8.000000 5.773500 7.960840
C 0.000000 6.928200 7.144350
C 0.500000 7.794230 7.144350
C 0.500000 8.371580 7.960840
C 0.000000 7.505550 7.960840
C 1.000000 6.928200 7.144350
C 1.500000 7.794230 7.144350
C 1.500000 8.371580 7.960840
C 1.000000 7.505550 7.960840
C 2.000000 6.928200 7.144350
C 2.500000 7.794230 7.144350
C 2.500000 8.371580 7.960840
C 2.000000 7.505550 7.960840
C 3.000000 6.928200 7.144350
C 3.500000 7.794230 7.144350
C 3.500000 8.371580 7.960840
C 3.000000 7.505550 7.960840
C 4.000000 6.928200 7.144350
C 4.500000 7.794230 7.144350
C 4.500000 8.371580 7.960840
C 4.000000 7.505550 7.960840
C 5.000000 6.928200 7.144350
C 5.500000 7.794230 7.144350
C 5.500000 8.371580 7.960840
C 5.000000 7.505550 7.960840
C 6.000000 6.928200 7.144350
C 6.500000 7.794230 7.144350
C 6.500000 8.371580 7.960840
C 6.000000 7.505550 7.960840
C 7.000000 6.928200 7.144350
C 7.500000 7.794230 7.144350
C 7.500000 8.371580 7.960840
C 7.000000 7.505550 7.960840
C 8.000000 6.928200 7.144350
C 8.500000 7.794230 7.144350
C 8.500000 8.371580 7.960840
C 8.000000 7.505550 7.960840
C 0.000000 0.000000 8.777340
C 0.500000 0.866025 8.777340
C 0.500000 1.443380 9.593830
C 0.000000 0.577350 9.593830
C 1.000000 0.000000 8.777340
C 1.500000 0.866025 8.777340
C 1.500000 1.443380 9.593830
C 1.000000 0.577350 9.593830
C 2.000000 0.000000 8.777340
C 2.500000 0.866025 8.777340
C 2.500000 1.443380 9.593830
C 2.000000 0.577350 9.593830
C 3.000000 0.000000 8.777340
C 3.500000 0.866025 8.777340
C 3.500000 1.443380 9.593830
C 3.000000 0.577350 9.593830
C 4.000000 0.000000 8.777340
C 4.500000 0.866025 8.777340
C 4.500000 1.443380 9.593830
C 4.000000 0.577350 9.593830
C 5.000000 0.000000 8.777340
C 5.500000 0.866025 8.777340
C 5.500000 1.443380 9.593830
C 5.000000 0.577350 9.593830
C 6.000000 0.000000 8.777340
C 6.500000 0.866025 8.777340
C 6.500000 1.443380 9.593830
C 6.000000 0.577350 9.593830
C 7.000000 0.000000 8.777340
C 7.500000 0.866025 8.777340
C 7.500000 1.443380 9.593830
C 7.000000 0.577350 9.593830
C 8.000000 0.000000 8.777340
C 8.500000 0.866025 8.777340
C 8.500000 1.443380 9.593830
C 8.000000 0.577350 9.593830
C 0.000000 1.732050 8.777340
C 0.500000 2.598080 8.777340
C 0.500000 3.175430 9.593830
C 0.000000 2.309400 9.593830
C 1.000000 1.732050 8.777340
C 1.500000 2.598080 8.777340
C 1.500000 3.175430 9.593830
C 1.000000 2.309400 9.593830
C 2.000000 1.732050 8.777340
C 2.500000 2.598080 8.777340
C 2.500000 3.175430 9.593830
C 2.000000 2.309400 9.593830
C 3.000000 1.732050 8.777340
C 3.500000 2.598080 8.777340
C 3.500000 3.175430 9.593830
C 3.000000 2.309400 9.593830
C 4.000000 1.732050 8.777340
C 4.500000 2.598080 8.777340
C 4.500000 3.175430 9.593830
C 4.000000 2.309400 9.593830
C 5.000000 1.732050 8.777340
C 5.500000 2.598080 8.777340
C 5.500000 3.175430 9.593830
C 5.000000 2.309400 9.593830
C 6.000000 1.732050 8.777340
C 6.500000 2.598080 8.777340
C 6.500000 3.175430 9.593830
C 6.000000 2.309400 9.593830
C 7.000000 1.732050 8.777340
C 7.500000 2.598080 8.777340
C 7.500000 3.175430 9.593830
C 7.000000 2.309400 9.593830
C 8.000000 1.732050 8.777340
C 8.500000 2.598080 8.777340
C 8.500000 3.175430 9.593830
C 8.000000 2.309400 9.593830
C 0.000000 3.464100 8.777340
C 0.500000 4.330130 8.777340
C 0.500000 4.907480 9.593830
C 0.000000 4.041450 9.593830
C 1.000000 3.464100 8.777340
C 1.500000 4.330130 8.777340
C 1.500000 4.907480 9.593830
C 1.000000 4.041450 9.593830
C 2.000000 3.464100 8.777340
C 2.500000 4.330130 8.777340
C 2.500000 4.907480 9.593830
C 2.000000 4.041450 9.593830
C 3.000000 3.464100 8.777340
C 3.500000 4.330130 8.777340
C 3.500000 4.907480 9.593830
C 3.000000 4.041450 9.593830
C 4.000000 3.464100 8.777340
C 4.500000 4.330130 8.777340
C 4.500000 4.907480 9.593830
C 4.000000 4.041450 9.593830
C 5.000000 3.464100 8.777340
C 5.500000 4.330130 8.777340
C 5.500000 4.907480 9.593830
C 5.000000 4.041450 9.593830
C 6.000000 3.464100 8.777340
C 6.500000 4.330130 8.777340
C 6.500000 4.907480 9.593830
C 6.000000 4.041450 9.593830
C 7.000000 3.464100 8.777340
C 7.500000 4.330130 8.777340
C 7.500000 4.907480 9.593830
C 7.000000 4.041450 9.593830
C 8.000000 3.464100 8.777340
C 8.500000 4.330130 8.777340
C 8.500000 4.907480 9.593830
C 8.000000 4.041450 9.593830
C 0.000000 5.196150 8.777340
C 0.500000 6.062180 8.777340
C 0.500000 6.639530 9.593830
C 0.000000 5.773500 9.593830
C 1.000000 5.196150 8.777340
C 1.500000 6.062180 8.777340
C 1.500000 6.639530 9.593830
C 1.000000 5.773500 9.593830
C 2.000000 5.196150 8.777340
C 2.500000 6.062180 8.777340
C 2.500000 6.639530 9.593830
C 2.000000 5.773500 9.593830
C 3.000000 5.196150 8.777340
C 3.500000 6.062180 8.777340
C 3.500000 6.639530 9.593830
C 3.000000 5.773500 9.593830
C 4.000000 5.196150 8.777340
C 4.500000 6.062180 8.777340
C 4.500000 6.639530 9.593830
C 4.000000 5.773500 9.593830
C 5.000000 5.196150 8.777340
C 5.500000 6.062180 8.777340
C 5.500000 6.639530 9.593830
C 5.000000 5.773500 9.593830
C 6.000000 5.196150 8.777340
C 6.500000 6.062180 8.777340
C 6.500000 6.639530 9.593830
C 6.000000 5.773500 9.593830
C 7.000000 5.196150 8.777340
C 7.500000 6.062180 8.777340
C 7.500000 6.639530 9.593830
C 7.000000 5.773500 9.593830
C 8.000000 5.196150 8.777340
C 8.500000 6.062180 8.777340
C 8.500000 6.639530 9.593830
C 8.000000 5.773500 9.593830
C 0.000000 6.928200 8.777340
C 0.500000 7.794230 8.777340
C 0.500000 8.371580 9.593830
C 0.000000 7.505550 9.593830
C 1.000000 6.928200 8.777340
C 1.500000 7.794230 8.777340
C 1.500000 8.371580 9.593830
C 1.000000 7.505550 9.593830
C 2.000000 6.928200 8.777340
C 2.500000 7.794230 8.777340
C 2.500000 8.371580 9.593830
C 2.000000 7.505550 9.593830
C 3.000000 6.928200 8.777340
C 3.500000 7.794230 8.777340
C 3.500000 8.371580 9.593830
C 3.000000 7.505550 9.593830
C 4.000000 6.928200 8.777340
C 4.500000 7.794230 8.777340
C 4.500000 8.371580 9.593830
C 4.000000 7.505550 9.593830
C 5.000000 6.928200 8.777340
C 5.500000 7.794230 8.777340
C 5.500000 8.371580 9.593830
C 5.000000 7.505550 9.593830
C 6.000000 6.928200 8.777340
C 6.500000 7.794230 8.777340
C 6.500000 8.371580 9.593830
C 6.000000 7.505550 9.593830
C 7.000000 6.928200 8.777340
C 7.500000 7.794230 8.777340
C 7.500000 8.371580 9.593830
C 7.000000 7.505550 9.593830
C 8.000000 6.928200 8.777340
C 8.500000 7.794230 8.777340
C 8.500000 8.371580 9.593830
C 8.000000 7.505550 9.593830
2160
Frame 2/10
C 0.000429 0.010089 0.031952
C 0.515092 0.885484 0.004821
C 0.507284 1.441178 0.809941
C 0.004646 0.574226 0.797344
C 0.958864 0.035252 0.011756
C 1.497492 0.888076 0.022779
C 1.502895 1.454554 0.803897
C 0.992659 0.553249 0.809637
C 2.028878 0.002502 0.019297
C 2.497560 0.886635 0.033601
C 2.473652 1.433323 0.828560
C 2.016266 0.594519 0.814624
C 2.969753 0.000535 0.018370
C 3.501930 0.868590 0.019445
C 3.497119 1.449728 0.801661
C 2.993586 0.578217 0.818615
C 4.022708 0.021578 0.002920
C 4.496375 0.864843 0.007835
C 4.501221 1.422766 0.796911
C 3.986019 0.585074 0.840913
C 5.033338 0.022222 0.003155
C 5.495909 0.837160 0.014730
C 5.469314 1.406984 0.811988
C 4.991933 0.558058 0.831703
C 5.966951 0.015784 0.024158
C 6.522462 0.854770 0.002805
C 6.482668 1.445053 0.799762
C 5.998432 0.586825 0.835832
C 7.028409 0.004423 0.013427
C 7.514152 0.856420 0.021235
C 7.479126 1.448245 0.813455
C 6.978434 0.574182 0.794955
C 8.024847 0.001487 0.007843
C 8.493757 0.874356 0.003317
C 8.474765 1.447851 0.807698
C 8.010515 0.607711 0.826540
C 0.000557 1.715767 0.035812
C 0.517414 2.587257 0.010126
C 0.477119 3.173200 0.790884
C 0.018419 2.308553 0.800287
C 1.020630 1.752352 0.015791
C 1.527894 2.610257 0.026871
C 1.496410 3.165920 0.821064
C 1.010896 2.290792 0.843920
C 2.012825 1.746216 0.000779
C 2.509967 2.613139 0.005927
C 2.500601 3.181896 0.825707
C 1.975895 2.311786 0.828313
C 2.990094 1.720338 0.001807
C 3.513081 2.631843 0.014345
C 3.511201 3.169935 0.788773
C 3.021308 2.322137 0.843382
C 3.987332 1.724125 0.023611
C 4.483300 2.599533 0.013440
C 4.522958 3.154847 0.805337
C 3.993387 2.321725 0.811983
C 4.990994 1.690796 0.012115
C 5.510215 2.597864 0.002105
C 5.514250 3.177545 0.842131
C 4.998298 2.307595 0.804995
C 5.993740 1.719380 0.010390
C 6.501352 2.595588 0.021326
C 6.502804 3.157574 0.827178
C 6.034703 2.313009 0.814208
C 7.014836 1.758470 0.003524
C 7.471690 2.584589 0.004811
C 7.488146 3.171514 0.819457
C 7.008269 2.292844 0.806208
C 8.014766 1.756136 0.014251
C 8.467648 2.579068 0.010482
C 8.496884 3.175074 0.834131
C 7.964456 2.306120 0.830637
C 0.006703 3.437428 0.004391
C 0.507417 4.323431 0.019898
C 0.480528 4.911555 0.820777
C 0.002132 4.027232 0.846306
C 0.982913 3.461146 0.032095
C 1.476331 4.325955 0.001686
C 1.513982 4.892581 0.809211
C 0.989272 4.035201 0.799895
C 2.010756 3.487414 0.012920
C 2.482123 4.314920 0.006484
C 2.496910 4.890407 0.831599
C 2.013949 4.055570 0.837004
C 2.972792 3.479785 0.017522
C 3.482520 4.320022 0.002739
C 3.523473 4.915883 0.808032
C 3.000982 4.052769 0.808314
C 3.971633 3.451336 0.027134
C 4.518918 4.325204 0.007930
C 4.482458 4.899217 0.799318
C 4.028556 4.037478 0.807912
C 5.009486 3.474016 0.002073
C 5.479541 4.334376 0.017209
C 5.515761 4.902305 0.796916
C 4.968782 4.066276 0.827544
C 6.009050 3.450702 0.009434
C 6.529100 4.329832 0.001027
C 6.486522 4.909266 0.796287
C 6.003883 4.017517 0.834377
C 7.010525 3.444004 0.017026
C 7.494566 4.313070 0.007548
C 7.489556 4.911204 0.813748
C 6.987184 4.015308 0.815986
C 7.990582 3.449510 0.009279
C 8.496974 4.339335 0.019572
C 8.517042 4.919060 0.828999
C 7.987287 4.062277 0.802583
C 0.012604 5.177317 0.013909
C 0.497113 6.026799 0.011833
C 0.490852 6.665877 0.811927
C 0.005950 5.752868 0.831497
C 1.016869 5.179083 0.010909
C 1.495065 6.049112 0.008710
C 1.514804 6.657450 0.811059
C 0.984286 5.763178 0.811018
C 1.990212 5.216588 0.002564
C 2.514149 6.096264 0.001231
C 2.507155 6.648625 0.807662
C 1.998514 5.783969 0.824669
C 3.013288 5.169184 0.006746
C 3.489830 6.055325 0.018051
C 3.493379 6.655900 0.783548
C 2.989259 5.785462 0.810316
C 3.985934 5.170398 0.016376
C 4.469558 6.068690 0.002630
C 4.498954 6.647890 0.805731
C 4.015277 5.761403 0.834565
C 5.025652 5.205160 0.008007
C 5.527120 6.053636 0.029591
C 5.509362 6.646236 0.822906
C 4.994371 5.785379 0.789900
C 6.004764 5.217128 0.011450
C 6.517563 6.078931 0.018380
C 6.488988 6.672702 0.813816
C 6.004327 5.769743 0.836502
C 7.002858 5.198824 0.004664
C 7.481175 6.066819 0.002621
C 7.474558 6.634052 0.818393
C 6.988982 5.757737 0.830580
C 8.013606 5.225629 0.021165
C 8.502454 6.073141 0.004749
C 8.495451 6.624443 0.800551
C 8.009036 5.784444 0.812863
C 0.013366 6.897691 0.001263
C 0.489567 7.789633 0.019280
C 0.508934 8.377486 0.799277
C 0.020824 7.506455 0.782689
C 1.027127 6.935872 0.008874
C 1.505667 7.805313 0.022190
C 1.514051 8.355914 0.801297
C 1.012564 7.516600 0.800233
C 1.996883 6.920992 0.010626
C 2.526917 7.809565 0.011480
C 2.469667 8.390276 0.805475
C 1.982203 7.508486 0.801392
C 3.008782 6.938524 0.019710
C 3.487554 7.803597 0.001886
C 3.476485 8.386956 0.803887
C 2.987926 7.501649 0.784443
C 4.006458 6.951396 0.011117
C 4.491757 7.802660 0.019479
C 4.496822 8.380718 0.811989
C 4.005999 7.506128 0.848252
C 5.003407 6.952086 0.004134
C 5.526527 7.810313 0.015693
C 5.508646 8.368985 0.806034
C 5.015836 7.498756 0.820955
C 6.000645 6.941601 0.013457
C 6.485131 7.814948 0.015804
C 6.511266 8.359833 0.797102
C 6.007346 7.517817 0.802793
C 6.985102 6.908549 0.006022
C 7.526822 7.820132 0.013580
C 7.467274 8.375878 0.798638
C 6.987911 7.494823 0.830402
C 7.987628 6.959362 0.002097
C 8.499439 7.771922 0.021202
C 8.521551 8.364822 0.832017
C 7.984945 7.485554 0.835980
C 0.003171 0.009553 1.661937
C 0.479373 0.878921 1.611359
C 0.503574 1.423336 2.424179
C 0.011960 0.575131 2.437500
C 0.989897 0.015519 1.612373
C 1.483023 0.847636 1.609419
C 1.514228 1.448072 2.466765
C 1.021468 0.592528 2.422143
C 2.003075 0.003644 1.633421
C 2.483240 0.862110 1.657416
C 2.506283 1.425500 2.444852
C 1.988897 0.600302 2.467045
C 3.004890 0.015279 1.654419
C 3.504267 0.879186 1.649054
C 3.500103 1.458373 2.447134
C 3.023311 0.592086 2.458022
C 3.994667 0.019184 1.647530
C 4.503370 0.865898 1.653661
C 4.492758 1.456199 2.441693
C 4.028574 0.574787 2.441160
C 5.003107 0.018426 1.628243
C 5.491005 0.861260 1.636623
C 5.483749 1.448392 2.447962
C 4.975579 0.578613 2.461915
C 6.006336 0.001520 1.608385
C 6.488503 0.867457 1.620162
C 6.494685 1.419685 2.441406
C 5.998640 0.559877 2.451847
C 6.982081 0.006583 1.614995
C 7.487428 0.884279 1.613424
C 7.470998 1.438047 2.457609
C 7.010186 0.570355 2.448952
C 8.019973 0.018538 1.603421
C 8.500410 0.881651 1.658629
C 8.504372 1.456751 2.433577
C 7.987351 0.558224 2.443694
C 0.008673 1.755938 1.641017
C 0.504241 2.623808 1.609205
C 0.506626 3.171808 2.433483
C 0.003205 2.297083 2.433699
C 1.010487 1.759442 1.635244
C 1.506225 2.600748 1.656876
C 1.494984 3.160681 2.459773
C 0.983258 2.298247 2.439751
C 2.021908 1.717436 1.640306
C 2.485489 2.588063 1.622386
C 2.496757 3.167227 2.471861
C 1.983656 2.327013 2.450801
C 2.998175 1.728554 1.635273
C 3.524543 2.579537 1.636128
C 3.514984 3.178881 2.442652
C 3.016163 2.323013 2.470392
C 4.000996 1.735500 1.605804
C 4.485206 2.606955 1.612723
C 4.518494 3.165802 2.436342
C 3.989933 2.321253 2.468554
C 5.029178 1.718576 1.635665
C 5.501404 2.586487 1.603653
C 5.494260 3.150448 2.448857
C 5.005622 2.304549 2.423443
C 5.990128 1.754659 1.634015
C 6.484160 2.631900 1.631804
C 6.527331 3.164787 2.434246
C 6.019286 2.304478 2.434901
C 7.023959 1.705486 1.648128
C 7.484533 2.594752 1.644408
C 7.499034 3.172636 2.436854
C 6.999837 2.321138 2.429120
C 8.002054 1.728900 1.611387
C 8.505649 2.596874 1.629831
C 8.476586 3.165073 2.444420
C 7.980244 2.291821 2.437850
C 0.016495 3.482891 1.628093
C 0.488991 4.340242 1.666287
C 0.478756 4.902076 2.426374
C 0.004695 4.043765 2.477416
C 0.985781 3.475793 1.631723
C 1.513204 4.317782 1.600808
C 1.511468 4.894457 2.464350
C 1.027972 4.018917 2.445975
C 2.015413 3.464232 1.632055
C 2.512660 4.353316 1.614205
C 2.490542 4.917480 2.470313
C 2.000807 4.069114 2.439250
C 3.001088 3.465018 1.636714
C 3.509909 4.362738 1.648217
C 3.493671 4.924782 2.445164
C 2.986405 4.047836 2.470810
C 4.001858 3.454987 1.615214
C 4.497380 4.334896 1.636802
C 4.501692 4.914187 2.429913
C 3.982425 4.030585 2.465221
C 4.996655 3.478463 1.618428
C 5.497471 4.315828 1.644096
C 5.469326 4.909653 2.459240
C 5.028233 4.040570 2.443170
C 5.989336 3.477766 1.628328
C 6.488249 4.312418 1.621698
C 6.520249 4.924367 2.445049
C 6.030680 4.036900 2.451546
C 6.999517 3.448973 1.655899
C 7.498837 4.329091 1.613704
C 7.505331 4.930644 2.451931
C 6.989382 4.030237 2.456749
C 7.993367 3.474231 1.632800
C 8.510145 4.327356 1.642419
C 8.499165 4.894890 2.442897
C 8.013203 4.025793 2.450297
C 0.031506 5.194141 1.596650
C 0.474950 6.069305 1.626374
C 0.487201 6.651868 2.458619
C 0.005132 5.790223 2.444678
C 0.993566 5.179525 1.650248
C 1.496899 6.068723 1.660979
C 1.477689 6.651524 2.469091
C 1.004596 5.789715 2.465420
C 2.007104 5.201548 1.613693
C 2.490641 6.079354 1.653352
C 2.480765 6.640146 2.466266
C 2.012338 5.760354 2.437515
C 3.009377 5.185964 1.612136
C 3.499681 6.045841 1.647414
C 3.480221 6.645120 2.425114
C 3.008538 5.795257 2.445064
C 4.006153 5.180145 1.636549
C 4.509682 6.043516 1.652823
C 4.485763 6.659424 2.462079
C 4.006083 5.792193 2.426343
C 5.032343 5.198944 1.632741
C 5.495573 6.072271 1.636396
C 5.488381 6.631313 2.476194
C 4.987157 5.760265 2.451109
C 6.016678 5.214928 1.620106
C 6.493493 6.060721 1.668978
C 6.515702 6.629787 2.443858
C 6.017526 5.774045 2.472468
C 6.992931 5.180806 1.647961
C 7.493408 6.078169 1.614865
C 7.525668 6.635762 2.456544
C 6.992568 5.765198 2.438433
C 8.014039 5.186639 1.633567
C 8.509581 6.065281 1.621283
C 8.526285 6.649206 2.461970
C 8.020284 5.768293 2.433865
C 0.007152 6.930408 1.623867
C 0.495092 7.812873 1.610334
C 0.487187 8.380360 2.440798
C 0.007510 7.496066 2.478871
C 0.996132 6.935157 1.597826
C 1.523609 7.798351 1.662089
C 1.486312 8.378014 2.480421
C 0.995434 7.470013 2.449300
C 2.002510 6.940515 1.658291
C 2.483583 7.778971 1.620760
C 2.478628 8.392671 2.457594
C 2.020260 7.511672 2.456166
C 2.995544 6.926409 1.654856
C 3.473461 7.795038 1.612903
C 3.518858 8.385736 2.453329
C 3.003723 7.515501 2.457560
C 3.988749 6.937017 1.598390
C 4.484097 7.782381 1.611349
C 4.519745 8.377093 2.444509
C 3.995661 7.503104 2.447221
C 4.981402 6.945862 1.620336
C 5.513792 7.786562 1.656482
C 5.503249 8.401920 2.455505
C 5.005679 7.494023 2.459564
C 6.011000 6.928314 1.603818
C 6.473969 7.774646 1.624501
C 6.525297 8.370566 2.423092
C 6.020073 7.504669 2.447391
C 7.002873 6.934210 1.633188
C 7.497645 7.789424 1.652896
C 7.501144 8.383293 2.423941
C 6.989831 7.506647 2.444868
C 8.020199 6.929258 1.619458
C 8.490634 7.793884 1.629233
C 8.478051 8.346619 2.448650
C 8.000902 7.511984 2.466070
C 0.033827 0.011521 3.279931
C 0.521477 0.854082 3.260052
C 0.480938 1.461461 4.067572
C 0.007574 0.586039 4.070905
C 1.021565 0.024250 3.273588
C 1.496187 0.875034 3.281540
C 1.497795 1.446281 4.087999
C 1.011378 0.570142 4.100950
C 1.990291 0.029380 3.291873
C 2.493902 0.863924 3.254309
C 2.489722 1.421305 4.082743
C 1.983819 0.592153 4.073335
C 3.018312 0.002250 3.273910
C 3.506725 0.871360 3.299243
C 3.518313 1.463765 4.079622
C 2.997534 0.601003 4.093480
C 4.016963 0.008465 3.251387
C 4.523743 0.880471 3.277182
C 4.520353 1.444424 4.061229
C 3.997637 0.597626 4.075432
C 5.005245 0.011395 3.258691
C 5.493931 0.858200 3.282192
C 5.487696 1.463431 4.082697
C 4.993609 0.589647 4.054755
C 6.014465 0.014227 3.249921
C 6.506097 0.862930 3.261622
C 6.480630 1.468225 4.090536
C 5.994400 0.576769 4.059048
C 6.971526 0.005695 3.256582
C 7.488381 0.849250 3.246382
C 7.500327 1.421740 4.115541
C 6.997115 0.585912 4.087750
C 8.000570 0.022222 3.286739
C 8.514848 0.860816 3.284151
C 8.503994 1.436720 4.072634
C 7.975337 0.579340 4.072498
C 0.003098 1.704484 3.259492
C 0.515638 2.595737 3.273047
C 0.485141 3.172228 4.083078
C 0.018139 2.313519 4.034392
C 1.005463 1.747351 3.268254
C 1.497611 2.602222 3.231525
C 1.522331 3.173343 4.098218
C 0.999685 2.295084 4.070909
C 2.003813 1.726634 3.242515
C 2.505116 2.586559 3.250523
C 2.510291 3.182810 4.079929
C 1.982134 2.326292 4.075590
C 2.994506 1.759702 3.250507
C 3.515664 2.583403 3.278214
C 3.509001 3.178384 4.062495
C 2.998382 2.322671 4.081832
C 4.017286 1.726200 3.279019
C 4.474908 2.622928 3.255454
C 4.513142 3.178398 4.088160
C 3.986991 2.317214 4.107803
C 5.003491 1.753194 3.284275
C 5.474852 2.599272 3.287894
C 5.501553 3.159976 4.067285
C 5.006197 2.329985 4.076914
C 6.010947 1.738303 3.263937
C 6.506947 2.596451 3.269825
C 6.513937 3.173948 4.068562
C 6.031084 2.295186 4.073381
C 7.005243 1.743694 3.268220
C 7.518267 2.617082 3.283610
C 7.491911 3.197034 4.081365
C 7.024796 2.322737 4.083968
C 8.017919 1.729973 3.279527
C 8.488796 2.605953 3.293067
C 8.506232 3.197990 4.072693
C 7.984802 2.313826 4.103475
C 0.015781 3.492364 3.244838
C 0.484263 4.322084 3.241060
C 0.490900 4.940738 4.066957
C 0.026456 4.021605 4.089225
C 0.988122 3.487623 3.269429
C 1.489596 4.346325 3.255336
C 1.472601 4.934238 4.077927
C 1.005403 4.035893 4.098674
C 1.998751 3.484256 3.261590
C 2.514161 4.320771 3.245182
C 2.520387 4.899866 4.098824
C 1.984919 4.036309 4.096859
C 2.996879 3.454510 3.260893
C 3.494734 4.300183 3.245685
C 3.488845 4.920483 4.070468
C 3.015518 4.025375 4.068497
C 4.016158 3.449954 3.269364
C 4.514495 4.343210 3.270072
C 4.515651 4.885508 4.080359
C 3.971375 4.027213 4.086448
C 4.989517 3.471922 3.258463
C 5.483972 4.340701 3.288662
C 5.526710 4.928971 4.094910
C 5.002060 4.067352 4.070891
C 5.980648 3.470040 3.267632
C 6.475210 4.335537 3.296246
C 6.505459 4.884554 4.083451
C 6.008797 4.023523 4.103420
C 6.983101 3.455028 3.263140
C 7.510994 4.353063 3.253438
C 7.506585 4.896028 4.099566
C 6.973575 4.015555 4.076920
C 8.017691 3.463408 3.277624
C 8.512362 4.315874 3.284530
C 8.485553 4.910208 4.094349
C 8.023629 4.042470 4.064493
C 0.014009 5.196362 3.249454
C 0.514564 6.072871 3.254068
C 0.524140 6.616762 4.083947
C 0.003426 5.800246 4.070187
C 1.017831 5.188922 3.250411
C 1.509531 6.048045 3.269979
C 1.507344 6.641165 4.050758
C 0.984043 5.768476 4.092383
C 1.965956 5.203595 3.268772
C 2.493239 6.032390 3.259970
C 2.494351 6.634032 4.082695
C 1.988888 5.778168 4.101875
C 2.996278 5.219046 3.274060
C 3.507226 6.070947 3.263330
C 3.479627 6.645676 4.087448
C 2.990834 5.758239 4.076338
C 4.025333 5.203591 3.273665
C 4.481048 6.075390 3.279770
C 4.489293 6.635959 4.089923
C 4.010604 5.748044 4.091588
C 5.009771 5.212394 3.261444
C 5.496107 6.043205 3.269890
C 5.501542 6.615613 4.075563
C 4.998126 5.749381 4.074645
C 6.003440 5.212183 3.279223
C 6.497517 6.042456 3.276602
C 6.519853 6.625593 4.074527
C 6.016835 5.786982 4.083471
C 7.015915 5.176486 3.247755
C 7.524202 6.079204 3.266257
C 7.506896 6.631004 4.056906
C 7.008287 5.791337 4.073845
C 8.006381 5.182155 3.245881
C 8.515341 6.068524 3.281574
C 8.498312 6.636911 4.097119
C 7.989793 5.774428 4.097127
C 0.003052 6.915092 3.244143
C 0.509590 7.791427 3.249150
C 0.519131 8.351567 4.087531
C 0.032308 7.524692 4.085728
C 0.985395 6.928428 3.271426
C 1.485087 7.787601 3.248916
C 1.484493 8.365592 4.071140
C 1.035783 7.518010 4.091199
C 1.969066 6.926247 3.270159
C 2.477606 7.804618 3.278260
C 2.503723 8.367477 4.110012
C 1.996379 7.534533 4.092627
C 2.988909 6.913114 3.279489
C 3.512900 7.789671 3.268916
C 3.485192 8.374792 4.057562
C 3.004954 7.495599 4.114186
C 4.018788 6.937023 3.253319
C 4.507966 7.825706 3.279418
C 4.471050 8.360256 4.091147
C 3.981704 7.524672 4.076558
C 4.974329 6.933237 3.263519
C 5.490017 7.789284 3.243237
C 5.508193 8.358013 4.094801
C 5.001162 7.489099 4.099948
C 5.988055 6.904998 3.274853
C 6.499968 7.800480 3.265138
C 6.498373 8.389059 4.077206
C 6.011274 7.495327 4.097779
C 7.020315 6.915083 3.273523
C 7.490764 7.792718 3.256711
C 7.475501 8.379438 4.059357
C 6.995969 7.493012 4.099284
C 7.994502 6.917500 3.275716
C 8.531436 7.811422 3.271117
C 8.487449 8.366183 4.081116
C 7.973771 7.484464 4.097625
C 0.007859 0.020271 4.863872
C 0.493390 0.864473 4.919079
C 0.510544 1.448239 5.734981
C 0.021171 0.583337 5.716782
C 1.012865 0.001895 4.907879
C 1.529180 0.860915 4.892869
C 1.498139 1.425319 5.718263
C 1.006754 0.586653 5.738551
C 2.012682 0.006946 4.925506
C 2.505428 0.852060 4.911808
C 2.513453 1.424080 5.714830
C 2.016184 0.589411 5.732424
C 3.018670 0.024821 4.888587
C 3.499914 0.855756 4.915566
C 3.482852 1.438426 5.731422
C 2.999009 0.571999 5.708239
C 3.987064 0.007850 4.893747
C 4.490992 0.861410 4.914530
C 4.488840 1.472745 5.707047
C 4.019255 0.561002 5.729407
C 4.999867 0.004396 4.909819
C 5.517755 0.871706 4.892577
C 5.517660 1.456816 5.707979
C 5.026266 0.579429 5.715222
C 6.003598 0.000370 4.897242
C 6.478901 0.862124 4.877747
C 6.474727 1.447642 5.710397
C 6.010167 0.581952 5.718457
C 7.023953 0.008818 4.886888
C 7.500172 0.900131 4.902416
C 7.498920 1.459370 5.737468
C 6.989472 0.592187 5.732640
C 7.989786 0.007355 4.918051
C 8.485175 0.847928 4.904644
C 8.505059 1.455762 5.722236
C 7.978736 0.559637 5.728565
C 0.010801 1.757863 4.885487
C 0.492379 2.610259 4.909062
C 0.494707 3.149784 5.708822
C 0.010252 2.287898 5.702597
C 0.998240 1.744025 4.879211
C 1.521003 2.598740 4.892872
C 1.495958 3.189517 5.713885
C 1.015636 2.294420 5.726661
C 1.989759 1.741759 4.882550
C 2.481886 2.620150 4.890947
C 2.493786 3.189329 5.717101
C 2.022632 2.307538 5.690391
C 3.019739 1.742705 4.916706
C 3.487881 2.606877 4.911302
C 3.501278 3.188434 5.688017
C 2.972386 2.317543 5.712390
C 3.989651 1.721990 4.886876
C 4.487403 2.603943 4.918364
C 4.491372 3.179059 5.683686
C 3.976073 2.320852 5.704429
C 5.014073 1.756216 4.897505
C 5.491702 2.566776 4.900030
C 5.514800 3.183431 5.709796
C 5.001702 2.325578 5.722210
C 5.982711 1.739830 4.872907
C 6.484943 2.602071 4.919295
C 6.512598 3.165970 5.736822
C 6.018070 2.313451 5.740024
C 7.021046 1.729083 4.889896
C 7.502745 2.587106 4.923529
C 7.478114 3.172533 5.718076
C 7.013217 2.301280 5.696401
C 8.020869 1.729388 4.906669
C 8.516004 2.576124 4.908841
C 8.516994 3.162157 5.715328
C 7.988050 2.320291 5.724212
C 0.019335 3.470367 4.888044
C 0.508186 4.343768 4.869500
C 0.491821 4.884121 5.702452
C 0.002103 4.050673 5.720940
C 1.010518 3.465790 4.902935
C 1.503019 4.336211 4.917993
C 1.492352 4.930501 5.708418
C 1.028549 4.040802 5.710699
C 1.987783 3.460892 4.915803
C 2.512290 4.327667 4.874871
C 2.483097 4.912001 5.732134
C 2.002234 4.062282 5.708153
C 2.992293 3.483147 4.905669
C 3.479592 4.321726 4.896504
C 3.512185 4.916116 5.717565
C 2.999754 4.034702 5.701168
C 4.009412 3.478878 4.904033
C 4.503919 4.339813 4.885342
C 4.524585 4.914629 5.716169
C 4.010315 4.043348 5.745048
C 5.014152 3.475000 4.893909
C 5.523321 4.320653 4.896001
C 5.479815 4.919192 5.718750
C 4.996365 4.042831 5.714737
C 5.987638 3.455750 4.916843
C 6.519589 4.309352 4.906492
C 6.488626 4.908530 5.697873
C 5.997742 4.052351 5.695461
C 7.015026 3.462483 4.880418
C 7.489195 4.335308 4.880939
C 7.489122 4.884207 5.713246
C 7.006952 4.033123 5.708204
C 8.024040 3.451527 4.882305
C 8.500528 4.355090 4.922697
C 8.503160 4.918520 5.690714
C 8.015567 4.030661 5.721547
C 0.033993 5.186118 4.889941
C 0.517592 6.058775 4.892484
C 0.517785 6.647304 5.707623
C 0.010593 5.746692 5.739437
C 1.000319 5.199997 4.920928
C 1.505797 6.050656 4.904346
C 1.501789 6.646713 5.710694
C 0.996302 5.779830 5.733594
C 1.991516 5.207501 4.872245
C 2.520341 6.070181 4.876141
C 2.497216 6.645965 5.701540
C 1.994113 5.788364 5.696279
C 3.022896 5.209196 4.896717
C 3.490769 6.044637 4.887520
C 3.485210 6.638964 5.688159
C 3.010963 5.783863 5.699619
C 4.000128 5.198923 4.920975
C 4.498570 6.065597 4.917971
C 4.494198 6.643244 5.748395
C 4.003388 5.790588 5.727349
C 5.025458 5.193191 4.901536
C 5.515173 6.072645 4.915462
C 5.507915 6.650057 5.691686
C 4.986941 5.770011 5.703326
C 5.972227 5.190260 4.899064
C 6.493851 6.070524 4.885135
C 6.502593 6.638679 5.723826
C 5.989662 5.747791 5.734650
C 6.979970 5.180163 4.902659
C 7.485056 6.079784 4.888022
C 7.507449 6.617970 5.705747
C 6.997818 5.762103 5.704676
C 8.018537 5.190382 4.913163
C 8.493796 6.035659 4.904484
C 8.498884 6.653366 5.721671
C 8.011029 5.799905 5.707906
C 0.006473 6.931429 4.905815
C 0.516432 7.814875 4.917860
C 0.504679 8.383412 5.727281
C 0.011056 7.498675 5.753768
C 1.014838 6.929417 4.918428
C 1.494834 7.778361 4.893465
C 1.492424 8.377533 5.727076
C 0.993658 7.487221 5.718801
C 1.991648 6.909575 4.874770
C 2.494402 7.789237 4.877916
C 2.482958 8.363475 5.706320
C 2.018929 7.498486 5.722377
C 3.011548 6.935693 4.893780
C 3.491660 7.804041 4.890102
C 3.498056 8.375038 5.727617
C 2.980916 7.507761 5.706541
C 3.999051 6.921853 4.882401
C 4.480013 7.766103 4.890792
C 4.488366 8.379889 5.707174
C 4.013350 7.528079 5.716104
C 4.995583 6.942014 4.915087
C 5.500324 7.773875 4.916491
C 5.513202 8.384679 5.697621
C 5.017698 7.487691 5.721565
C 6.020246 6.904034 4.900178
C 6.479604 7.773668 4.926066
C 6.497448 8.387776 5.712982
C 5.977643 7.495134 5.747353
C 7.020586 6.938766 4.916741
C 7.471900 7.779022 4.890096
C 7.508228 8.390848 5.721792
C 7.028323 7.497986 5.700160
C 8.003528 6.922125 4.886654
C 8.495121 7.777622 4.890296
C 8.487568 8.367393 5.723463
C 8.016469 7.528310 5.733105
C 0.020433 0.001282 6.551817
C 0.496600 0.879325 6.509734
C 0.524714 1.444891 7.344921
C 0.013605 0.584160 7.376815
C 1.021266 0.013387 6.557042
C 1.476529 0.860423 6.545166
C 1.498888 1.424650 7.352752
C 0.980457 0.550424 7.344819
C 1.975025 0.011758 6.519016
C 2.504358 0.846104 6.517762
C 2.522256 1.433963 7.341779
C 2.019330 0.568655 7.336433
C 3.014603 0.001670 6.522747
C 3.494461 0.862251 6.497349
C 3.526980 1.442772 7.334272
C 3.021237 0.562317 7.350935
C 3.999836 0.003808 6.535679
C 4.491653 0.886644 6.526448
C 4.524426 1.431211 7.332451
C 4.024594 0.577597 7.353037
C 4.987541 0.013305 6.563920
C 5.518392 0.847703 6.537688
C 5.502124 1.445436 7.359304
C 5.014703 0.574096 7.325294
C 6.014075 0.013954 6.510963
C 6.488666 0.841748 6.532753
C 6.494870 1.429079 7.321719
C 5.992732 0.552946 7.337582
C 6.994899 0.001632 6.545624
C 7.531934 0.854410 6.522377
C 7.533349 1.453401 7.338788
C 7.032138 0.582747 7.369978
C 7.983006 0.005543 6.541202
C 8.486619 0.893558 6.532385
C 8.483345 1.458299 7.355577
C 7.989219 0.573687 7.382625
C 0.003742 1.733624 6.556753
C 0.504384 2.602550 6.528636
C 0.501425 3.163118 7.338177
C 0.000586 2.289624 7.336831
C 1.006442 1.752177 6.525834
C 1.506542 2.569762 6.541484
C 1.504223 3.197666 7.340806
C 1.018063 2.300147 7.348186
C 1.997886 1.720838 6.551509
C 2.518411 2.605029 6.539300
C 2.486554 3.188354 7.364838
C 1.988554 2.336065 7.347043
C 3.013958 1.716716 6.548527
C 3.498017 2.590359 6.544286
C 3.475190 3.178283 7.355549
C 2.999852 2.322906 7.336066
C 3.996474 1.728077 6.521887
C 4.481723 2.607782 6.518959
C 4.489509 3.177341 7.361211
C 3.992739 2.328444 7.334573
C 4.995782 1.737480 6.532549
C 5.488096 2.565778 6.518053
C 5.518271 3.159011 7.359153
C 5.003129 2.324424 7.325613
C 6.008536 1.736920 6.559440
C 6.483470 2.579005 6.556103
C 6.496361 3.154693 7.325007
C 6.011241 2.338346 7.360636
C 7.017095 1.725415 6.548260
C 7.478427 2.586138 6.530157
C 7.508367 3.182900 7.340225
C 6.976585 2.302640 7.338537
C 8.029007 1.716783 6.531326
C 8.528687 2.592855 6.533784
C 8.468335 3.169165 7.360137
C 8.011248 2.286052 7.370394
C 0.001788 3.486093 6.551499
C 0.490919 4.325918 6.512572
C 0.520408 4.917540 7.367183
C 0.027172 4.064949 7.368165
C 0.999408 3.482075 6.522488
C 1.499472 4.315413 6.519752
C 1.527539 4.907866 7.376659
C 0.984273 4.026167 7.348973
C 2.002638 3.486240 6.541708
C 2.485380 4.331760 6.533279
C 2.506685 4.900804 7.332223
C 1.981625 4.065873 7.345430
C 3.002374 3.475063 6.541675
C 3.509733 4.323559 6.513862
C 3.510486 4.917684 7.339527
C 3.010749 4.024515 7.355427
C 3.997655 3.469641 6.503401
C 4.525343 4.328757 6.556398
C 4.476377 4.916314 7.352053
C 4.014518 4.057512 7.367045
C 5.000835 3.451007 6.548561
C 5.502698 4.338410 6.533076
C 5.509744 4.925645 7.343812
C 5.003177 4.009121 7.354688
C 6.012198 3.480692 6.553709
C 6.482783 4.338595 6.525999
C 6.513248 4.919024 7.352892
C 5.995476 4.026549 7.370810
C 6.992387 3.466784 6.536989
C 7.518295 4.311062 6.536021
C 7.487247 4.947267 7.350622
C 7.001803 4.022732 7.324963
C 7.986000 3.450418 6.518652
C 8.508537 4.343775 6.524456
C 8.484704 4.917318 7.348521
C 8.022785 4.038755 7.330746
C 0.026498 5.211179 6.512430
C 0.495576 6.045734 6.514018
C 0.523275 6.639042 7.363405
C 0.003963 5.775044 7.326896
C 0.981658 5.189566 6.506956
C 1.508641 6.078465 6.552889
C 1.524575 6.623200 7.352507
C 1.010110 5.788613 7.339368
C 1.993044 5.213568 6.544065
C 2.505387 6.053913 6.525209
C 2.508115 6.606400 7.350142
C 2.014103 5.770915 7.329134
C 2.997990 5.172677 6.518113
C 3.495530 6.069959 6.534380
C 3.519700 6.641246 7.347055
C 3.007141 5.783790 7.323774
C 3.997981 5.204783 6.553246
C 4.474656 6.078361 6.529345
C 4.482269 6.644806 7.329245
C 3.982814 5.758662 7.330157
C 5.022769 5.185577 6.522912
C 5.488414 6.079717 6.516825
C 5.492587 6.632441 7.376355
C 5.018577 5.765323 7.335198
C 6.008358 5.222513 6.533341
C 6.494247 6.057726 6.554580
C 6.496986 6.626900 7.367096
C 5.986891 5.773446 7.346417
C 6.989180 5.198726 6.509104
C 7.486984 6.039717 6.539544
C 7.476628 6.647641 7.350159
C 6.991537 5.804362 7.341469
C 7.993383 5.194457 6.515455
C 8.491019 6.030147 6.541387
C 8.524418 6.642910 7.359208
C 7.983131 5.762257 7.333885
C 0.012274 6.897158 6.542820
C 0.505151 7.780137 6.514812
C 0.491881 8.359909 7.342796
C 0.000581 7.479056 7.350930
C 1.023710 6.911971 6.540884
C 1.494289 7.803033 6.534438
C 1.521162 8.383956 7.359433
C 1.007034 7.518747 7.319188
C 1.990848 6.924843 6.510679
C 2.474262 7.787619 6.510992
C 2.503110 8.383613 7.361845
C 1.977034 7.498048 7.322900
C 3.011356 6.933054 6.527815
C 3.513084 7.759292 6.538215
C 3.477448 8.376883 7.360181
C 3.012274 7.495063 7.334668
C 3.992938 6.933589 6.527751
C 4.490245 7.799606 6.527741
C 4.506573 8.360845 7.354341
C 3.974314 7.505358 7.345662
C 4.967708 6.930502 6.528184
C 5.514100 7.777332 6.561471
C 5.477589 8.382487 7.358328
C 5.003340 7.515980 7.359708
C 5.994383 6.955578 6.555239
C 6.501783 7.815695 6.544858
C 6.484979 8.355877 7.358140
C 6.018401 7.520351 7.337529
C 7.009647 6.924179 6.551209
C 7.473745 7.810459 6.530382
C 7.504225 8.355861 7.341021
C 6.990787 7.534221 7.357510
C 7.984308 6.925216 6.515451
C 8.490032 7.826855 6.519923
C 8.479600 8.366269 7.355630
C 8.014378 7.503257 7.363623
C 0.009388 0.012854 8.118709
C 0.499830 0.878361 8.153766
C 0.505673 1.426494 8.968191
C 0.007463 0.581800 8.955793
C 1.015655 0.031031 8.147617
C 1.497325 0.873860 8.145898
C 1.514673 1.467876 8.974871
C 1.018167 0.585934 9.004328
C 1.977371 0.003190 8.169818
C 2.484489 0.859932 8.143611
C 2.516175 1.429361 8.988109
C 1.989767 0.602420 8.985252
C 2.999067 0.017867 8.158794
C 3.512496 0.871534 8.179149
C 3.472484 1.447200 8.985055
C 3.010248 0.591934 8.959504
C 3.999723 0.001073 8.147554
C 4.527412 0.850105 8.139768
C 4.470235 1.431630 8.988684
C 4.006483 0.577140 9.011865
C 5.019182 0.015152 8.128085
C 5.498567 0.876037 8.195144
C 5.481260 1.457261 8.988734
C 4.994468 0.575511 8.980863
C 6.001334 0.005778 8.150696
C 6.498328 0.863157 8.131459
C 6.506402 1.433042 8.968178
C 5.989723 0.584620 9.003707
C 7.013596 0.001247 8.143572
C 7.504346 0.865911 8.192589
C 7.504090 1.467268 8.965894
C 7.016619 0.601203 8.983205
C 8.017363 0.023051 8.162950
C 8.509737 0.884932 8.175338
C 8.489987 1.435271 9.003515
C 8.023608 0.573996 9.001902
C 0.034246 1.752787 8.158659
C 0.494466 2.607523 8.191608
C 0.485806 3.189711 8.968879
C 0.034554 2.296808 8.972063
C 0.979808 1.711136 8.160949
C 1.509054 2.608021 8.195671
C 1.495415 3.178498 9.005505
C 1.019080 2.315798 9.000064
C 2.000738 1.732603 8.151960
C 2.500295 2.617536 8.183965
C 2.498039 3.170508 8.948608
C 1.980506 2.315646 8.965472
C 2.985436 1.734892 8.172165
C 3.490369 2.575175 8.177158
C 3.473006 3.175673 9.001061
C 3.011559 2.335247 8.979150
C 3.980858 1.744101 8.189241
C 4.487684 2.596340 8.184074
C 4.495980 3.183907 9.002160
C 3.978135 2.314502 8.994475
C 5.009116 1.708121 8.171154
C 5.500453 2.596725 8.188577
C 5.504037 3.184311 8.965954
C 4.994527 2.304032 8.993621
C 5.984143 1.738268 8.186945
C 6.506227 2.572764 8.175740
C 6.477956 3.173892 8.972630
C 6.020179 2.303582 8.987835
C 7.019210 1.714400 8.158895
C 7.490057 2.609404 8.180102
C 7.506042 3.199557 8.982579
C 6.982232 2.306834 9.002295
C 7.992838 1.704155 8.185976
C 8.504500 2.578639 8.169291
C 8.503859 3.194370 8.984756
C 8.013643 2.327901 9.002139
C 0.008778 3.468389 8.180715
C 0.507612 4.331211 8.129440
C 0.491313 4.915800 8.999085
C 0.003218 4.064188 8.998476
C 1.005147 3.460004 8.178592
C 1.519675 4.312586 8.163612
C 1.516332 4.898380 8.960373
C 0.986843 4.036821 8.978027
C 1.980767 3.448353 8.174769
C 2.521936 4.341621 8.169446
C 2.476703 4.914240 8.995736
C 2.013467 4.060444 8.982456
C 3.018305 3.465709 8.153507
C 3.486753 4.328863 8.179372
C 3.512557 4.918493 8.987655
C 2.994628 4.024930 8.988502
C 4.025226 3.475047 8.169271
C 4.509481 4.334211 8.143161
C 4.510360 4.924477 8.967241
C 3.991261 4.054761 8.974950
C 4.987736 3.463401 8.183457
C 5.483733 4.326144 8.154416
C 5.499100 4.935018 8.992269
C 5.006940 4.047054 8.991922
C 6.001560 3.457772 8.167788
C 6.502668 4.347103 8.182246
C 6.525784 4.913369 8.966177
C 5.988392 4.036200 8.963293
C 7.002042 3.466416 8.149570
C 7.495949 4.311281 8.155666
C 7.501777 4.926670 8.956223
C 7.002236 4.018758 8.975475
C 7.982842 3.479865 8.157005
C 8.502276 4.345488 8.169393
C 8.482388 4.915224 8.979661
C 7.997308 4.034958 8.982768
C 0.004396 5.201987 8.189262
C 0.529081 6.077737 8.164912
C 0.478568 6.608957 8.981689
C 0.029895 5.798642 8.985654
C 1.001021 5.180958 8.141981
C 1.509983 6.066916 8.168100
C 1.475502 6.636028 8.969166
C 1.016449 5.776621 8.960998
C 2.017158 5.186371 8.161405
C 2.481312 6.067228 8.151692
C 2.488982 6.635709 8.967569
C 1.980587 5.780648 8.966957
C 3.016543 5.194770 8.147892
C 3.476613 6.052572 8.155896
C 3.494767 6.635173 8.988145
C 3.011806 5.757519 8.985367
C 3.994766 5.185108 8.142627
C 4.494186 6.059763 8.155217
C 4.521803 6.639095 8.984902
C 3.999931 5.737098 8.988374
C 5.001702 5.201646 8.148350
C 5.493593 6.044936 8.164448
C 5.472679 6.658593 8.969974
C 5.005680 5.751849 8.995446
C 5.990376 5.174806 8.178952
C 6.494309 6.089278 8.173661
C 6.524245 6.644668 9.000842
C 6.006790 5.794151 8.999411
C 6.999093 5.204894 8.192534
C 7.503566 6.036189 8.179737
C 7.490062 6.645639 8.983705
C 7.015231 5.776823 8.994733
C 7.998732 5.181239 8.147197
C 8.522929 6.046160 8.172500
C 8.479546 6.633096 8.976291
C 7.985248 5.767181 8.980161
C 0.002331 6.940821 8.141891
C 0.502911 7.779954 8.155033
C 0.505003 8.370602 8.965688
C 0.014498 7.491911 9.005061
C 0.995819 6.920516 8.156314
C 1.494668 7.790631 8.140383
C 1.500214 8.369952 8.986548
C 1.010403 7.517629 8.959561
C 1.975336 6.912869 8.152808
C 2.505655 7.822405 8.155479
C 2.516072 8.362039 8.962579
C 1.981457 7.499444 8.976484
C 3.036318 6.918418 8.152188
C 3.492428 7.821547 8.169943
C 3.486642 8.384713 8.973455
C 3.005061 7.524923 8.986645
C 4.009396 6.904761 8.184968
C 4.509391 7.784505 8.143220
C 4.480444 8.379874 8.967519
C 3.979745 7.510156 8.962450
C 5.021802 6.927785 8.163998
C 5.484632 7.776181 8.192700
C 5.481148 8.374506 8.972325
C 4.987624 7.508586 8.974950
C 5.993836 6.933341 8.170497
C 6.534794 7.788420 8.174865
C 6.459333 8.368754 8.986133
C 6.023053 7.502964 9.003970
C 6.997364 6.931327 8.173736
C 7.500247 7.809150 8.179171
C 7.521230 8.380023 9.006682
C 7.008075 7.496285 8.960410
C 7.990379 6.906049 8.174428
C 8.521120 7.796246 8.185189
C 8.500863 8.351549 9.002276
C 7.990845 7.533603 9.009712
C 0.014933 0.019566 0.629814
C 0.510224 0.877107 0.616467
C 0.518329 1.453691 1.416298
C 0.001462 0.584199 1.450941
C 1.005053 0.032757 0.582408
C 1.502737 0.857428 0.617456
C 1.500400 1.462181 1.455447
C 0.979905 0.599096 1.443629
C 2.003343 0.031838 0.593099
C 2.513413 0.853009 0.623615
C 2.487236 1.440608 1.423522
C 2.005827 0.600521 1.427848
C 2.985463 0.003485 0.614171
C 3.509642 0.851469 0.608232
C 3.522106 1.454664 1.425990
C 3.010073 0.578850 1.453462
C 4.005917 0.029495 0.598610
C 4.490120 0.848336 0.602735
C 4.480650 1.445750 1.438645
C 3.976890 0.582004 1.441753
C 5.006619 0.004097 0.630347
C 5.520087 0.871193 0.623575
C 5.502148 1.447410 1.406081
C 5.011012 0.576548 1.411381
C 5.994785 0.010244 0.635573
C 6.512675 0.883252 0.630517
C 6.465377 1.449145 1.435364
C 5.982432 0.554275 1.425486
C 7.007026 0.003936 0.647649
C 7.522787 0.851684 0.628729
C 7.474635 1.436445 1.425616
C 7.007337 0.596477 1.410927
C 7.965867 0.015618 0.631842
C 8.503993 0.873900 0.607884
C 8.487409 1.442387 1.450590
C 7.981536 0.575572 1.405717
C 0.008515 1.751548 0.608005
C 0.499298 2.624496 0.595919
C 0.473022 3.161536 1.400425
C 0.036458 2.330840 1.430134
C 0.987395 1.726281 0.584721
C 1.518442 2.608833 0.611619
C 1.486298 3.160624 1.441111
C 0.980047 2.289696 1.420288
C 1.988640 1.730775 0.605704
C 2.500007 2.581775 0.604742
C 2.485551 3.178154 1.415604
C 1.988767 2.280386 1.415330
C 3.020149 1.747961 0.599323
C 3.500692 2.595130 0.611890
C 3.516252 3.189011 1.434888
C 2.985008 2.326746 1.421176
C 3.982249 1.755750 0.621178
C 4.523205 2.595380 0.602330
C 4.493866 3.170221 1.434564
C 3.995521 2.311244 1.425174
C 5.015790 1.718600 0.622516
C 5.481214 2.591051 0.627325
C 5.511770 3.194549 1.436353
C 4.979328 2.317940 1.429473
C 6.001229 1.716121 0.597574
C 6.478602 2.601254 0.601579
C 6.508108 3.183613 1.451124
C 6.017387 2.329007 1.415482
C 7.001402 1.732814 0.637435
C 7.517194 2.610146 0.621745
C 7.467691 3.162283 1.422709
C 6.980689 2.284193 1.426832
C 8.006526 1.748199 0.618171
C 8.507568 2.625368 0.612109
C 8.475904 3.171910 1.426043
C 8.008288 2.313987 1.413963
C 0.024864 3.474218 0.598965
C 0.505094 4.336793 0.638426
C 0.478886 4.907868 1.461708
C 0.025290 4.033591 1.464596
C 0.990665 3.476089 0.633464
C 1.495455 4.344594 0.600110
C 1.494670 4.885304 1.444079
C 1.008505 4.032178 1.446708
C 1.963994 3.462427 0.618930
C 2.476196 4.338664 0.622549
C 2.481786 4.910250 1.428720
C 1.992480 4.046805 1.447219
C 2.992663 3.449323 0.608290
C 3.486357 4.333468 0.619452
C 3.504849 4.885701 1.422443
C 2.985089 4.047535 1.446223
C 4.010759 3.470451 0.591912
C 4.479396 4.338604 0.603046
C 4.492100 4.927325 1.424757
C 4.019143 4.032047 1.425782
C 5.005076 3.448547 0.639127
C 5.494631 4.351210 0.618845
C 5.502648 4.923012 1.423983
C 4.976917 4.056221 1.443269
C 5.986527 3.474931 0.615261
C 6.514196 4.329624 0.601272
C 6.511331 4.886440 1.413586
C 5.999979 4.046326 1.415625
C 6.997983 3.448707 0.621145
C 7.494315 4.340326 0.605901
C 7.511375 4.905683 1.424481
C 6.995970 4.055696 1.422675
C 7.978595 3.462350 0.615661
C 8.493305 4.308971 0.617519
C 8.497805 4.905884 1.409884
C 8.028867 4.042937 1.444545
C 0.014442 5.198182 0.614005
C 0.488152 6.049018 0.599579
C 0.497166 6.673174 1.435756
C 0.010107 5.748340 1.422526
C 0.991417 5.188063 0.587673
C 1.514225 6.039918 0.613144
C 1.477217 6.623970 1.436844
C 0.991971 5.762290 1.431237
C 2.023068 5.190142 0.610399
C 2.498399 6.072246 0.596302
C 2.478768 6.625011 1.445327
C 1.980790 5.770306 1.425446
C 3.005166 5.201768 0.607252
C 3.500150 6.084250 0.628697
C 3.499745 6.659615 1.417055
C 3.017433 5.799011 1.436385
C 4.013807 5.206404 0.580113
C 4.489059 6.065446 0.586649
C 4.507663 6.620506 1.423427
C 4.023907 5.754611 1.438641
C 4.996933 5.156971 0.609904
C 5.487596 6.070141 0.595314
C 5.519158 6.643342 1.431526
C 4.983301 5.801213 1.417227
C 5.997810 5.209607 0.604183
C 6.482213 6.054845 0.610315
C 6.508765 6.650453 1.427715
C 6.022059 5.785552 1.430798
C 7.011678 5.195748 0.601095
C 7.492379 6.079982 0.593611
C 7.487155 6.633133 1.429855
C 6.994826 5.784763 1.445707
C 8.005589 5.190524 0.618156
C 8.487754 6.056915 0.602033
C 8.484730 6.625398 1.415143
C 7.988004 5.769475 1.400628
C 0.010818 6.944254 0.629768
C 0.513961 7.811384 0.620211
C 0.475015 8.361751 1.418743
C 0.003100 7.499215 1.433299
C 0.980381 6.921900 0.599229
C 1.500523 7.790175 0.608929
C 1.497910 8.382334 1.458579
C 0.982913 7.484785 1.434581
C 2.023842 6.931099 0.619808
C 2.518438 7.789615 0.635032
C 2.506132 8.383611 1.415717
C 1.988805 7.531158 1.416098
C 2.988658 6.943076 0.603019
C 3.506129 7.794314 0.637497
C 3.476553 8.376286 1.444493
C 2.988927 7.530294 1.446176
C 3.993542 6.944176 0.617866
C 4.517124 7.767202 0.621599
C 4.493940 8.344034 1.445596
C 3.986096 7.492521 1.427846
C 5.001706 6.951195 0.614092
C 5.504655 7.776435 0.617252
C 5.488185 8.367256 1.421151
C 5.003263 7.495958 1.432918
C 6.006882 6.952941 0.614060
C 6.488662 7.811665 0.601395
C 6.491318 8.391627 1.433583
C 5.985391 7.514564 1.445843
C 7.003826 6.918341 0.616833
C 7.506845 7.773426 0.609284
C 7.502395 8.373749 1.413182
C 7.002292 7.500375 1.421025
C 8.030285 6.939793 0.601361
C 8.487512 7.799402 0.625031
C 8.473581 8.371171 1.420733
C 8.024660 7.491772 1.409388
C 0.026787 0.024515 2.243039
C 0.490726 0.871724 2.260063
C 0.495019 1.425306 3.057634
C 0.008486 0.567380 3.105539
C 0.974981 0.004426 2.255709
C 1.497776 0.896696 2.247452
C 1.496699 1.454285 3.092343
C 0.994522 0.575671 3.036646
C 1.981999 0.007767 2.257007
C 2.490824 0.865453 2.251229
C 2.510646 1.435572 3.053749
C 1.977516 0.557850 3.052679
C 3.008331 0.016307 2.262014
C 3.487609 0.880144 2.243106
C 3.480677 1.434600 3.083105
C 2.985166 0.562309 3.054282
C 3.963973 0.000580 2.254476
C 4.509508 0.904424 2.242263
C 4.498934 1.445707 3.034857
C 3.980677 0.569348 3.059297
C 5.001418 0.000667 2.219203
C 5.477354 0.860877 2.231119
C 5.523055 1.442835 3.044052
C 4.995980 0.569305 3.041790
C 5.978215 0.004320 2.265581
C 6.491669 0.857136 2.252236
C 6.519847 1.439027 3.066675
C 6.003736 0.581181 3.077056
C 7.010066 0.013511 2.222883
C 7.487883 0.868961 2.242674
C 7.496098 1.450473 3.033233
C 6.999935 0.600292 3.061231
C 8.020336 0.008394 2.212074
C 8.493457 0.876991 2.259911
C 8.508293 1.461904 3.089543
C 7.999339 0.557013 3.069751
C 0.000439 1.747091 2.230270
C 0.488015 2.603711 2.251436
C 0.518542 3.164437 3.074405
C 0.030442 2.317047 3.085406
C 0.987187 1.744654 2.232978
C 1.477201 2.591098 2.253623
C 1.496989 3.168125 3.044513
C 1.033248 2.307831 3.060405
C 2.019224 1.738404 2.256701
C 2.503357 2.616486 2.261648
C 2.513716 3.150876 3.070195
C 2.018917 2.305962 3.063243
C 3.005209 1.737225 2.240991
C 3.483684 2.597924 2.246138
C 3.492338 3.159489 3.066827
C 2.991694 2.316071 3.071020
C 3.996708 1.711712 2.260804
C 4.524463 2.607102 2.255990
C 4.513901 3.173851 3.080920
C 3.986902 2.297052 3.049082
C 5.006505 1.704833 2.241036
C 5.476926 2.596712 2.235216
C 5.520400 3.150661 3.048989
C 4.966243 2.326131 3.051841
C 5.990250 1.752201 2.247167
C 6.489777 2.594212 2.255195
C 6.474128 3.175163 3.042928
C 6.015575 2.291652 3.073314
C 6.988113 1.734318 2.250414
C 7.508535 2.617060 2.268632
C 7.493470 3.153565 3.077628
C 7.015748 2.301985 3.087669
C 8.008871 1.743688 2.241403
C 8.506362 2.580233 2.248539
C 8.515240 3.171171 3.049859
C 7.974763 2.309743 3.078718
C 0.023599 3.466601 2.241904
C 0.523020 4.317053 2.225428
C 0.475747 4.903762 3.041458
C 0.016776 4.051134 3.092996
C 0.990839 3.474007 2.252917
C 1.492911 4.313073 2.261733
C 1.493382 4.902783 3.044995
C 1.012175 4.043661 3.060483
C 1.982783 3.468079 2.257214
C 2.483489 4.321022 2.238545
C 2.506102 4.909903 3.069512
C 1.998418 4.027998 3.053043
C 3.002151 3.486474 2.239148
C 3.528187 4.308187 2.249487
C 3.490228 4.889013 3.064604
C 3.000148 4.043240 3.054271
C 3.995936 3.466619 2.227445
C 4.491638 4.340358 2.256451
C 4.477442 4.907160 3.037127
C 4.019818 4.046000 3.076320
C 5.018956 3.464940 2.253351
C 5.492609 4.329055 2.237190
C 5.529223 4.906690 3.063850
C 4.991199 4.028474 3.058358
C 6.005821 3.456997 2.219940
C 6.475544 4.329939 2.251092
C 6.491814 4.898087 3.082738
C 6.005552 4.026809 3.075746
C 6.983859 3.469602 2.235267
C 7.501348 4.305125 2.256312
C 7.486251 4.906185 3.030057
C 6.974251 4.037540 3.069711
C 7.978003 3.468742 2.234682
C 8.483750 4.337781 2.227981
C 8.518063 4.918650 3.076940
C 7.998602 4.054603 3.056323
C 0.006860 5.213696 2.239898
C 0.501277 6.081303 2.256847
C 0.490624 6.644144 3.064784
C 0.005391 5.755031 3.059688
C 0.997553 5.208282 2.225116
C 1.507744 6.077234 2.273289
C 1.523445 6.629298 3.065455
C 0.983251 5.770235 3.057448
C 2.002723 5.202838 2.209444
C 2.490751 6.084039 2.262587
C 2.513252 6.648896 3.034192
C 1.986095 5.749044 3.071707
C 2.985150 5.178523 2.278123
C 3.500476 6.063810 2.234908
C 3.489982 6.645959 3.049596
C 2.995924 5.751085 3.048273
C 4.014799 5.180057 2.242520
C 4.513496 6.059419 2.235977
C 4.490665 6.628597 3.056630
C 4.027576 5.796209 3.055522
C 5.010802 5.204177 2.223618
C 5.465855 6.056126 2.257921
C 5.515412 6.645046 3.061808
C 4.983532 5.778766 3.054197
C 5.977425 5.194844 2.240975
C 6.527015 6.067676 2.247018
C 6.502117 6.628253 3.058906
C 5.979619 5.784697 3.061009
C 7.013225 5.195750 2.240483
C 7.495809 6.062670 2.218658
C 7.499890 6.631399 3.087617
C 7.006046 5.767919 3.034532
C 8.013640 5.175441 2.225156
C 8.505238 6.061643 2.231874
C 8.474195 6.629684 3.065864
C 7.993229 5.776956 3.033311
C 0.020482 6.907897 2.228228
C 0.494979 7.813241 2.275266
C 0.502064 8.368194 3.089408
C 0.017866 7.500448 3.074322
C 0.982862 6.931553 2.230879
C 1.478406 7.773845 2.243924
C 1.488972 8.398803 3.060131
C 0.998125 7.520997 3.061611
C 1.990914 6.914428 2.251157
C 2.492178 7.780472 2.222842
C 2.518783 8.384781 3.055048
C 1.992519 7.492792 3.038343
C 2.997656 6.907214 2.263134
C 3.516420 7.789995 2.215096
C 3.497192 8.393937 3.057039
C 2.991121 7.503609 3.058130
C 4.008960 6.944373 2.259452
C 4.518317 7.804819 2.242459
C 4.494846 8.346932 3.055465
C 3.994631 7.497056 3.032679
C 4.988355 6.936298 2.236164
C 5.466893 7.798504 2.237524
C 5.524324 8.376708 3.051734
C 5.011152 7.525971 3.037328
C 6.004249 6.929383 2.256601
C 6.509801 7.802937 2.277668
C 6.484430 8.366465 3.059611
C 6.021455 7.523741 3.060817
C 6.988582 6.929625 2.240361
C 7.491853 7.803436 2.237428
C 7.533095 8.364701 3.067679
C 6.970336 7.499251 3.058972
C 7.999478 6.937870 2.264782
C 8.494189 7.807846 2.232087
C 8.486228 8.354596 3.071567
C 8.025454 7.516975 3.053119
C 0.006817 0.001362 3.861110
C 0.502652 0.896134 3.889057
C 0.494887 1.443672 4.699600
C 0.009325 0.558148 4.725760
C 0.980434 0.009069 3.856544
C 1.499430 0.845290 3.869158
C 1.484125 1.460664 4.721515
C 0.980046 0.585353 4.699727
C 1.990394 0.001016 3.878589
C 2.491535 0.859717 3.908340
C 2.512242 1.441230 4.666828
C 1.996041 0.576611 4.666876
C 3.016931 0.002496 3.901103
C 3.477208 0.865563 3.874938
C 3.493901 1.435018 4.683756
C 2.979491 0.587204 4.686513
C 3.993526 0.019678 3.858049
C 4.494111 0.888870 3.882763
C 4.513582 1.420988 4.688229
C 4.005976 0.590664 4.679718
C 4.996633 0.001457 3.860462
C 5.517388 0.863966 3.873539
C 5.473494 1.457574 4.714643
C 4.993722 0.586632 4.723618
C 6.029561 0.001967 3.855406
C 6.484002 0.850219 3.880722
C 6.522298 1.446202 4.700366
C 5.993979 0.565719 4.717184
C 7.026202 0.005408 3.864403
C 7.506946 0.886078 3.858778
C 7.526635 1.463319 4.695284
C 7.019378 0.587460 4.690001
C 8.018218 0.034055 3.868544
C 8.504951 0.862888 3.870520
C 8.479811 1.427168 4.686864
C 7.994063 0.583529 4.674763
C 0.015041 1.758554 3.886394
C 0.486042 2.600982 3.881433
C 0.486400 3.174758 4.705715
C 0.016889 2.331153 4.674000
C 0.979807 1.730480 3.909011
C 1.493113 2.576816 3.852517
C 1.507830 3.154758 4.708905
C 0.997303 2.327416 4.709729
C 2.005173 1.740981 3.877179
C 2.489074 2.587707 3.898607
C 2.480389 3.191819 4.681613
C 2.004374 2.305475 4.671195
C 3.014778 1.731713 3.913092
C 3.488937 2.598817 3.892645
C 3.501108 3.192342 4.685979
C 2.991565 2.317855 4.712455
C 4.017950 1.724171 3.864995
C 4.481125 2.585734 3.899211
C 4.503719 3.163832 4.725499
C 3.990894 2.307616 4.707542
C 5.001130 1.753937 3.897719
C 5.492216 2.567905 3.868773
C 5.505600 3.161345 4.701264
C 4.988970 2.302072 4.701065
C 6.009441 1.751077 3.876078
C 6.521036 2.599532 3.874342
C 6.504033 3.203178 4.709075
C 6.019703 2.316896 4.694182
C 7.009962 1.740732 3.854435
C 7.488271 2.622573 3.891539
C 7.493581 3.181417 4.693455
C 7.008468 2.318365 4.687132
C 7.991987 1.737528 3.856119
C 8.492555 2.588232 3.880225
C 8.494285 3.158695 4.699051
C 8.004906 2.327590 4.686760
C 0.010715 3.463478 3.905197
C 0.511570 4.353176 3.884112
C 0.526662 4.913626 4.689078
C 0.020407 4.052226 4.681409
C 0.988707 3.481678 3.872572
C 1.501298 4.350003 3.878404
C 1.470206 4.903882 4.697676
C 1.011907 4.019977 4.700535
C 2.028319 3.480500 3.876575
C 2.496105 4.343363 3.861091
C 2.512618 4.906043 4.685293
C 1.989858 4.019319 4.715691
C 2.994747 3.462626 3.868176
C 3.490380 4.313165 3.875485
C 3.500735 4.904160 4.699407
C 3.015668 4.036879 4.692099
C 3.984502 3.459548 3.844139
C 4.491655 4.348038 3.862442
C 4.504623 4.917163 4.709072
C 4.017507 4.052721 4.708301
C 5.009067 3.478077 3.898355
C 5.520146 4.322726 3.878933
C 5.492135 4.925897 4.678077
C 5.001199 4.042376 4.671770
C 5.997140 3.450841 3.890805
C 6.499084 4.308501 3.884885
C 6.480406 4.899744 4.658780
C 6.013851 4.044824 4.721986
C 6.985016 3.468193 3.869161
C 7.484129 4.322124 3.889730
C 7.488038 4.916298 4.703711
C 7.020966 4.039483 4.700651
C 8.008785 3.485165 3.864773
C 8.517338 4.310329 3.907297
C 8.506733 4.900947 4.713405
C 7.996041 4.053225 4.708142
C 0.010158 5.178302 3.886594
C 0.507224 6.053226 3.895028
C 0.503742 6.671891 4.674355
C 0.003336 5.768787 4.711288
C 0.975864 5.174838 3.868295
C 1.496245 6.087659 3.867694
C 1.506619 6.636630 4.703886
C 1.005224 5.799697 4.665959
C 1.976895 5.188466 3.880921
C 2.478796 6.078199 3.880170
C 2.511378 6.653203 4.709773
C 1.995554 5.770815 4.727275
C 3.006439 5.198449 3.880473
C 3.487315 6.068374 3.898732
C 3.493122 6.620007 4.686485
C 2.996461 5.752698 4.686217
C 3.987169 5.195427 3.858859
C 4.501261 6.052580 3.894739
C 4.474823 6.625712 4.702248
C 4.012953 5.755592 4.694408
C 5.023839 5.197222 3.882323
C 5.508820 6.051726 3.866106
C 5.482862 6.624622 4.695084
C 5.015636 5.781912 4.687182
C 6.002899 5.222343 3.868057
C 6.527521 6.051140 3.869616
C 6.494162 6.660338 4.685409
C 5.994354 5.758290 4.665367
C 7.002350 5.206681 3.903886
C 7.506075 6.047409 3.896627
C 7.486380 6.641558 4.686250
C 6.986721 5.752066 4.676219
C 8.003123 5.203569 3.865984
C 8.487211 6.081061 3.893297
C 8.490315 6.657346 4.708845
C 8.016381 5.784633 4.679482
C 0.006307 6.938389 3.888441
C 0.523086 7.794280 3.866074
C 0.490402 8.359452 4.721195
C 0.003153 7.507284 4.684107
C 0.977319 6.913929 3.872464
C 1.520730 7.809343 3.873887
C 1.484101 8.358171 4.688299
C 1.011790 7.512930 4.691441
C 1.986782 6.934492 3.863502
C 2.497183 7.805178 3.863596
C 2.491705 8.349129 4.723819
C 1.993052 7.500948 4.684764
C 3.013973 6.909802 3.865941
C 3.495898 7.822766 3.867610
C 3.522234 8.359733 4.706371
C 3.010366 7.525431 4.687738
C 4.011381 6.924825 3.858663
C 4.521210 7.783796 3.870444
C 4.489060 8.377646 4.697375
C 3.976708 7.508800 4.691709
C 4.978280 6.919495 3.869677
C 5.494597 7.818104 3.881106
C 5.486088 8.373707 4.700781
C 4.998881 7.524470 4.721457
C 6.002358 6.916688 3.897219
C 6.487167 7.788941 3.873218
C 6.510476 8.375986 4.710637
C 5.986164 7.485143 4.680054
C 6.972553 6.924828 3.885220
C 7.508726 7.801040 3.910989
C 7.513169 8.363120 4.688700
C 6.997056 7.493601 4.720163
C 7.984640 6.949198 3.877876
C 8.510475 7.775772 3.860903
C 8.490889 8.369535 4.672599
C 7.992560 7.479889 4.687905
C 0.003890 0.037092 5.514526
C 0.505580 0.883368 5.508893
C 0.499062 1.464466 6.318645
C 0.001761 0.570469 6.299504
C 1.031069 0.026667 5.499433
C 1.526228 0.855208 5.503411
C 1.515041 1.462558 6.335474
C 1.010935 0.562607 6.323672
C 2.009852 0.019461 5.521311
C 2.492202 0.857862 5.520639
C 2.515675 1.454151 6.317960
C 1.998773 0.608381 6.319561
C 3.017353 0.002900 5.514001
C 3.508235 0.893408 5.519699
C 3.496625 1.447805 6.338167
C 2.991990 0.575958 6.320692
C 3.993586 0.007058 5.484064
C 4.514425 0.884918 5.537290
C 4.493451 1.443751 6.327933
C 3.984132 0.583293 6.317378
C 4.992664 0.016512 5.508802
C 5.531518 0.880324 5.505380
C 5.502722 1.471248 6.329232
C 5.007310 0.600969 6.316085
C 5.971043 0.003866 5.501428
C 6.480016 0.868466 5.520271
C 6.499542 1.418591 6.310632
C 6.008410 0.575290 6.328333
C 7.019858 0.003470 5.516006
C 7.493467 0.888778 5.523332
C 7.485903 1.427092 6.326096
C 6.986704 0.555833 6.332429
C 7.984754 0.013551 5.519232
C 8.515523 0.855107 5.505413
C 8.515103 1.454072 6.336891
C 8.026767 0.584732 6.350815
C 0.005542 1.712020 5.510699
C 0.526050 2.601808 5.507809
C 0.487556 3.180821 6.318080
C 0.008902 2.309329 6.318098
C 1.019602 1.723415 5.518917
C 1.507476 2.617827 5.522198
C 1.507371 3.186666 6.298227
C 0.996385 2.293906 6.316220
C 1.989156 1.731287 5.492553
C 2.492105 2.601500 5.531613
C 2.512868 3.179699 6.340762
C 1.984876 2.298749 6.330038
C 3.008632 1.720830 5.537892
C 3.502592 2.632817 5.501406
C 3.490625 3.152406 6.328014
C 3.022989 2.318522 6.309451
C 3.989711 1.719480 5.511492
C 4.516168 2.621421 5.518934
C 4.505177 3.190693 6.333423
C 3.970901 2.311228 6.337240
C 4.977259 1.740311 5.508168
C 5.485979 2.592198 5.538613
C 5.500330 3.162225 6.346622
C 4.985872 2.308972 6.314297
C 5.988699 1.708915 5.484837
C 6.473731 2.589425 5.501171
C 6.476443 3.162445 6.316601
C 5.984771 2.296548 6.319874
C 7.020235 1.735693 5.498869
C 7.509672 2.584069 5.520255
C 7.498835 3.165387 6.329666
C 6.991552 2.298952 6.357494
C 7.973592 1.718187 5.518807
C 8.525842 2.612577 5.498941
C 8.483285 3.180715 6.353929
C 7.975920 2.314127 6.353532
C 0.020371 3.471461 5.528163
C 0.527143 4.330125 5.522649
C 0.504315 4.878974 6.328889
C 0.006418 4.051751 6.310082
C 0.992927 3.480260 5.517300
C 1.504594 4.313732 5.504127
C 1.489067 4.923245 6.298623
C 0.984558 4.049285 6.341919
C 1.978873 3.478660 5.523124
C 2.526040 4.323181 5.515986
C 2.510543 4.931684 6.316021
C 1.990535 4.031386 6.329633
C 3.007843 3.440995 5.503625
C 3.484577 4.313538 5.516400
C 3.494929 4.923734 6.322969
C 3.002453 4.037785 6.332312
C 3.989606 3.454860 5.512456
C 4.527848 4.317911 5.496882
C 4.491616 4.923375 6.322727
C 4.014643 4.059297 6.344148
C 4.976976 3.459257 5.496903
C 5.482629 4.306740 5.506342
C 5.505825 4.928113 6.308971
C 4.986280 4.034594 6.350866
C 5.991004 3.498063 5.517293
C 6.497351 4.351467 5.513842
C 6.522236 4.901100 6.331288
C 6.017293 4.054080 6.319860
C 6.993970 3.451707 5.531927
C 7.495412 4.341971 5.493052
C 7.487085 4.914509 6.348066
C 6.977357 4.009780 6.324370
C 8.011740 3.477896 5.520744
C 8.519101 4.342403 5.516429
C 8.478317 4.911382 6.344301
C 7.999210 4.032489 6.342625
C 0.003613 5.219800 5.510739
C 0.486903 6.063777 5.527435
C 0.471936 6.648294 6.315873
C 0.006527 5.801080 6.318526
C 1.006576 5.208323 5.508977
C 1.528070 6.080376 5.513752
C 1.506453 6.628670 6.325881
C 0.972152 5.763026 6.331356
C 2.010903 5.168854 5.512992
C 2.503189 6.075352 5.538769
C 2.521527 6.630234 6.320053
C 2.003445 5.777571 6.356283
C 3.013347 5.212649 5.505526
C 3.472933 6.085538 5.507293
C 3.514553 6.616423 6.338376
C 3.014067 5.789447 6.341970
C 4.026460 5.183025 5.500850
C 4.511395 6.039797 5.498437
C 4.502583 6.626482 6.345855
C 4.012175 5.784258 6.319405
C 4.993504 5.214895 5.517378
C 5.521943 6.081562 5.506857
C 5.490271 6.653100 6.329263
C 5.012592 5.748560 6.329162
C 6.008483 5.194087 5.500115
C 6.515533 6.044488 5.527527
C 6.508723 6.620881 6.329310
C 5.968328 5.764529 6.344323
C 6.992832 5.203907 5.543285
C 7.495874 6.051999 5.528702
C 7.477760 6.642600 6.346794
C 6.994660 5.792286 6.314996
C 7.983385 5.189139 5.513305
C 8.497699 6.062535 5.515029
C 8.490371 6.615774 6.325942
C 8.020768 5.787525 6.309828
C 0.006607 6.952516 5.512920
C 0.513994 7.819297 5.531461
C 0.515021 8.360646 6.314644
C 0.004298 7.512427 6.338707
C 0.998826 6.924143 5.524367
C 1.489312 7.807532 5.536503
C 1.524030 8.391309 6.345428
C 1.007252 7.480189 6.340435
C 2.003011 6.943032 5.536460
C 2.518115 7.787471 5.495543
C 2.517665 8.358578 6.327839
C 1.985601 7.501789 6.313763
C 2.973952 6.920878 5.486843
C 3.467310 7.790826 5.507437
C 3.513090 8.351504 6.309662
C 2.992626 7.486701 6.335460
C 3.999452 6.937456 5.485982
C 4.510624 7.793512 5.495409
C 4.496645 8.382824 6.350682
C 4.002644 7.510392 6.319417
C 4.993704 6.931874 5.508362
C 5.494926 7.776621 5.536718
C 5.485332 8.373038 6.338514
C 5.002651 7.493711 6.349730
C 6.013466 6.927442 5.483275
C 6.501650 7.797944 5.509048
C 6.510796 8.358844 6.328880
C 5.983498 7.502933 6.345929
C 7.002386 6.941175 5.499649
C 7.478279 7.783027 5.485874
C 7.501653 8.371161 6.336716
C 7.018977 7.506275 6.346623
C 7.994441 6.943886 5.527029
C 8.491051 7.773455 5.517464
C 8.521135 8.369678 6.320201
C 7.977536 7.508223 6.314260
C 0.018866 0.024638 7.156495
C 0.494753 0.838842 7.149914
C 0.485415 1.459288 7.954538
C 0.003734 0.571683 7.987442
C 1.008488 0.001955 7.161814
C 1.506176 0.867497 7.119310
C 1.512529 1.467615 7.942269
C 1.003303 0.585081 7.964324
C 2.019809 0.010423 7.152477
C 2.508044 0.852201 7.147502
C 2.510959 1.463831 7.954546
C 1.993902 0.589506 7.943779
C 2.994467 0.016655 7.134394
C 3.530092 0.879949 7.149270
C 3.499530 1.425336 7.927691
C 2.997152 0.590712 7.985911
C 4.001082 0.011454 7.121055
C 4.522113 0.878854 7.131028
C 4.487481 1.443668 7.973582
C 4.013662 0.557900 7.946477
C 4.997598 0.011986 7.153600
C 5.485653 0.897741 7.144819
C 5.486369 1.434987 7.939823
C 4.996419 0.561857 7.984509
C 6.024286 0.015114 7.144345
C 6.509693 0.873556 7.151079
C 6.476341 1.453754 7.954690
C 5.981757 0.559484 7.980837
C 7.018572 0.026529 7.130725
C 7.511890 0.872869 7.129283
C 7.503671 1.454456 7.943987
C 6.990508 0.569128 7.953122
C 7.998834 0.006229 7.142310
C 8.516492 0.876012 7.148771
C 8.487261 1.458936 7.946029
C 7.997434 0.597917 7.962862
C 0.026531 1.737064 7.157992
C 0.501993 2.576672 7.123731
C 0.493415 3.176971 7.971738
C 0.003797 2.317639 7.955141
C 0.996281 1.746499 7.132812
C 1.482872 2.618289 7.142332
C 1.475731 3.176989 7.951292
C 1.009855 2.343290 7.952260
C 1.978104 1.724415 7.140946
C 2.500651 2.614700 7.170668
C 2.482172 3.153908 7.971116
C 1.986853 2.317012 7.967579
C 3.002682 1.739771 7.127482
C 3.512859 2.568943 7.128957
C 3.511966 3.172708 7.954887
C 3.028865 2.296590 7.964982
C 3.996557 1.745169 7.154644
C 4.501920 2.618650 7.149069
C 4.489667 3.178557 7.977024
C 3.988251 2.307010 7.946812
C 5.004687 1.716078 7.145349
C 5.491824 2.606829 7.155581
C 5.485639 3.177775 7.945398
C 4.976194 2.305379 7.948487
C 5.969488 1.716691 7.125769
C 6.517275 2.591470 7.135749
C 6.476046 3.175222 7.943803
C 5.974072 2.309803 7.961620
C 7.026236 1.732558 7.135795
C 7.499199 2.614967 7.137888
C 7.486914 3.195907 7.945862
C 6.999910 2.339061 7.961561
C 7.978937 1.753217 7.157195
C 8.499107 2.594740 7.149553
C 8.482376 3.188374 7.956690
C 8.016393 2.324597 7.976890
C 0.013911 3.426336 7.144071
C 0.514346 4.324676 7.147599
C 0.510179 4.894673 7.974782
C 0.020789 4.060289 7.955961
C 0.997489 3.463878 7.128334
C 1.511312 4.335409 7.116159
C 1.487909 4.885513 7.961004
C 1.013628 4.033176 7.948424
C 2.014473 3.447049 7.143000
C 2.500964 4.329968 7.117796
C 2.506037 4.895671 7.984569
C 1.984584 4.041870 7.936433
C 3.018532 3.475847 7.146682
C 3.501381 4.360302 7.145314
C 3.498805 4.917009 7.988004
C 2.988760 4.049715 7.943017
C 3.995582 3.478395 7.145995
C 4.524095 4.323156 7.141208
C 4.506698 4.937907 7.981833
C 4.009422 4.065352 7.957289
C 4.991693 3.487017 7.131606
C 5.480144 4.324325 7.143916
C 5.495599 4.893094 7.971754
C 4.990543 4.031399 7.942363
C 6.025927 3.448431 7.127209
C 6.523468 4.317624 7.161074
C 6.512446 4.920522 7.996378
C 6.008053 4.065654 7.952509
C 6.993607 3.469103 7.155178
C 7.479596 4.339554 7.152465
C 7.482507 4.934955 7.974627
C 6.983819 4.016710 7.963300
C 7.997433 3.453594 7.149420
C 8.495144 4.352832 7.144711
C 8.487551 4.887908 7.933370
C 7.990357 4.049393 7.965129
C 0.006928 5.167070 7.141139
C 0.497625 6.068760 7.143303
C 0.508886 6.639111 7.981267
C 0.001851 5.782439 7.947152
C 0.990456 5.207449 7.159900
C 1.488069 6.069886 7.159639
C 1.485975 6.652673 7.969860
C 1.025857 5.781306 7.961962
C 2.030060 5.205949 7.152821
C 2.513974 6.042101 7.132570
C 2.512095 6.635335 7.969241
C 1.997770 5.791215 7.960344
C 2.987820 5.184676 7.165412
C 3.508387 6.057499 7.141545
C 3.503025 6.612545 7.968740
C 2.997293 5.757075 7.951765
C 3.998110 5.200209 7.162574
C 4.509515 6.060357 7.144793
C 4.532768 6.636849 7.962130
C 4.010868 5.758702 7.948146
C 5.003244 5.184537 7.136964
C 5.499720 6.049343 7.157124
C 5.511398 6.656946 7.976264
C 5.011900 5.763945 7.962024
C 5.986687 5.196328 7.134435
C 6.508609 6.039851 7.140924
C 6.520105 6.625542 7.953737
C 6.011140 5.788910 7.961276
C 6.990668 5.226238 7.144458
C 7.508916 6.048724 7.152105
C 7.482872 6.626151 7.937656
C 7.018433 5.792944 7.964505
C 8.004110 5.194850 7.138234
C 8.511202 6.034291 7.124991
C 8.500953 6.660294 7.950344
C 7.994234 5.786369 7.965845
C 0.005302 6.925130 7.145352
C 0.495115 7.807345 7.150028
C 0.511183 8.389075 7.952792
C 0.020200 7.506403 7.970855
C 0.995329 6.912361 7.150375
C 1.516209 7.798047 7.162592
C 1.496341 8.401424 7.968936
C 1.012339 7.528174 7.974817
C 1.982719 6.928491 7.172172
C 2.496955 7.808714 7.158262
C 2.528896 8.391543 7.940036
C 1.994816 7.481508 7.951650
C 2.997986 6.911516 7.120262
C 3.478558 7.792523 7.120770
C 3.522790 8.353826 7.951791
C 2.978143 7.513704 7.966501
C 3.998535 6.920869 7.169788
C 4.503014 7.805147 7.171314
C 4.500235 8.378722 7.950737
C 3.995319 7.504544 7.986044
C 5.005104 6.910583 7.158102
C 5.481878 7.771562 7.150700
C 5.482994 8.344640 7.955068
C 4.975577 7.485975 7.948217
C 6.004825 6.916218 7.167267
C 6.494563 7.794178 7.129297
C 6.510642 8.383179 7.949020
C 5.981574 7.504280 7.957957
C 6.990012 6.953243 7.165756
C 7.476629 7.807321 7.165167
C 7.531128 8.371167 7.968173
C 7.025670 7.502180 7.944986
C 7.986904 6.917770 7.117030
C 8.483925 7.804163 7.158394
C 8.513674 8.366371 7.949565
C 7.982034 7.524986 7.975138
C 0.002613 0.023570 8.757984
C 0.507802 0.846976 8.780120
C 0.524216 1.427905 9.588380
C 0.029570 0.556480 9.593751
C 0.989046 0.019565 8.739520
C 1.499171 0.891734 8.763337
C 1.477085 1.442299 9.572978
C 0.980592 0.556597 9.587839
C 1.987129 0.014314 8.806797
C 2.514895 0.846464 8.791157
C 2.502032 1.445584 9.574580
C 1.979924 0.596619 9.590129
C 3.015287 0.004927 8.794536
C 3.500058 0.842837 8.788589
C 3.502125 1.424677 9.590899
C 3.005624 0.570886 9.564056
C 4.022056 0.013178 8.786772
C 4.506444 0.847905 8.764878
C 4.507491 1.452860 9.550688
C 4.019943 0.612709 9.588864
C 4.988895 0.001463 8.817380
C 5.505149 0.846073 8.776896
C 5.502144 1.418351 9.588135
C 4.984056 0.570149 9.567598
C 5.997000 0.002713 8.766246
C 6.502668 0.875292 8.785008
C 6.513749 1.417968 9.586168
C 6.017067 0.619732 9.581229
C 6.965222 0.007319 8.789248
C 7.505603 0.894007 8.800948
C 7.514073 1.425096 9.580865
C 6.979685 0.585834 9.569854
C 7.985801 0.012428 8.768752
C 8.499258 0.842548 8.776229
C 8.523728 1.445110 9.575453
C 8.013998 0.534974 9.590565
C 0.021255 1.722990 8.796888
C 0.475584 2.602018 8.787769
C 0.495565 3.193328 9.559777
C 0.003145 2.311228 9.564878
C 1.011742 1.757231 8.800021
C 1.493484 2.584686 8.773368
C 1.519485 3.165596 9.588637
C 1.017906 2.280827 9.589959
C 1.983480 1.761160 8.801740
C 2.514853 2.595555 8.791798
C 2.518483 3.175174 9.589357
C 2.007168 2.338732 9.590477
C 3.007111 1.738224 8.796968
C 3.520714 2.611212 8.787400
C 3.519009 3.158112 9.581646
C 2.998940 2.334556 9.584708
C 4.018533 1.718937 8.772101
C 4.501857 2.596403 8.775257
C 4.488076 3.202739 9.585355
C 3.994646 2.328958 9.573609
C 4.981603 1.719442 8.779632
C 5.499799 2.628225 8.778461
C 5.524583 3.167077 9.583638
C 4.996325 2.302419 9.587170
C 6.010270 1.725010 8.760064
C 6.501164 2.608263 8.769877
C 6.485211 3.176951 9.593767
C 6.004258 2.280118 9.587817
C 7.023412 1.739830 8.759306
C 7.497005 2.606881 8.795722
C 7.478641 3.160202 9.584496
C 6.982836 2.297483 9.591351
C 8.028320 1.705450 8.779945
C 8.520150 2.606275 8.780757
C 8.469002 3.187950 9.581029
C 7.985949 2.323201 9.582850
C 0.009968 3.474986 8.768953
C 0.501443 4.323040 8.805149
C 0.480950 4.906276 9.582685
C 0.007373 4.052187 9.589347
C 1.007978 3.455315 8.791434
C 1.532501 4.324840 8.770333
C 1.508313 4.920137 9.576094
C 0.985848 4.030847 9.570855
C 1.983625 3.481591 8.773236
C 2.492533 4.326862 8.781047
C 2.495215 4.919276 9.578472
C 1.986626 4.017576 9.579677
C 2.986275 3.445440 8.779530
C 3.505313 4.363409 8.765742
C 3.502461 4.924512 9.588289
C 2.970738 4.051025 9.570331
C 4.016611 3.469965 8.791469
C 4.503839 4.353937 8.760859
C 4.524607 4.917582 9.587385
C 4.035388 4.041254 9.586305
C 5.011479 3.445794 8.777457
C 5.498063 4.326099 8.741849
C 5.487260 4.911756 9.587047
C 5.039366 4.067651 9.585534
C 5.983538 3.450182 8.765270
C 6.478008 4.326502 8.766252
C 6.479249 4.924863 9.587475
C 6.020337 4.042119 9.574247
C 7.020773 3.466832 8.771753
C 7.518030 4.318298 8.776697
C 7.505023 4.868253 9.580344
C 6.994596 4.044019 9.560687
C 8.007241 3.458510 8.797327
C 8.486312 4.312433 8.770773
C 8.505822 4.915569 9.592965
C 7.974723 4.041035 9.586870
C 0.016547 5.195362 8.802628
C 0.486071 6.056248 8.750589
C 0.507435 6.619135 9.567108
C 0.004102 5.754969 9.556198
C 1.003009 5.189964 8.745434
C 1.516553 6.073661 8.801149
C 1.513480 6.649071 9.576406
C 1.004279 5.788077 9.572261
C 2.005541 5.188670 8.786470
C 2.506018 6.038402 8.793676
C 2.492256 6.612880 9.583729
C 2.031225 5.774583 9.588118
C 2.991411 5.203364 8.784092
C 3.511782 6.042493 8.783796
C 3.505014 6.636261 9.585339
C 2.964882 5.761831 9.581340
C 4.001033 5.170737 8.753563
C 4.493850 6.080801 8.757143
C 4.487342 6.614868 9.585660
C 3.978118 5.780869 9.585099
C 5.007809 5.181918 8.774083
C 5.481475 6.071375 8.749301
C 5.518053 6.633923 9.562033
C 4.984680 5.786286 9.583862
C 5.998855 5.179528 8.795973
C 6.488310 6.068827 8.789491
C 6.476899 6.673427 9.564552
C 6.019175 5.765685 9.577895
C 6.988752 5.213759 8.775508
C 7.519508 6.057371 8.782702
C 7.526009 6.644108 9.592201
C 6.986302 5.757653 9.570618
C 7.980159 5.200335 8.755871
C 8.491344 6.045300 8.767925
C 8.517743 6.634615 9.581509
C 7.993281 5.804242 9.579512
C 0.010229 6.920828 8.752584
C 0.508513 7.799620 8.792282
C 0.487109 8.364777 9.589412
C 0.010078 7.544729 9.575226
C 0.973425 6.919280 8.785880
C 1.489644 7.808082 8.783671
C 1.509914 8.380866 9.586337
C 1.011315 7.484117 9.581410
C 1.978953 6.927839 8.802325
C 2.514901 7.810507 8.797557
C 2.526416 8.397263 9.590566
C 1.983962 7.509616 9.566182
C 2.999530 6.929945 8.773481
C 3.527159 7.817174 8.784752
C 3.486713 8.373062 9.567269
C 3.003082 7.510283 9.570861
C 3.974161 6.935158 8.769041
C 4.499456 7.818627 8.761727
C 4.477274 8.373092 9.593155
C 4.017446 7.485824 9.591975
C 4.971168 6.924300 8.771039
C 5.508496 7.769292 8.777513
C 5.496633 8.353335 9.579272
C 5.010577 7.503207 9.556396
C 6.026952 6.927803 8.762254
C 6.494212 7.770928 8.775224
C 6.506941 8.339685 9.582541
C 6.010512 7.527359 9.590374
C 7.020760 6.920466 8.775086
C 7.480760 7.793828 8.757846
C 7.484859 8.368895 9.592237
C 7.033595 7.509477 9.564008
C 7.991662 6.920872 8.759373
C 8.513986 7.796610 8.781443
C 8.499971 8.360677 9.588844
C 8.013410 7.502581 9.592718
2160
Frame 3/10
C 0.000857 0.020178 0.063904
C 0.530183 0.904943 0.009643
C 0.514568 1.438976 0.803385
C 0.009292 0.571102 0.778190
C 0.917727 0.070504 0.023511
C 1.494985 0.910126 0.045558
C 1.505790 1.465728 0.791296
C 0.985317 0.529149 0.802776
C 2.057757 0.005004 0.038595
C 2.495119 0.907245 0.067202
C 2.447304 1.423266 0.840624
C 2.032532 0.611688 0.812752
C 2.939505 0.001070 0.036739
C 3.503860 0.871154 0.038890
C 3.494239 1.456076 0.786825
C 2.987171 0.579085 0.820734
C 4.045416 0.043157 0.005839
C 4.492750 0.863662 0.015671
C 4.502442 1.402153 0.777324
C 3.972039 0.592799 0.865329
C 5.066676 0.044443 0.006310
C 5.491818 0.808295 0.029460
C 5.438628 1.370589 0.807480
C 4.983866 0.538766 0.846909
C 5.933902 0.031567 0.048316
C 6.544924 0.843516 0.005611
C 6.465336 1.446725 0.783027
C 5.996864 0.596300 0.855166
C 7.056818 0.008846 0.026853
C 7.528303 0.846815 0.042471
C 7.458251 1.453110 0.810412
C 6.956868 0.571015 0.773412
C 8.049695 0.002973 0.015686
C 8.487514 0.882687 0.006635
C 8.449529 1.452321 0.798898
C 8.021030 0.638073 0.836582
C 0.001115 1.699484 0.071625
C 0.534828 2.576434 0.020251
C 0.454239 3.170971 0.765271
C 0.036838 2.307705 0.784078
C 1.041259 1.772654 0.031582
C 1.555789 2.622434 0.053742
C 1.492820 3.156411 0.825630
C 1.021793 2.272184 0.871344
C 2.025650 1.760382 0.001558
C 2.519934 2.628198 0.011855
C 2.501202 3.188361 0.834916
C 1.951790 2.314172 0.840128
C 2.980188 1.708626 0.003613
C 3.526162 2.665605 0.028691
C 3.522403 3.164440 0.761048
C 3.042616 2.334875 0.870268
C 3.974664 1.716199 0.047222
C 4.466600 2.600985 0.026881
C 4.545916 3.134264 0.794176
C 3.986774 2.334049 0.807468
C 4.981988 1.649543 0.024229
C 5.520430 2.597648 0.004210
C 5.528499 3.179661 0.867764
C 4.996595 2.305791 0.793493
C 5.987479 1.706709 0.020779
C 6.502703 2.593096 0.042653
C 6.505607 3.139718 0.837858
C 6.069405 2.316618 0.811919
C 7.029672 1.784890 0.007048
C 7.443380 2.571098 0.009621
C 7.476292 3.167599 0.822417
C 7.016538 2.276288 0.795920
C 8.029533 1.780222 0.028502
C 8.435296 2.560055 0.020964
C 8.493768 3.174719 0.851764
C 7.928911 2.302840 0.844777
C 0.013407 3.410756 0.008783
C 0.514835 4.316732 0.039795
C 0.461056 4.915630 0.825056
C 0.004264 4.013014 0.876115
C 0.965825 3.458191 0.064190
C 1.452661 4.321779 0.003372
C 1.527964 4.877682 0.801925
C 0.978545 4.028952 0.783292
C 2.021512 3.510728 0.025839
C 2.464246 4.299711 0.012968
C 2.493821 4.873334 0.846701
C 2.027897 4.069691 0.857511
C 2.945584 3.495469 0.035044
C 3.465041 4.309914 0.005477
C 3.546946 4.924285 0.799567
C 3.001965 4.064087 0.800130
C 3.943266 3.438572 0.054268
C 4.537836 4.320277 0.015860
C 4.464916 4.890954 0.782140
C 4.057112 4.033506 0.799327
C 5.018973 3.483932 0.004146
C 5.459081 4.338623 0.034418
C 5.531522 4.897130 0.777335
C 4.937564 4.091101 0.838591
C 6.018101 3.437303 0.018868
C 6.558199 4.329534 0.002054
C 6.473044 4.911053 0.776078
C 6.007765 3.993584 0.852257
C 7.021051 3.423908 0.034051
C 7.489131 4.296010 0.015095
C 7.479112 4.914929 0.810999
C 6.974369 3.989166 0.815474
C 7.981164 3.434920 0.018558
C 8.493947 4.348540 0.039145
C 8.534085 4.930639 0.841501
C 7.974574 4.083104 0.788668
C 0.025207 5.158484 0.027819
C 0.494225 5.991418 0.023666
C 0.481703 6.692224 0.807357
C 0.011900 5.732235 0.846497
C 1.033737 5.162016 0.021818
C 1.490131 6.036044 0.017419
C 1.529607 6.675369 0.805622
C 0.968572 5.752856 0.805540
C 1.980424 5.237025 0.005128
C 2.528299 6.130347 0.002463
C 2.514311 6.657721 0.798826
C 1.997027 5.794437 0.832842
C 3.026576 5.142218 0.013492
C 3.479661 6.048470 0.036102
C 3.486759 6.672270 0.750599
C 2.978518 5.797423 0.804136
C 3.971867 5.144646 0.032751
C 4.439116 6.075200 0.005261
C 4.497908 6.656249 0.794965
C 4.030555 5.749305 0.852633
C 5.051304 5.214170 0.016014
C 5.554240 6.045092 0.059183
C 5.518724 6.652942 0.829315
C 4.988742 5.797258 0.763304
C 6.009527 5.238106 0.022899
C 6.535127 6.095681 0.036760
C 6.477976 6.705873 0.811134
C 6.008654 5.765986 0.856506
C 7.005716 5.201498 0.009328
C 7.462349 6.071458 0.005241
C 7.449116 6.628574 0.820290
C 6.977965 5.741974 0.844662
C 8.027212 5.255108 0.042330
C 8.504908 6.084103 0.009497
C 8.490903 6.609357 0.784605
C 8.018073 5.795388 0.809228
C 0.026731 6.867182 0.002526
C 0.479134 7.785036 0.038559
C 0.517868 8.383392 0.782057
C 0.041648 7.507361 0.748880
C 1.054253 6.943544 0.017748
C 1.511334 7.816396 0.044380
C 1.528103 8.340247 0.786097
C 1.025128 7.527651 0.783970
C 1.993766 6.913784 0.021252
C 2.553834 7.824899 0.022960
C 2.439335 8.408973 0.794452
C 1.964405 7.511423 0.786288
C 3.017564 6.948849 0.039420
C 3.475108 7.812964 0.003771
C 3.452970 8.402332 0.791277
C 2.975851 7.497749 0.752389
C 4.012917 6.974592 0.022234
C 4.483513 7.811091 0.038958
C 4.493645 8.389856 0.807482
C 4.011998 7.506707 0.880007
C 5.006813 6.975972 0.008268
C 5.553055 7.826396 0.031385
C 5.517292 8.366390 0.795571
C 5.031671 7.491962 0.825413
C 6.001290 6.955002 0.026914
C 6.470262 7.835666 0.031608
C 6.522533 8.348086 0.777708
C 6.014692 7.530085 0.789089
C 6.970203 6.888899 0.012044
C 7.553643 7.846034 0.027160
C 7.434548 8.380176 0.780779
C 6.975822 7.484095 0.844308
C 7.975256 6.990525 0.004194
C 8.498878 7.749614 0.042405
C 8.543102 8.358063 0.847538
C 7.969889 7.465558 0.855463
C 0.006341 0.019105 1.690883
C 0.458747 0.891817 1.589728
C 0.507148 1.403292 2.398868
C 0.023920 0.572912 2.425510
C 0.979794 0.031038 1.591757
C 1.466046 0.829246 1.585848
C 1.528456 1.452763 2.484040
C 1.042937 0.607706 2.394795
C 2.006149 0.007288 1.633852
C 2.466480 0.858195 1.681843
C 2.512565 1.407620 2.440214
C 1.977795 0.623254 2.484601
C 3.009779 0.030558 1.675849
C 3.508534 0.892347 1.665118
C 3.500205 1.473366 2.444777
C 3.046622 0.606823 2.466553
C 3.989335 0.038368 1.662069
C 4.506740 0.865770 1.674332
C 4.485517 1.469018 2.433897
C 4.057148 0.572224 2.432831
C 5.006215 0.036853 1.623496
C 5.482009 0.856495 1.640255
C 5.467498 1.453404 2.446435
C 4.951158 0.579875 2.474340
C 6.012672 0.003040 1.583780
C 6.477006 0.868889 1.607334
C 6.489370 1.395990 2.433322
C 5.997280 0.542403 2.454203
C 6.964162 0.013167 1.597000
C 7.474856 0.902532 1.593858
C 7.441996 1.432714 2.465728
C 7.020372 0.563359 2.448414
C 8.039946 0.037075 1.573851
C 8.500820 0.897276 1.684267
C 8.508745 1.470122 2.417663
C 7.974703 0.539098 2.437898
C 0.017347 1.779825 1.649045
C 0.508481 2.649536 1.585420
C 0.513251 3.168185 2.417475
C 0.006410 2.284767 2.417907
C 1.020973 1.786833 1.637499
C 1.512450 2.603416 1.680763
C 1.489968 3.145932 2.470056
C 0.966517 2.287094 2.430013
C 2.043816 1.702822 1.647621
C 2.470979 2.578046 1.611783
C 2.493514 3.159025 2.494232
C 1.967313 2.344626 2.452111
C 2.996350 1.725059 1.637557
C 3.549087 2.560994 1.639266
C 3.529969 3.182331 2.435813
C 3.032326 2.336626 2.491294
C 4.001992 1.738950 1.578617
C 4.470411 2.615830 1.592457
C 4.536988 3.156174 2.423195
C 3.979865 2.333107 2.487617
C 5.058356 1.705101 1.638339
C 5.502809 2.574894 1.574317
C 5.488521 3.125466 2.448224
C 5.011243 2.299699 2.397396
C 5.980256 1.777268 1.635040
C 6.468321 2.665719 1.630617
C 6.554662 3.154144 2.419002
C 6.038573 2.299557 2.420312
C 7.047919 1.678922 1.663265
C 7.469067 2.591424 1.655827
C 7.498068 3.169843 2.424219
C 6.999673 2.332876 2.408750
C 8.004107 1.725750 1.589783
C 8.511298 2.595668 1.626672
C 8.453172 3.154716 2.439350
C 7.960487 2.274243 2.426210
C 0.032989 3.501683 1.623197
C 0.477982 4.350354 1.699585
C 0.457512 4.896672 2.403257
C 0.009391 4.046080 2.505343
C 0.971563 3.487485 1.630456
C 1.526408 4.305434 1.568627
C 1.522936 4.881433 2.479210
C 1.055944 3.996383 2.442461
C 2.030827 3.464365 1.631121
C 2.525321 4.376502 1.595419
C 2.481084 4.927480 2.491136
C 2.001613 4.096779 2.429010
C 3.002177 3.465937 1.640438
C 3.519818 4.395346 1.663444
C 3.487343 4.942084 2.440839
C 2.972809 4.054223 2.492130
C 4.003715 3.445874 1.597438
C 4.494761 4.339661 1.640615
C 4.503385 4.920894 2.410335
C 3.964851 4.019721 2.480952
C 4.993309 3.492826 1.603867
C 5.494942 4.301525 1.655202
C 5.438653 4.911826 2.468990
C 5.056466 4.039690 2.436850
C 5.978672 3.491432 1.623665
C 6.476498 4.294707 1.610406
C 6.540498 4.941254 2.440607
C 6.061361 4.032349 2.453601
C 6.999034 3.433845 1.678808
C 7.497675 4.328051 1.594419
C 7.510663 4.953807 2.454372
C 6.978765 4.019024 2.464007
C 7.986734 3.484362 1.632610
C 8.520289 4.324581 1.651848
C 8.498330 4.882300 2.436305
C 8.026407 4.010135 2.451104
C 0.063011 5.192133 1.560310
C 0.449900 6.076430 1.619758
C 0.474402 6.664207 2.467749
C 0.010264 5.806947 2.439865
C 0.987131 5.162900 1.667506
C 1.493798 6.075265 1.688968
C 1.455378 6.663518 2.488691
C 1.009192 5.805930 2.481350
C 2.014208 5.206947 1.594397
C 2.481283 6.096528 1.673714
C 2.461530 6.640761 2.483043
C 2.024675 5.747208 2.425539
C 3.018755 5.175779 1.591282
C 3.499362 6.029501 1.661838
C 3.460442 6.650709 2.400737
C 3.017076 5.817014 2.440637
C 4.012307 5.164140 1.640108
C 4.519364 6.024852 1.672656
C 4.471526 6.679319 2.474669
C 4.012166 5.810885 2.403195
C 5.064687 5.201738 1.632492
C 5.491146 6.082361 1.639803
C 5.476761 6.623096 2.502899
C 4.974314 5.747030 2.452728
C 6.033356 5.233707 1.607222
C 6.486986 6.059261 1.704967
C 6.531404 6.620044 2.438225
C 6.035052 5.774590 2.495446
C 6.985861 5.165462 1.662932
C 7.486815 6.094159 1.596741
C 7.551335 6.631993 2.463599
C 6.985136 5.756896 2.427377
C 8.028078 5.177128 1.634145
C 8.519162 6.068382 1.609576
C 8.552571 6.658882 2.474450
C 8.040568 5.763086 2.418240
C 0.014305 6.932616 1.614744
C 0.490184 7.831516 1.587678
C 0.474373 8.389139 2.432106
C 0.015021 7.486581 2.508253
C 0.992264 6.942114 1.562663
C 1.547218 7.802473 1.691188
C 1.472624 8.384448 2.511351
C 0.990868 7.434477 2.449110
C 2.005020 6.952829 1.683591
C 2.467166 7.763712 1.608530
C 2.457257 8.413762 2.465698
C 2.040521 7.517794 2.462842
C 2.991088 6.924618 1.676723
C 3.446922 7.795845 1.592817
C 3.537715 8.399892 2.457168
C 3.007446 7.525452 2.465630
C 3.977497 6.945835 1.563790
C 4.468194 7.770532 1.589708
C 4.539489 8.382606 2.439528
C 3.991322 7.500658 2.444952
C 4.962803 6.963524 1.607682
C 5.527584 7.778893 1.679975
C 5.506498 8.432260 2.461519
C 5.011359 7.482496 2.469639
C 6.022001 6.928427 1.574647
C 6.447938 7.755061 1.616011
C 6.550595 8.369553 2.396695
C 6.040145 7.503789 2.445292
C 7.005746 6.940221 1.633387
C 7.495289 7.784617 1.672802
C 7.502287 8.395007 2.398392
C 6.979663 7.507745 2.440245
C 8.040399 6.930315 1.605925
C 8.481268 7.793539 1.625476
C 8.456102 8.321658 2.447811
C 8.001803 7.518418 2.482650
C 0.067654 0.023043 3.293872
C 0.542953 0.842140 3.254115
C 0.461875 1.479541 4.052665
C 0.015148 0.594727 4.059330
C 1.043129 0.048500 3.281187
C 1.492374 0.884043 3.297091
C 1.495589 1.449181 4.093518
C 1.022757 0.562934 4.119421
C 1.980582 0.058760 3.317757
C 2.487804 0.861822 3.242628
C 2.479444 1.399230 4.083006
C 1.967637 0.606956 4.064191
C 3.036624 0.004500 3.281829
C 3.513450 0.876696 3.332496
C 3.536626 1.484149 4.076764
C 2.995067 0.624656 4.104481
C 4.033926 0.016931 3.236785
C 4.547487 0.894916 3.288375
C 4.540706 1.445469 4.039978
C 3.995273 0.617903 4.068385
C 5.010490 0.022790 3.251392
C 5.487862 0.850376 3.298395
C 5.475391 1.483482 4.082913
C 4.987218 0.601943 4.027029
C 6.028930 0.028454 3.233851
C 6.512194 0.859836 3.257254
C 6.461261 1.493069 4.098592
C 5.988800 0.576187 4.035617
C 6.943051 0.011389 3.247174
C 7.476762 0.832476 3.226775
C 7.500654 1.400101 4.148602
C 6.994230 0.594474 4.093020
C 8.001139 0.044445 3.307487
C 8.529697 0.855606 3.302312
C 8.507989 1.430060 4.062789
C 7.950675 0.581330 4.062516
C 0.006196 1.676917 3.252995
C 0.531277 2.593393 3.280104
C 0.470282 3.169027 4.083677
C 0.036278 2.317638 3.986303
C 1.010926 1.762652 3.270518
C 1.495223 2.606364 3.197061
C 1.544663 3.171255 4.113956
C 0.999371 2.280768 4.059338
C 2.007627 1.721219 3.219040
C 2.510232 2.575038 3.235055
C 2.520581 3.190190 4.077377
C 1.964269 2.343184 4.068700
C 2.989012 1.787355 3.235024
C 3.531327 2.568725 3.290437
C 3.518002 3.181338 4.042510
C 2.996763 2.335943 4.081183
C 4.034572 1.720351 3.292048
C 4.449817 2.647775 3.244918
C 4.526284 3.181365 4.093841
C 3.973982 2.325028 4.133126
C 5.006983 1.774339 3.302560
C 5.449704 2.600463 3.309799
C 5.503106 3.144522 4.052089
C 5.012395 2.350571 4.071348
C 6.021894 1.744556 3.261885
C 6.513893 2.594822 3.273660
C 6.527875 3.172467 4.054643
C 6.062167 2.280972 4.064283
C 7.010486 1.755338 3.270451
C 7.536534 2.636084 3.301230
C 7.483823 3.218638 4.080250
C 7.049592 2.336074 4.085456
C 8.035838 1.727896 3.293064
C 8.477592 2.613827 3.320144
C 8.512464 3.220550 4.062906
C 7.969603 2.318252 4.124470
C 0.031561 3.520627 3.223685
C 0.468527 4.314038 3.216130
C 0.481800 4.973996 4.051435
C 0.052912 4.001759 4.095969
C 0.976243 3.511146 3.272869
C 1.479191 4.362521 3.244682
C 1.445203 4.960995 4.073373
C 1.010807 4.030336 4.114869
C 1.997502 3.504413 3.257190
C 2.528323 4.311412 3.224375
C 2.540775 4.892252 4.115169
C 1.969838 4.031167 4.111239
C 2.993758 3.444921 3.255795
C 3.489468 4.270236 3.225380
C 3.477690 4.933485 4.058456
C 3.031036 4.009300 4.054514
C 4.032317 3.435808 3.272738
C 4.528990 4.356290 3.274155
C 4.531303 4.863537 4.078237
C 3.942750 4.012975 4.090415
C 4.979034 3.479743 3.250935
C 5.467944 4.351273 3.311335
C 5.553420 4.950461 4.107340
C 5.004120 4.093254 4.059302
C 5.961296 3.475980 3.269273
C 6.450421 4.340945 3.326502
C 6.510918 4.861629 4.084422
C 6.017595 4.005597 4.124359
C 6.966202 3.445957 3.260290
C 7.521989 4.375996 3.240887
C 7.513170 4.884576 4.116652
C 6.947149 3.989660 4.071361
C 8.035383 3.462716 3.289257
C 8.524725 4.301618 3.303071
C 8.471107 4.912935 4.106219
C 8.047258 4.043489 4.046506
C 0.028018 5.196574 3.232917
C 0.529128 6.083562 3.242146
C 0.548280 6.593994 4.085414
C 0.006853 5.826992 4.057895
C 1.035661 5.181694 3.234832
C 1.519063 6.033909 3.273967
C 1.514688 6.642801 4.019037
C 0.968087 5.763451 4.102287
C 1.931912 5.211039 3.271554
C 2.486478 6.002601 3.253950
C 2.488702 6.628534 4.082911
C 1.977777 5.782836 4.121270
C 2.992555 5.241942 3.282129
C 3.514452 6.079713 3.260671
C 3.459254 6.651821 4.092416
C 2.981668 5.742978 4.070195
C 4.050666 5.211032 3.281341
C 4.462095 6.088600 3.293550
C 4.478586 6.632388 4.097367
C 4.021208 5.722588 4.100697
C 5.019541 5.228638 3.256898
C 5.492215 6.024231 3.273790
C 5.503084 6.591696 4.068646
C 4.996253 5.725262 4.066810
C 6.006880 5.228217 3.292455
C 6.495034 6.022732 3.287214
C 6.539705 6.611656 4.066574
C 6.033671 5.800464 4.084462
C 7.031829 5.156822 3.229520
C 7.548403 6.096228 3.266524
C 7.513792 6.622478 4.031333
C 7.016575 5.809174 4.065211
C 8.012762 5.168160 3.225772
C 8.530683 6.074868 3.297159
C 8.496624 6.634292 4.111759
C 7.979586 5.775355 4.111774
C 0.006104 6.901984 3.222296
C 0.519180 7.788623 3.232310
C 0.538262 8.331554 4.092581
C 0.064616 7.543833 4.088975
C 0.970790 6.928657 3.276862
C 1.470173 7.780971 3.231843
C 1.468986 8.359603 4.059800
C 1.071567 7.530469 4.099918
C 1.938131 6.924293 3.274328
C 2.455213 7.815005 3.290529
C 2.507446 8.363373 4.137545
C 1.992758 7.563515 4.102774
C 2.977818 6.898028 3.292987
C 3.525800 7.785112 3.271843
C 3.470385 8.378004 4.032644
C 3.009908 7.485647 4.145892
C 4.037576 6.945846 3.240648
C 4.515932 7.857182 3.292845
C 4.442099 8.348932 4.099815
C 3.963408 7.543793 4.070636
C 4.948658 6.938274 3.261049
C 5.480035 7.784338 3.220484
C 5.516386 8.344446 4.107121
C 5.002323 7.472648 4.117417
C 5.976110 6.881795 3.283716
C 6.499936 7.806730 3.264286
C 6.496745 8.406538 4.071932
C 6.022548 7.485105 4.113077
C 7.040631 6.901966 3.281057
C 7.481528 7.791205 3.247432
C 7.451002 8.387296 4.036234
C 6.991938 7.480474 4.116088
C 7.989003 6.906799 3.285443
C 8.562871 7.828614 3.276244
C 8.474898 8.360785 4.079751
C 7.947543 7.463378 4.112770
C 0.015718 0.040543 4.828764
C 0.486780 0.862920 4.939177
C 0.521088 1.453097 5.754483
C 0.042343 0.589323 5.718084
C 1.025730 0.003790 4.916777
C 1.558360 0.855804 4.886759
C 1.496279 1.407259 5.721046
C 1.013508 0.595956 5.761621
C 2.025364 0.013891 4.952032
C 2.510855 0.838095 4.924636
C 2.526906 1.404781 5.714180
C 2.032368 0.601472 5.749368
C 3.037340 0.049643 4.878195
C 3.499828 0.845487 4.932152
C 3.465704 1.433473 5.747364
C 2.998018 0.566649 5.700999
C 3.974127 0.015701 4.888513
C 4.481985 0.856795 4.930080
C 4.477680 1.502109 5.698614
C 4.038511 0.544654 5.743333
C 4.999734 0.008792 4.920658
C 5.535510 0.877388 4.886175
C 5.535320 1.470253 5.700478
C 5.052532 0.581508 5.714964
C 6.007197 0.000741 4.895504
C 6.457802 0.858222 4.856513
C 6.449454 1.451904 5.705314
C 6.020334 0.586554 5.721435
C 7.047906 0.017636 4.874795
C 7.500345 0.934238 4.905852
C 7.497841 1.475361 5.759457
C 6.978944 0.607025 5.749800
C 7.979571 0.014709 4.937121
C 8.470351 0.829830 4.910307
C 8.510117 1.468144 5.728992
C 7.957473 0.541923 5.741649
C 0.021603 1.783676 4.871994
C 0.484759 2.622439 4.919143
C 0.489413 3.124137 5.702163
C 0.020503 2.266396 5.689713
C 0.996480 1.755999 4.859443
C 1.542006 2.599401 4.886765
C 1.491917 3.203605 5.712290
C 1.031272 2.279440 5.737841
C 1.979518 1.751467 4.866120
C 2.463773 2.642219 4.882914
C 2.487571 3.203229 5.718723
C 2.045265 2.305676 5.665302
C 3.039478 1.753359 4.934432
C 3.475762 2.615673 4.923624
C 3.502556 3.201438 5.660553
C 2.944772 2.325686 5.709299
C 3.979301 1.711931 4.874771
C 4.474806 2.609806 4.937748
C 4.482743 3.182688 5.651892
C 3.952147 2.332303 5.693379
C 5.028146 1.780382 4.896030
C 5.483403 2.535473 4.901080
C 5.529600 3.191432 5.704111
C 5.003404 2.341756 5.728939
C 5.965422 1.747610 4.846834
C 6.469885 2.606061 4.939609
C 6.525196 3.156510 5.758164
C 6.036140 2.317502 5.764568
C 7.042092 1.726116 4.880812
C 7.505490 2.576132 4.948079
C 7.456228 3.169635 5.720672
C 7.026434 2.293161 5.677321
C 8.041739 1.726727 4.914357
C 8.532009 2.554169 4.918702
C 8.533987 3.148885 5.715176
C 7.976100 2.331181 5.732944
C 0.038670 3.476634 4.877107
C 0.516372 4.357407 4.840020
C 0.483641 4.860763 5.689425
C 0.004205 4.059895 5.726399
C 1.021035 3.467479 4.906890
C 1.506037 4.342292 4.937006
C 1.484703 4.953523 5.701357
C 1.057099 4.040154 5.705918
C 1.975566 3.457683 4.932625
C 2.524580 4.325204 4.850761
C 2.466193 4.916523 5.748788
C 2.004468 4.083114 5.700827
C 2.984585 3.502194 4.912359
C 3.459184 4.313321 4.894028
C 3.524369 4.924753 5.719649
C 2.999507 4.027955 5.686855
C 4.018824 3.493655 4.909087
C 4.507838 4.349496 4.871705
C 4.549169 4.921777 5.716858
C 4.020629 4.045246 5.774616
C 5.028303 3.485900 4.888839
C 5.546643 4.311175 4.893023
C 5.459630 4.930903 5.722019
C 4.992729 4.044212 5.713993
C 5.975277 3.447399 4.934706
C 6.539177 4.288573 4.914004
C 6.477253 4.909581 5.680266
C 5.995484 4.063252 5.675442
C 7.030051 3.460866 4.861856
C 7.478390 4.340485 4.862898
C 7.478244 4.860935 5.711013
C 7.013904 4.024797 5.700928
C 8.048080 3.438954 4.865631
C 8.501056 4.380050 4.946415
C 8.506319 4.929560 5.665948
C 8.031134 4.019871 5.727614
C 0.067986 5.176085 4.880901
C 0.535185 6.055370 4.885988
C 0.535571 6.655077 5.699766
C 0.021186 5.719884 5.763393
C 1.000637 5.203845 4.942877
C 1.511594 6.039132 4.909712
C 1.503578 6.653896 5.705907
C 0.992605 5.786160 5.751707
C 1.983033 5.218851 4.845509
C 2.540681 6.078181 4.853303
C 2.494433 6.652399 5.687599
C 1.988226 5.803227 5.677078
C 3.045792 5.222242 4.894455
C 3.481539 6.027095 4.876060
C 3.470419 6.638397 5.660838
C 3.021927 5.794226 5.683759
C 4.000256 5.201697 4.942971
C 4.497140 6.069014 4.936962
C 4.488397 6.646958 5.781309
C 4.006776 5.807675 5.739218
C 5.050916 5.190233 4.904091
C 5.530345 6.083111 4.931945
C 5.515829 6.660583 5.667893
C 4.973882 5.766522 5.691172
C 5.944453 5.184369 4.899148
C 6.487702 6.078868 4.871290
C 6.505186 6.637827 5.732172
C 5.979324 5.722081 5.753820
C 6.959940 5.164176 4.906339
C 7.470112 6.097387 4.877064
C 7.514898 6.596409 5.696013
C 6.995636 5.750705 5.693872
C 8.037073 5.184614 4.927347
C 8.487591 6.009139 4.909989
C 8.497768 6.667202 5.727862
C 8.022058 5.826310 5.700332
C 0.012946 6.934658 4.912650
C 0.532864 7.835521 4.936741
C 0.509357 8.395243 5.739083
C 0.022112 7.491801 5.792056
C 1.029676 6.930634 4.937877
C 1.489667 7.762491 4.887949
C 1.484847 8.383486 5.738672
C 0.987315 7.468892 5.722122
C 1.983297 6.890949 4.850560
C 2.488805 7.784245 4.856852
C 2.465916 8.355370 5.697159
C 2.037859 7.491422 5.729275
C 3.023095 6.943186 4.888580
C 3.483320 7.813852 4.881223
C 3.496112 8.378496 5.739754
C 2.961832 7.509972 5.697602
C 3.998101 6.915506 4.865821
C 4.460026 7.737975 4.882604
C 4.476732 8.388197 5.698868
C 4.026700 7.550609 5.716729
C 4.991166 6.955829 4.931194
C 5.500649 7.753521 4.934003
C 5.526404 8.397777 5.679763
C 5.035396 7.469833 5.727650
C 6.040491 6.879867 4.901375
C 6.459207 7.753105 4.953153
C 6.494897 8.403973 5.710483
C 5.955287 7.484717 5.779225
C 7.041173 6.949332 4.934501
C 7.443799 7.763814 4.881212
C 7.516455 8.410116 5.728104
C 7.056647 7.490422 5.684841
C 8.007057 6.916050 4.874329
C 8.490242 7.761014 4.881612
C 8.475137 8.363205 5.731446
C 8.032937 7.551070 5.750731
C 0.040866 0.002565 6.571665
C 0.493200 0.892626 6.487498
C 0.549429 1.446402 7.341372
C 0.027210 0.590970 7.405159
C 1.042533 0.026774 6.582114
C 1.453058 0.854822 6.558362
C 1.497775 1.405920 7.357035
C 0.960914 0.523498 7.341168
C 1.950051 0.023516 6.506062
C 2.508716 0.826183 6.503554
C 2.544512 1.424547 7.335088
C 2.038661 0.559960 7.324396
C 3.029206 0.003339 6.513524
C 3.488922 0.858477 6.462728
C 3.553961 1.442163 7.320073
C 3.042475 0.547284 7.353401
C 3.999671 0.007616 6.539387
C 4.483306 0.907263 6.520926
C 4.548853 1.419042 7.316433
C 4.049188 0.577843 7.357604
C 4.975083 0.026610 6.595870
C 5.536784 0.829380 6.543407
C 5.504247 1.447492 7.370138
C 5.029407 0.570841 7.302117
C 6.028151 0.027907 6.489955
C 6.477333 0.817470 6.533536
C 6.489740 1.414777 7.294968
C 5.985465 0.528542 7.326695
C 6.989798 0.003264 6.559278
C 7.563868 0.842796 6.512784
C 7.566698 1.463422 7.329107
C 7.064276 0.588143 7.391486
C 7.966012 0.011086 6.550433
C 8.473238 0.921091 6.532800
C 8.466690 1.473218 7.362684
C 7.978439 0.570024 7.416781
C 0.007485 1.735198 6.581536
C 0.508768 2.607019 6.525302
C 0.502850 3.150806 7.327884
C 0.001172 2.269849 7.325192
C 1.012883 1.772305 6.519699
C 1.513084 2.541445 6.550998
C 1.508445 3.219902 7.333143
C 1.036125 2.290893 7.347902
C 1.995772 1.709626 6.571048
C 2.536823 2.611978 6.546630
C 2.473108 3.201277 7.381207
C 1.977107 2.362730 7.345616
C 3.027916 1.701382 6.565084
C 3.496033 2.582637 6.556603
C 3.450380 3.181137 7.362629
C 2.999703 2.336413 7.323661
C 3.992947 1.724104 6.511803
C 4.463446 2.617485 6.505947
C 4.479018 3.179253 7.373952
C 3.985478 2.347488 7.320676
C 4.991563 1.742910 6.533129
C 5.476191 2.533475 6.504136
C 5.536543 3.142593 7.369835
C 5.006257 2.339447 7.302757
C 6.017072 1.741791 6.586911
C 6.466939 2.559930 6.580235
C 6.492722 3.133956 7.301545
C 6.022482 2.367291 7.372801
C 7.034190 1.718781 6.564550
C 7.456854 2.574196 6.528343
C 7.516734 3.190371 7.331980
C 6.953171 2.295880 7.328605
C 8.058014 1.701516 6.530683
C 8.557373 2.587631 6.535597
C 8.436669 3.162900 7.371804
C 8.022496 2.262703 7.392319
C 0.003576 3.508085 6.571029
C 0.481837 4.321705 6.493175
C 0.540816 4.927600 7.385896
C 0.054345 4.088448 7.387861
C 0.998816 3.500050 6.513006
C 1.498944 4.300696 6.507535
C 1.555077 4.908252 7.404848
C 0.968546 4.010884 7.349476
C 2.005277 3.508381 6.551446
C 2.470760 4.333389 6.534587
C 2.513369 4.894128 7.315977
C 1.963249 4.090296 7.342391
C 3.004748 3.486025 6.551380
C 3.519465 4.316988 6.495754
C 3.520971 4.927888 7.330584
C 3.021497 4.007579 7.362383
C 3.995310 3.475182 6.474832
C 4.550687 4.327383 6.580826
C 4.452753 4.925147 7.355636
C 4.029037 4.073573 7.385620
C 5.001670 3.437915 6.565152
C 5.505396 4.346690 6.534181
C 5.519488 4.943811 7.339154
C 5.006354 3.976792 7.360906
C 6.024397 3.497283 6.575449
C 6.465567 4.347060 6.520029
C 6.526496 4.930567 7.357314
C 5.990952 4.011648 7.393150
C 6.984774 3.469469 6.542007
C 7.536589 4.291995 6.540072
C 7.474493 4.987053 7.352775
C 7.003605 4.004015 7.301455
C 7.972001 3.436735 6.505333
C 8.517075 4.357420 6.516942
C 8.469408 4.927155 7.348572
C 8.045570 4.036060 7.313021
C 0.052996 5.226208 6.492890
C 0.491152 6.029288 6.496066
C 0.546549 6.638554 7.378340
C 0.007926 5.776588 7.305322
C 0.963315 5.182982 6.481941
C 1.517281 6.094751 6.573807
C 1.549149 6.606869 7.356544
C 1.020220 5.803725 7.330266
C 1.986089 5.230985 6.556159
C 2.510775 6.045645 6.518449
C 2.516231 6.573270 7.351815
C 2.028206 5.768331 7.309798
C 2.995981 5.149205 6.504256
C 3.491059 6.077738 6.536791
C 3.539401 6.642962 7.345640
C 3.014283 5.794079 7.299079
C 3.995963 5.213416 6.574521
C 4.449313 6.094541 6.526719
C 4.464538 6.650082 7.310019
C 3.965628 5.743824 7.311845
C 5.045538 5.175003 6.513855
C 5.476828 6.097255 6.501680
C 5.485174 6.625352 7.404239
C 5.037155 5.757145 7.321927
C 6.016716 5.248876 6.534713
C 6.488493 6.053273 6.577189
C 6.493972 6.614270 7.385722
C 5.973781 5.773392 7.344364
C 6.978359 5.201303 6.486238
C 7.473967 6.017253 6.547118
C 7.453257 6.655751 7.351847
C 6.983073 5.835224 7.334469
C 7.986766 5.192764 6.498940
C 8.482038 5.998115 6.550804
C 8.548836 6.646290 7.369946
C 7.966263 5.751014 7.319300
C 0.024548 6.866116 6.553669
C 0.510302 7.766044 6.497655
C 0.483762 8.348238 7.337121
C 0.001162 7.452563 7.353390
C 1.047420 6.895741 6.549799
C 1.488577 7.811835 6.536906
C 1.542324 8.396331 7.370397
C 1.014068 7.531944 7.289907
C 1.981696 6.921485 6.489388
C 2.448524 7.781008 6.490014
C 2.506219 8.395645 7.375220
C 1.954069 7.490545 7.297329
C 3.022712 6.937909 6.523659
C 3.526168 7.724355 6.544461
C 3.454897 8.382187 7.371891
C 3.024547 7.484576 7.320866
C 3.985876 6.938977 6.523531
C 4.480490 7.804981 6.523512
C 4.513147 8.350110 7.360212
C 3.948628 7.505167 7.342854
C 4.935416 6.932804 6.524398
C 5.528200 7.760434 6.590972
C 5.455178 8.393395 7.368185
C 5.006681 7.526410 7.370946
C 5.988765 6.982957 6.578509
C 6.503565 7.837160 6.557746
C 6.469957 8.340174 7.367810
C 6.036802 7.535152 7.326588
C 7.019295 6.920158 6.570447
C 7.447491 7.826688 6.528794
C 7.508449 8.340142 7.333571
C 6.981574 7.562892 7.366551
C 7.968615 6.922231 6.498932
C 8.480064 7.859481 6.507877
C 8.459200 8.360958 7.362791
C 8.028756 7.500964 7.378776
C 0.018777 0.025709 8.072448
C 0.499659 0.890696 8.142561
C 0.511345 1.409608 8.954921
C 0.014925 0.586250 8.930125
C 1.031310 0.062063 8.130265
C 1.494650 0.881696 8.126827
C 1.529347 1.492371 8.968281
C 1.036334 0.594518 9.027196
C 1.954742 0.006380 8.174666
C 2.468978 0.853839 8.122251
C 2.532350 1.415342 8.994759
C 1.979533 0.627491 8.989044
C 2.998134 0.035734 8.152618
C 3.524991 0.877043 8.193327
C 3.444968 1.451020 8.988651
C 3.020497 0.606518 8.937549
C 3.999446 0.002147 8.130138
C 4.554823 0.834185 8.114567
C 4.440471 1.419880 8.995908
C 4.012966 0.576931 9.042270
C 5.038364 0.030303 8.091200
C 5.497134 0.886048 8.225317
C 5.462520 1.471142 8.996007
C 4.988935 0.573671 8.980266
C 6.002668 0.011555 8.136421
C 6.496655 0.860289 8.097948
C 6.512804 1.422704 8.954896
C 5.979446 0.591889 9.025953
C 7.027192 0.002495 8.122174
C 7.508693 0.865797 8.220208
C 7.508180 1.491155 8.950329
C 7.033238 0.625056 8.984950
C 8.034726 0.046102 8.160930
C 8.519474 0.903839 8.185705
C 8.479974 1.427162 9.025570
C 8.047216 0.570642 9.022343
C 0.068492 1.773524 8.152347
C 0.488931 2.616966 8.218246
C 0.471612 3.203991 8.956297
C 0.069108 2.284217 8.962665
C 0.959615 1.690222 8.156929
C 1.518108 2.617963 8.226372
C 1.490831 3.181567 9.029550
C 1.038160 2.322196 9.018668
C 2.001476 1.733155 8.138950
C 2.500590 2.636991 8.202961
C 2.496079 3.165586 8.915756
C 1.961013 2.321892 8.949484
C 2.970871 1.737734 8.179361
C 3.480739 2.552270 8.189347
C 3.446013 3.175916 9.020662
C 3.023119 2.361094 8.976839
C 3.961716 1.756151 8.213512
C 4.475367 2.594601 8.203177
C 4.491959 3.192384 9.022859
C 3.956271 2.319603 9.007490
C 5.018232 1.684192 8.177337
C 5.500906 2.595371 8.212185
C 5.508073 3.193191 8.950448
C 4.989054 2.298663 9.005781
C 5.968287 1.744487 8.208920
C 6.512453 2.547447 8.186510
C 6.455912 3.172354 8.963800
C 6.040358 2.297764 8.994209
C 7.038420 1.696750 8.152819
C 7.480114 2.620727 8.195233
C 7.512084 3.223685 8.983697
C 6.964464 2.304268 9.023131
C 7.985676 1.676261 8.206983
C 8.508999 2.559198 8.173613
C 8.507718 3.213310 8.988052
C 8.027285 2.346402 9.022817
C 0.017556 3.472678 8.196459
C 0.515224 4.332292 8.093911
C 0.482626 4.924120 9.016711
C 0.006437 4.086926 9.015492
C 1.010294 3.455908 8.192213
C 1.539349 4.295041 8.162254
C 1.532664 4.889280 8.939285
C 0.973686 4.032193 8.974593
C 1.961534 3.432606 8.184567
C 2.543873 4.353112 8.173923
C 2.453406 4.921000 9.010011
C 2.026933 4.079439 8.983453
C 3.036611 3.467318 8.142044
C 3.473507 4.327595 8.193775
C 3.525114 4.929507 8.993849
C 2.989257 4.008410 8.995544
C 4.050451 3.485995 8.173572
C 4.518961 4.338292 8.121352
C 4.520721 4.941474 8.953021
C 3.982522 4.068072 8.968441
C 4.975472 3.462702 8.201943
C 5.467465 4.322158 8.143863
C 5.498201 4.962556 9.003078
C 5.013880 4.052658 9.002384
C 6.003121 3.451443 8.170606
C 6.505336 4.364077 8.199522
C 6.551568 4.919257 8.950894
C 5.976784 4.030951 8.945125
C 7.004083 3.468733 8.134169
C 7.491899 4.292431 8.146361
C 7.503555 4.945861 8.930985
C 7.004473 3.996066 8.969489
C 7.965684 3.495629 8.149040
C 8.504553 4.360847 8.173816
C 8.464777 4.922968 8.977862
C 7.994617 4.028465 8.984076
C 0.008791 5.207824 8.213553
C 0.558162 6.093295 8.164855
C 0.457136 6.578383 8.981917
C 0.059790 5.823783 8.989848
C 1.002041 5.165767 8.118992
C 1.519966 6.071652 8.171231
C 1.451004 6.632526 8.956871
C 1.032897 5.779741 8.940535
C 2.034315 5.176593 8.157840
C 2.462624 6.072277 8.138413
C 2.477963 6.631889 8.953678
C 1.961173 5.787795 8.952453
C 3.033086 5.193390 8.130814
C 3.453225 6.042964 8.146822
C 3.489534 6.630816 8.994831
C 3.023612 5.741537 8.989273
C 3.989532 5.174067 8.120284
C 4.488371 6.057346 8.145464
C 4.543607 6.638659 8.988343
C 3.999862 5.700696 8.995288
C 5.003404 5.207142 8.131729
C 5.487186 6.027692 8.163926
C 5.445359 6.677657 8.958487
C 5.011360 5.730198 9.009433
C 5.980752 5.153462 8.192934
C 6.488619 6.116377 8.182352
C 6.548491 6.649806 9.020224
C 6.013580 5.814803 9.017363
C 6.998186 5.213637 8.220098
C 7.507132 6.010198 8.194504
C 7.480125 6.651748 8.985951
C 7.030461 5.780146 9.008006
C 7.997465 5.166328 8.129423
C 8.545858 6.030139 8.180031
C 8.459091 6.626661 8.971121
C 7.970495 5.760862 8.978862
C 0.004661 6.953443 8.118812
C 0.505821 7.765679 8.145096
C 0.510007 8.369623 8.949915
C 0.028995 7.478272 9.028663
C 0.991637 6.912831 8.147659
C 1.489336 7.787032 8.115795
C 1.500428 8.368324 8.991637
C 1.020806 7.529707 8.937663
C 1.950671 6.897538 8.140647
C 2.511310 7.850581 8.145988
C 2.532145 8.352498 8.943698
C 1.962914 7.493338 8.971507
C 3.072636 6.908637 8.139407
C 3.484856 7.848864 8.174916
C 3.473284 8.397847 8.965450
C 3.010122 7.544296 8.991831
C 4.018793 6.881321 8.204966
C 4.518781 7.774779 8.121470
C 4.460887 8.388167 8.953579
C 3.959490 7.514762 8.943440
C 5.043604 6.927370 8.163025
C 5.469264 7.758131 8.220430
C 5.462296 8.377431 8.963189
C 4.975248 7.511621 8.968439
C 5.987673 6.938482 8.176023
C 6.569588 7.782610 8.184759
C 6.418667 8.365928 8.990805
C 6.046105 7.500377 9.026480
C 6.994728 6.934454 8.182503
C 7.500494 7.824069 8.193372
C 7.542460 8.388467 9.031905
C 7.016149 7.487020 8.939360
C 7.980758 6.883899 8.183886
C 8.542240 7.798261 8.205407
C 8.501726 8.331519 9.023092
C 7.981689 7.561655 9.037965
C 0.029867 0.039132 0.647256
C 0.520448 0.888189 0.620562
C 0.536658 1.464003 1.403725
C 0.002924 0.591049 1.473011
C 1.010107 0.065513 0.552444
C 1.505474 0.848831 0.622540
C 1.500800 1.480981 1.482023
C 0.959810 0.620841 1.458388
C 2.006685 0.063675 0.573826
C 2.526826 0.839994 0.634858
C 2.474471 1.437837 1.418174
C 2.011655 0.623691 1.426826
C 2.970926 0.006969 0.615969
C 3.519284 0.836912 0.604093
C 3.544212 1.465947 1.423111
C 3.020145 0.580349 1.478053
C 4.011833 0.058989 0.584848
C 4.480240 0.830646 0.593098
C 4.461301 1.448121 1.448420
C 3.953779 0.586658 1.454637
C 5.013238 0.008193 0.648322
C 5.540174 0.876361 0.634777
C 5.504296 1.451441 1.383292
C 5.022024 0.575746 1.393891
C 5.989571 0.020488 0.658775
C 6.525350 0.900478 0.648662
C 6.430753 1.454911 1.441857
C 5.964864 0.531200 1.422103
C 7.014052 0.007872 0.682927
C 7.545574 0.837342 0.645087
C 7.449269 1.429509 1.422362
C 7.014673 0.615605 1.392984
C 7.931733 0.031236 0.651311
C 8.507986 0.881775 0.603396
C 8.474817 1.441395 1.472309
C 7.963072 0.573794 1.382565
C 0.017030 1.771045 0.603638
C 0.498597 2.650912 0.579465
C 0.446044 3.147643 1.371980
C 0.072915 2.352280 1.431398
C 0.974790 1.720511 0.557069
C 1.536884 2.619585 0.610867
C 1.472596 3.145817 1.453353
C 0.960093 2.269993 1.411706
C 1.977280 1.729500 0.599035
C 2.500014 2.565470 0.597111
C 2.471102 3.180878 1.402339
C 1.977535 2.251373 1.401790
C 3.040298 1.763871 0.586274
C 3.501383 2.592181 0.611408
C 3.532505 3.202591 1.440906
C 2.970015 2.344092 1.413482
C 3.964499 1.779450 0.629985
C 4.546410 2.592679 0.592289
C 4.487732 3.165012 1.440259
C 3.991041 2.313089 1.421477
C 5.031580 1.705150 0.632660
C 5.462427 2.584022 0.642279
C 5.523541 3.213667 1.443836
C 4.958656 2.326481 1.430075
C 6.002458 1.700193 0.582777
C 6.457205 2.604429 0.590785
C 6.516215 3.191796 1.473378
C 6.034775 2.348614 1.402094
C 7.002803 1.733578 0.662498
C 7.534388 2.622212 0.631117
C 7.435381 3.149136 1.416547
C 6.961378 2.258985 1.424794
C 8.013052 1.764347 0.623969
C 8.515135 2.652656 0.611845
C 8.451807 3.168389 1.423216
C 8.016577 2.318574 1.399056
C 0.049728 3.484337 0.585559
C 0.510189 4.343456 0.664480
C 0.457771 4.908256 1.494547
C 0.050579 4.025731 1.500322
C 0.981329 3.488077 0.654556
C 1.490909 4.359058 0.587849
C 1.489339 4.863127 1.459288
C 1.017009 4.022906 1.464546
C 1.927988 3.460754 0.625489
C 2.452391 4.347199 0.632725
C 2.463572 4.913020 1.428570
C 1.984959 4.052159 1.465568
C 2.985327 3.434546 0.604207
C 3.472713 4.336807 0.626532
C 3.509697 4.863923 1.416016
C 2.970179 4.053620 1.463576
C 4.021518 3.476801 0.571451
C 4.458793 4.347079 0.593721
C 4.484200 4.947169 1.420644
C 4.038285 4.022644 1.422694
C 5.010153 3.432995 0.665883
C 5.489263 4.372290 0.625318
C 5.505296 4.938545 1.419097
C 4.953833 4.070992 1.457668
C 5.973053 3.485761 0.618149
C 6.528392 4.329118 0.590172
C 6.522662 4.865401 1.398303
C 5.999959 4.051201 1.402380
C 6.995966 3.433314 0.629918
C 7.488630 4.350522 0.599430
C 7.522751 4.903886 1.420091
C 6.991939 4.069941 1.416481
C 7.957190 3.460600 0.618949
C 8.486610 4.287812 0.622665
C 8.495610 4.904287 1.390898
C 8.057733 4.044425 1.460220
C 0.028885 5.200213 0.615638
C 0.476305 6.035857 0.586787
C 0.494332 6.706818 1.442642
C 0.020214 5.723180 1.416183
C 0.982834 5.179976 0.562974
C 1.528451 6.017655 0.613916
C 1.454433 6.608409 1.444818
C 0.983942 5.751080 1.433603
C 2.046135 5.184133 0.608426
C 2.496797 6.082311 0.580232
C 2.457536 6.610493 1.461783
C 1.961580 5.767111 1.422023
C 3.010333 5.207386 0.602132
C 3.500300 6.106321 0.645023
C 3.499489 6.679701 1.405241
C 3.034866 5.824523 1.443901
C 4.027615 5.216659 0.547854
C 4.478117 6.068712 0.560927
C 4.515326 6.601481 1.417985
C 4.047814 5.735722 1.448412
C 4.993866 5.117793 0.607437
C 5.475193 6.078101 0.578256
C 5.538317 6.647154 1.434182
C 4.966603 5.828926 1.405583
C 5.995620 5.223064 0.595995
C 6.464427 6.047510 0.608258
C 6.517530 6.661376 1.426560
C 6.044119 5.797603 1.432727
C 7.023356 5.195346 0.589819
C 7.484758 6.097783 0.574850
C 7.474310 6.626736 1.430841
C 6.989652 5.796026 1.462545
C 8.011179 5.184898 0.623940
C 8.475507 6.051651 0.591694
C 8.469460 6.611267 1.401416
C 7.976007 5.765450 1.372386
C 0.021636 6.960308 0.647163
C 0.527921 7.828538 0.628051
C 0.450031 8.351921 1.408616
C 0.006199 7.492881 1.437729
C 0.960762 6.915600 0.586086
C 1.501046 7.786120 0.605485
C 1.495819 8.393088 1.488288
C 0.965826 7.464020 1.440291
C 2.047685 6.933999 0.627245
C 2.536877 7.785000 0.657692
C 2.512263 8.395642 1.402565
C 1.977609 7.556766 1.403325
C 2.977316 6.957951 0.593665
C 3.512257 7.794398 0.662621
C 3.453105 8.380992 1.460116
C 2.977855 7.555037 1.463483
C 3.987085 6.960152 0.623360
C 4.534248 7.740173 0.630825
C 4.487881 8.316489 1.462323
C 3.972191 7.479492 1.426822
C 5.003413 6.974189 0.615812
C 5.509309 7.758640 0.622132
C 5.476370 8.362932 1.413432
C 5.006526 7.486366 1.436965
C 6.013763 6.977682 0.615748
C 6.477325 7.829099 0.590418
C 6.482636 8.411673 1.438297
C 5.970782 7.523579 1.462816
C 7.007651 6.908483 0.621293
C 7.513690 7.752622 0.606195
C 7.504789 8.375918 1.397493
C 7.004584 7.495200 1.413179
C 8.060570 6.951385 0.590351
C 8.475025 7.804575 0.637689
C 8.447162 8.370762 1.412596
C 8.049319 7.477994 1.389905
C 0.053574 0.049030 2.240709
C 0.481453 0.877423 2.274756
C 0.490038 1.407231 3.053407
C 0.016972 0.557410 3.149217
C 0.949963 0.008852 2.266048
C 1.495553 0.927367 2.249534
C 1.493399 1.465190 3.122827
C 0.989045 0.573993 3.011432
C 1.963999 0.015535 2.268644
C 2.481648 0.864881 2.257088
C 2.521292 1.427763 3.045637
C 1.955033 0.538349 3.043499
C 3.016661 0.032614 2.278659
C 3.475217 0.894262 2.240841
C 3.461354 1.425820 3.104351
C 2.970332 0.547268 3.046704
C 3.927945 0.001159 2.263581
C 4.519016 0.942822 2.239156
C 4.497869 1.448034 3.007854
C 3.961355 0.561345 3.056735
C 5.002836 0.001335 2.193035
C 5.454708 0.855729 2.216867
C 5.546109 1.442290 3.026244
C 4.991959 0.561260 3.021721
C 5.956430 0.008639 2.285792
C 6.483339 0.848246 2.259102
C 6.539694 1.434674 3.071489
C 6.007471 0.585011 3.092251
C 7.020133 0.027023 2.200396
C 7.475766 0.871897 2.239978
C 7.492197 1.457566 3.004606
C 6.999870 0.623233 3.060601
C 8.040673 0.016789 2.178779
C 8.486914 0.887957 2.274453
C 8.516585 1.480429 3.117226
C 7.998677 0.536676 3.077641
C 0.000878 1.762132 2.215169
C 0.476030 2.609342 2.257503
C 0.537083 3.153444 3.086949
C 0.060885 2.324694 3.108953
C 0.974373 1.757258 2.220587
C 1.454403 2.584115 2.261876
C 1.493979 3.160819 3.027166
C 1.066495 2.306262 3.058949
C 2.038448 1.744758 2.268032
C 2.506714 2.634893 2.277925
C 2.527433 3.126321 3.078531
C 2.037834 2.302523 3.064627
C 3.010418 1.742399 2.236611
C 3.467369 2.597767 2.246906
C 3.484677 3.143549 3.071793
C 2.983388 2.322742 3.080180
C 3.993416 1.691375 2.276238
C 4.548926 2.616124 2.266611
C 4.527801 3.172272 3.099980
C 3.973804 2.284704 3.036304
C 5.013009 1.677617 2.236701
C 5.453852 2.595345 2.225063
C 5.540800 3.125891 3.036117
C 4.932487 2.342863 3.041823
C 5.980499 1.772352 2.248965
C 6.479553 2.590344 2.265020
C 6.448257 3.174896 3.023996
C 6.031150 2.273903 3.084768
C 6.976225 1.736587 2.255458
C 7.517070 2.636040 2.291894
C 7.486940 3.131700 3.093396
C 7.031496 2.294570 3.113479
C 8.017741 1.755325 2.237437
C 8.512723 2.562387 2.251708
C 8.530479 3.166912 3.037858
C 7.949526 2.310086 3.095575
C 0.047198 3.469101 2.238439
C 0.546040 4.303976 2.205487
C 0.451494 4.900045 3.021055
C 0.033552 4.060819 3.124133
C 0.981679 3.483914 2.260464
C 1.485822 4.296016 2.278095
C 1.486764 4.898085 3.028131
C 1.024350 4.045871 3.059107
C 1.965567 3.472058 2.269057
C 2.466978 4.311915 2.231721
C 2.512205 4.912326 3.077164
C 1.996835 4.014546 3.044226
C 3.004302 3.508848 2.232926
C 3.556374 4.286244 2.253604
C 3.480456 4.870546 3.067348
C 3.000295 4.045030 3.046683
C 3.991872 3.469137 2.209521
C 4.483277 4.350586 2.267532
C 4.454884 4.906841 3.012393
C 4.039636 4.050550 3.090780
C 5.037912 3.465780 2.261332
C 5.485218 4.327980 2.229011
C 5.558447 4.905900 3.065841
C 4.982398 4.015499 3.054856
C 6.011643 3.449894 2.194509
C 6.451088 4.329748 2.256813
C 6.483629 4.888693 3.103616
C 6.011103 4.012168 3.089632
C 6.967718 3.475105 2.225164
C 7.502696 4.280119 2.267254
C 7.472502 4.904889 2.998254
C 6.948502 4.033630 3.077561
C 7.956006 3.473383 2.223994
C 8.467500 4.345432 2.210592
C 8.536126 4.929820 3.092021
C 7.997204 4.067756 3.050785
C 0.013720 5.231242 2.234426
C 0.502554 6.100425 2.268324
C 0.481248 6.648757 3.067709
C 0.010781 5.736562 3.057516
C 0.995106 5.220414 2.204863
C 1.515487 6.092287 2.301208
C 1.546891 6.619065 3.069050
C 0.966502 5.766970 3.053036
C 2.005447 5.209527 2.173517
C 2.481503 6.105897 2.279803
C 2.526504 6.658262 3.006525
C 1.972190 5.724588 3.081554
C 2.970300 5.160896 2.310876
C 3.500952 6.065440 2.224446
C 3.479964 6.652389 3.037332
C 2.991849 5.728669 3.034686
C 4.029598 5.163964 2.239671
C 4.526992 6.056658 2.226584
C 4.481330 6.617664 3.051400
C 4.055153 5.818918 3.049184
C 5.021604 5.212203 2.201867
C 5.431709 6.050072 2.270473
C 5.530824 6.650563 3.061756
C 4.967065 5.784031 3.046533
C 5.954851 5.193537 2.236581
C 6.554030 6.073172 2.248666
C 6.504235 6.616977 3.055953
C 5.959238 5.795895 3.060159
C 7.026450 5.195350 2.235597
C 7.491617 6.063161 2.191946
C 7.499780 6.623269 3.113374
C 7.012092 5.762339 3.007203
C 8.027281 5.154732 2.204941
C 8.510477 6.061106 2.218377
C 8.448390 6.619837 3.069867
C 7.986458 5.780412 3.004762
C 0.040964 6.887594 2.211086
C 0.489957 7.832251 2.305162
C 0.504127 8.364807 3.116957
C 0.035731 7.495346 3.086784
C 0.965724 6.934907 2.216387
C 1.456811 7.753460 2.242479
C 1.477944 8.426025 3.058402
C 0.996250 7.536444 3.061363
C 1.981829 6.900655 2.256944
C 2.484355 7.766714 2.200315
C 2.537566 8.397983 3.048235
C 1.985037 7.480033 3.014827
C 2.995313 6.886229 2.280897
C 3.532840 7.785761 2.184822
C 3.494385 8.416294 3.052218
C 2.982241 7.501668 3.054400
C 4.017920 6.960545 2.273534
C 4.536634 7.815408 2.239549
C 4.489691 8.322283 3.049070
C 3.989261 7.488562 3.003498
C 4.976710 6.944397 2.226959
C 5.433785 7.802778 2.229677
C 5.548648 8.381837 3.041608
C 5.022305 7.546393 3.012796
C 6.008498 6.930567 2.267832
C 6.519603 7.811645 2.309965
C 6.468859 8.361351 3.057361
C 6.042909 7.541932 3.059775
C 6.977164 6.931051 2.235352
C 7.483705 7.812641 2.229486
C 7.566191 8.357821 3.073498
C 6.940671 7.492951 3.056085
C 7.998957 6.947539 2.284193
C 8.488378 7.821462 2.218804
C 8.472456 8.337612 3.081274
C 8.050909 7.528399 3.044377
C 0.013633 0.002723 3.843860
C 0.505304 0.926244 3.899754
C 0.489774 1.443964 4.704339
C 0.018651 0.538946 4.756660
C 0.960869 0.018139 3.834727
C 1.498860 0.824556 3.859955
C 1.468250 1.477949 4.748171
C 0.960093 0.593357 4.704595
C 1.980788 0.002032 3.878819
C 2.483071 0.853409 3.938321
C 2.524484 1.439080 4.638797
C 1.992082 0.575871 4.638892
C 3.033863 0.004993 3.923846
C 3.454416 0.865102 3.871516
C 3.487801 1.426656 4.672651
C 2.958982 0.597058 4.678166
C 3.987052 0.039356 3.837738
C 4.488221 0.911714 3.887167
C 4.527163 1.398595 4.681599
C 4.011951 0.603978 4.664575
C 4.993266 0.002913 3.842564
C 5.534777 0.861907 3.868718
C 5.446987 1.471768 4.734425
C 4.987444 0.595915 4.752376
C 6.059121 0.003933 3.832452
C 6.468004 0.834414 3.883083
C 6.544597 1.449023 4.705872
C 5.987959 0.554088 4.739507
C 7.052403 0.010816 3.850447
C 7.513893 0.906130 3.839197
C 7.553271 1.483258 4.695708
C 7.038756 0.597570 4.685142
C 8.036437 0.068110 3.858727
C 8.509902 0.859752 3.862679
C 8.459622 1.410955 4.678868
C 7.988127 0.589708 4.654666
C 0.030082 1.785057 3.894427
C 0.472084 2.603884 3.884505
C 0.472799 3.174086 4.716570
C 0.033779 2.352907 4.653140
C 0.959614 1.728910 3.939662
C 1.486225 2.555551 3.826675
C 1.515660 3.134086 4.722951
C 0.994606 2.345431 4.724597
C 2.010346 1.749912 3.875997
C 2.478148 2.577333 3.918854
C 2.460778 3.208209 4.668366
C 2.008747 2.301550 4.647530
C 3.029555 1.731377 3.947825
C 3.477874 2.599555 3.906931
C 3.502217 3.209255 4.677097
C 2.983130 2.326309 4.730050
C 4.035900 1.716292 3.851631
C 4.462250 2.573388 3.920061
C 4.507438 3.152233 4.756138
C 3.981789 2.305832 4.720224
C 5.002259 1.775823 3.917077
C 5.484431 2.537731 3.859186
C 5.511201 3.147261 4.707668
C 4.977940 2.294744 4.707270
C 6.018882 1.770103 3.873797
C 6.542072 2.600985 3.870323
C 6.508066 3.230926 4.723290
C 6.039405 2.324392 4.693503
C 7.019924 1.749414 3.830510
C 7.476542 2.647066 3.904718
C 7.487162 3.187403 4.692049
C 7.016935 2.327331 4.679404
C 7.983974 1.743006 3.833878
C 8.485111 2.578385 3.882090
C 8.488570 3.141961 4.703242
C 8.009812 2.345780 4.678661
C 0.021429 3.462856 3.932035
C 0.523141 4.376221 3.889864
C 0.553324 4.919771 4.683296
C 0.040814 4.063002 4.667958
C 0.977414 3.499256 3.866785
C 1.502597 4.369877 3.878448
C 1.440411 4.900284 4.700493
C 1.023814 3.998504 4.706210
C 2.056638 3.496900 3.874790
C 2.492211 4.356596 3.843821
C 2.525237 4.904607 4.675727
C 1.979717 3.997187 4.736522
C 2.989494 3.461152 3.857991
C 3.480760 4.296200 3.872609
C 3.501470 4.900840 4.703955
C 3.031336 4.032307 4.689337
C 3.969003 3.454996 3.809917
C 4.483310 4.365946 3.846524
C 4.509245 4.926846 4.723283
C 4.035013 4.063992 4.721742
C 5.018133 3.492054 3.918350
C 5.540291 4.315322 3.879506
C 5.484271 4.944314 4.661294
C 5.002397 4.043301 4.648679
C 5.994279 3.437581 3.903249
C 6.498168 4.286873 3.891411
C 6.460811 4.892008 4.622700
C 6.027702 4.048197 4.749111
C 6.970032 3.472285 3.859961
C 7.468258 4.314118 3.901100
C 7.476077 4.925116 4.712562
C 7.041932 4.037517 4.706441
C 8.017570 3.506229 3.851185
C 8.534677 4.290528 3.936235
C 8.513466 4.894414 4.731951
C 7.992082 4.065000 4.721424
C 0.020316 5.160455 3.894828
C 0.514448 6.044273 3.911695
C 0.507484 6.704252 4.653850
C 0.006672 5.764074 4.727715
C 0.951728 5.153526 3.858231
C 1.492490 6.113139 3.857029
C 1.513238 6.633729 4.712912
C 1.010447 5.825894 4.637059
C 1.953791 5.180783 3.883482
C 2.457592 6.094218 3.881980
C 2.522756 6.666877 4.724685
C 1.991108 5.768130 4.759691
C 3.012878 5.200748 3.882587
C 3.474629 6.074568 3.919104
C 3.486245 6.600483 4.678111
C 2.992922 5.731897 4.677574
C 3.974338 5.194704 3.839359
C 4.502521 6.042980 3.911118
C 4.449645 6.611893 4.709635
C 4.025906 5.737684 4.693956
C 5.047679 5.198295 3.886286
C 5.517641 6.041272 3.853852
C 5.465725 6.609714 4.695309
C 5.031271 5.790325 4.679504
C 6.005798 5.248536 3.857753
C 6.555043 6.040100 3.860872
C 6.488325 6.681145 4.675957
C 5.988707 5.743081 4.635873
C 7.004700 5.217212 3.929411
C 7.512150 6.032639 3.914894
C 7.472759 6.643587 4.677641
C 6.973442 5.730632 4.657577
C 8.006245 5.210989 3.853607
C 8.474421 6.099943 3.908233
C 8.480630 6.675162 4.722830
C 8.032762 5.795765 4.664105
C 0.012614 6.948577 3.898521
C 0.546171 7.794331 3.853788
C 0.480805 8.347325 4.747530
C 0.006306 7.509019 4.673355
C 0.954638 6.899658 3.866568
C 1.541461 7.824456 3.869413
C 1.468202 8.344763 4.681739
C 1.023580 7.520309 4.688022
C 1.973565 6.940785 3.848643
C 2.494365 7.816126 3.848832
C 2.483410 8.326679 4.752779
C 1.986103 7.496345 4.674669
C 3.027946 6.891404 3.853522
C 3.491795 7.851302 3.856860
C 3.544468 8.347886 4.717883
C 3.020732 7.545311 4.680616
C 4.022761 6.921449 3.838967
C 4.542421 7.773362 3.862529
C 4.478119 8.383711 4.699890
C 3.953416 7.512050 4.688557
C 4.956561 6.910789 3.860994
C 5.489195 7.841977 3.883852
C 5.472177 8.375834 4.706702
C 4.997763 7.543390 4.748054
C 6.004716 6.905176 3.916078
C 6.474334 7.783652 3.868077
C 6.520953 8.380392 4.726414
C 5.972327 7.464735 4.665249
C 6.945106 6.921455 3.892081
C 7.517452 7.807851 3.943619
C 7.526338 8.354661 4.682540
C 6.994112 7.481653 4.745465
C 7.969280 6.970195 3.877391
C 8.520951 7.757315 3.843445
C 8.481778 8.367490 4.650339
C 7.985120 7.454228 4.680950
C 0.007779 0.074184 5.517702
C 0.511160 0.900711 5.506436
C 0.498124 1.485552 6.309440
C 0.003522 0.563587 6.271158
C 1.062138 0.053334 5.487516
C 1.552457 0.844390 5.495472
C 1.530081 1.481736 6.343098
C 1.021870 0.547864 6.319494
C 2.019705 0.038923 5.531272
C 2.484404 0.849700 5.529927
C 2.531350 1.464922 6.308069
C 1.997546 0.639413 6.311273
C 3.034707 0.005799 5.516652
C 3.516470 0.920791 5.528049
C 3.493250 1.452231 6.348483
C 2.983981 0.574565 6.313534
C 3.987171 0.014115 5.456778
C 4.528850 0.903812 5.563230
C 4.486902 1.444122 6.328016
C 3.968264 0.589237 6.306905
C 4.985329 0.033024 5.506253
C 5.563035 0.894622 5.499409
C 5.505443 1.499116 6.330615
C 5.014619 0.624588 6.304320
C 5.942086 0.007732 5.491506
C 6.460032 0.870906 5.529192
C 6.499084 1.393803 6.293413
C 6.016820 0.573230 6.328817
C 7.039716 0.006941 5.520662
C 7.486934 0.911530 5.535314
C 7.471806 1.410803 6.324341
C 6.973409 0.534316 6.337007
C 7.969509 0.027102 5.527113
C 8.531046 0.844189 5.499476
C 8.530206 1.464763 6.345933
C 8.053533 0.592114 6.373781
C 0.011084 1.691990 5.510049
C 0.552101 2.605536 5.504268
C 0.475112 3.186211 6.308310
C 0.017803 2.309257 6.308345
C 1.039204 1.714779 5.526484
C 1.514952 2.637575 5.533046
C 1.514742 3.197902 6.268604
C 0.992769 2.278411 6.304591
C 1.978312 1.730525 5.473755
C 2.484210 2.604920 5.551875
C 2.525736 3.183968 6.353675
C 1.969752 2.288098 6.332227
C 3.017264 1.709611 5.564434
C 3.505183 2.667554 5.491462
C 3.481251 3.129382 6.328178
C 3.045978 2.327643 6.291052
C 3.979422 1.706911 5.511634
C 4.532337 2.644761 5.526517
C 4.510355 3.205957 6.338995
C 3.941801 2.313057 6.346630
C 4.954518 1.748573 5.504986
C 5.471958 2.586315 5.565876
C 5.500660 3.149020 6.365393
C 4.971744 2.308545 6.300743
C 5.977398 1.685781 5.458324
C 6.447462 2.580770 5.490993
C 6.452885 3.149460 6.305352
C 5.969541 2.283696 6.311898
C 7.040470 1.739337 5.486389
C 7.519343 2.570058 5.529159
C 7.497671 3.155344 6.331482
C 6.983104 2.288505 6.387138
C 7.947184 1.704325 5.526264
C 8.551685 2.627074 5.486532
C 8.466570 3.186000 6.380009
C 7.951841 2.318853 6.379214
C 0.040741 3.478822 5.544976
C 0.554286 4.330121 5.533948
C 0.508630 4.850469 6.329929
C 0.012836 4.062052 6.292314
C 0.985854 3.496420 5.523250
C 1.509188 4.297335 5.496903
C 1.478133 4.939009 6.269396
C 0.969116 4.057120 6.355989
C 1.957747 3.493221 5.534897
C 2.552079 4.316232 5.520621
C 2.521085 4.955888 6.304192
C 1.981070 4.021321 6.331417
C 3.015687 3.417889 5.495901
C 3.469153 4.296945 5.521450
C 3.489858 4.939988 6.318087
C 3.004907 4.034120 6.336774
C 3.979212 3.445619 5.513562
C 4.555696 4.305693 5.482413
C 4.483233 4.939270 6.317605
C 4.029287 4.077143 6.360445
C 4.953951 3.454415 5.482456
C 5.465258 4.283351 5.501335
C 5.511650 4.948746 6.290091
C 4.972560 4.027738 6.373882
C 5.982009 3.532026 5.523237
C 6.494701 4.372804 5.516335
C 6.544471 4.894720 6.334726
C 6.034585 4.066710 6.311871
C 6.987940 3.439314 5.552503
C 7.490823 4.353813 5.474754
C 7.474169 4.921538 6.368283
C 6.954715 3.978110 6.320890
C 8.023480 3.491691 5.530138
C 8.538202 4.354676 5.521508
C 8.456635 4.915284 6.360752
C 7.998420 4.023527 6.357401
C 0.007225 5.243451 5.510127
C 0.473805 6.065374 5.543521
C 0.443871 6.657058 6.303895
C 0.013054 5.828660 6.309201
C 1.013151 5.220495 5.506605
C 1.556140 6.098573 5.516155
C 1.512907 6.617810 6.323912
C 0.944303 5.752551 6.334861
C 2.021807 5.141558 5.514634
C 2.506379 6.088525 5.566187
C 2.543055 6.620938 6.312256
C 2.006890 5.781643 6.384716
C 3.026695 5.229149 5.499701
C 3.445866 6.108896 5.503236
C 3.529107 6.593315 6.348902
C 3.028133 5.805393 6.356090
C 4.052921 5.169901 5.490350
C 4.522789 6.017415 5.485525
C 4.505167 6.613434 6.363861
C 4.024350 5.795016 6.310959
C 4.987008 5.233640 5.523407
C 5.543886 6.100944 5.502364
C 5.480541 6.666669 6.330675
C 5.025183 5.723619 6.330473
C 6.016965 5.192024 5.488879
C 6.531065 6.026796 5.543704
C 6.517447 6.602232 6.330770
C 5.936655 5.755558 6.360797
C 6.985665 5.211664 5.575220
C 7.491748 6.041818 5.546053
C 7.455519 6.645669 6.365738
C 6.989320 5.811072 6.302142
C 7.966771 5.182129 5.515259
C 8.495397 6.062890 5.518709
C 8.480743 6.592018 6.324034
C 8.041537 5.801550 6.291806
C 0.013213 6.976832 5.514490
C 0.527987 7.844364 5.551572
C 0.530043 8.349711 6.301437
C 0.008597 7.519303 6.349563
C 0.997652 6.920086 5.537385
C 1.478624 7.820835 5.561656
C 1.548060 8.411037 6.363007
C 1.014503 7.454829 6.353021
C 2.006022 6.957865 5.561570
C 2.536230 7.780711 5.479736
C 2.535329 8.345576 6.327827
C 1.971202 7.498027 6.299675
C 2.947905 6.913555 5.462337
C 3.434620 7.787423 5.503524
C 3.526180 8.331427 6.291475
C 2.985251 7.467852 6.343071
C 3.998904 6.946711 5.460614
C 4.521249 7.792795 5.479468
C 4.493290 8.394067 6.373513
C 4.005287 7.515233 6.310985
C 4.987408 6.935548 5.505373
C 5.489851 7.759011 5.562086
C 5.470665 8.374495 6.349178
C 5.005302 7.481872 6.371610
C 6.026932 6.926684 5.455201
C 6.503301 7.801657 5.506747
C 6.521592 8.346108 6.329910
C 5.966997 7.500316 6.364008
C 7.004772 6.954150 5.487947
C 7.456558 7.771824 5.460397
C 7.503306 8.370742 6.345583
C 7.037953 7.506999 6.365396
C 7.988883 6.959572 5.542708
C 8.482103 7.752679 5.523577
C 8.542271 8.367777 6.312553
C 7.955071 7.510896 6.300670
C 0.037733 0.049277 7.168640
C 0.489505 0.811658 7.155478
C 0.470830 1.475196 7.948236
C 0.007467 0.566016 8.014043
C 1.016976 0.003911 7.179277
C 1.512352 0.868970 7.094271
C 1.525057 1.491851 7.923697
C 1.006605 0.592812 7.967808
C 2.039617 0.020847 7.160604
C 2.516089 0.838378 7.150655
C 2.521919 1.484282 7.948251
C 1.987803 0.601661 7.926717
C 2.988934 0.033310 7.124438
C 3.560185 0.893873 7.154191
C 3.499059 1.407293 7.894543
C 2.994304 0.604074 8.010983
C 4.002164 0.022908 7.097759
C 4.544227 0.891684 7.117706
C 4.474963 1.443956 7.986324
C 4.027323 0.538449 7.932114
C 4.995196 0.023971 7.162850
C 5.471306 0.929456 7.145287
C 5.472739 1.426594 7.918806
C 4.992837 0.546364 8.008178
C 6.048571 0.030229 7.144340
C 6.519385 0.881086 7.157809
C 6.452681 1.464128 7.948540
C 5.963514 0.541617 8.000834
C 7.037145 0.053057 7.117101
C 7.523781 0.879713 7.114215
C 7.507341 1.465532 7.927135
C 6.981016 0.560905 7.945404
C 7.997669 0.012459 7.140269
C 8.532984 0.885999 7.153193
C 8.474522 1.474492 7.931219
C 7.994869 0.618484 7.964884
C 0.053061 1.742078 7.171635
C 0.503986 2.555263 7.103111
C 0.486830 3.178511 7.982637
C 0.007594 2.325877 7.949442
C 0.992563 1.760948 7.121273
C 1.465745 2.638498 7.140314
C 1.451463 3.178548 7.941743
C 1.019709 2.377181 7.943681
C 1.956208 1.716781 7.137542
C 2.501301 2.631319 7.196986
C 2.464344 3.132387 7.981393
C 1.973707 2.324623 7.974319
C 3.005364 1.747492 7.110615
C 3.525718 2.539806 7.113565
C 3.523933 3.169985 7.948934
C 3.057729 2.283779 7.969123
C 3.993115 1.758288 7.164938
C 4.503839 2.639219 7.153787
C 4.479333 3.181684 7.993208
C 3.976501 2.304619 7.932784
C 5.009374 1.700106 7.146348
C 5.483647 2.615578 7.166812
C 5.471278 3.180121 7.929956
C 4.952389 2.301357 7.936134
C 5.938977 1.701332 7.107189
C 6.534551 2.584860 7.127148
C 6.452093 3.175015 7.926765
C 5.948144 2.310205 7.962400
C 7.052472 1.733065 7.127239
C 7.498397 2.631855 7.131426
C 7.473828 3.216383 7.930885
C 6.999819 2.368722 7.962281
C 7.957875 1.774384 7.170039
C 8.498214 2.591401 7.154757
C 8.464752 3.201319 7.952539
C 8.032785 2.339794 7.992940
C 0.027823 3.388573 7.143791
C 0.528693 4.319222 7.150847
C 0.520358 4.881867 7.988724
C 0.041577 4.079129 7.951083
C 0.994978 3.463657 7.112319
C 1.522624 4.340688 7.087967
C 1.475819 4.863546 7.961168
C 1.027256 4.024902 7.936008
C 2.028946 3.429997 7.141651
C 2.501927 4.329807 7.091243
C 2.512075 4.883862 8.008299
C 1.969169 4.042289 7.912026
C 3.037064 3.487593 7.149014
C 3.502762 4.390473 7.146278
C 3.497611 4.926538 8.015168
C 2.977519 4.057979 7.925194
C 3.991163 3.492689 7.147641
C 4.548191 4.316182 7.138066
C 4.513395 4.968335 8.002825
C 4.018844 4.089255 7.953737
C 4.983387 3.509933 7.118861
C 5.460289 4.318520 7.143481
C 5.491199 4.878708 7.982668
C 4.981087 4.021349 7.923885
C 6.051854 3.432763 7.110068
C 6.546935 4.305118 7.177798
C 6.524893 4.933565 8.031916
C 6.016107 4.089859 7.944177
C 6.987213 3.474105 7.166005
C 7.459192 4.348978 7.160580
C 7.465015 4.962431 7.988414
C 6.967637 3.991970 7.965760
C 7.994866 3.443088 7.154489
C 8.490288 4.375535 7.145071
C 8.475101 4.868336 7.905900
C 7.980715 4.057336 7.969418
C 0.013855 5.137990 7.137927
C 0.495251 6.075339 7.142256
C 0.517771 6.638692 8.001695
C 0.003702 5.791379 7.933463
C 0.980912 5.218748 7.175449
C 1.476138 6.077592 7.174928
C 1.471950 6.665815 7.978881
C 1.051714 5.789111 7.963083
C 2.060120 5.215748 7.161291
C 2.527948 6.022023 7.120790
C 2.524191 6.631141 7.977642
C 1.995540 5.808930 7.959847
C 2.975640 5.173203 7.186474
C 3.516774 6.052818 7.138740
C 3.506049 6.585559 7.976641
C 2.994586 5.740649 7.942689
C 3.996220 5.204269 7.180798
C 4.519030 6.058534 7.145236
C 4.565535 6.634169 7.963420
C 4.021736 5.743903 7.935452
C 5.006487 5.172924 7.129578
C 5.499440 6.036506 7.169899
C 5.522797 6.674361 7.991687
C 5.023800 5.754390 7.963209
C 5.973375 5.196507 7.124519
C 6.517218 6.017521 7.137498
C 6.540210 6.611554 7.946635
C 6.022281 5.804321 7.961712
C 6.981335 5.256327 7.144565
C 7.517832 6.035268 7.159861
C 7.465743 6.612771 7.914472
C 7.036866 5.812389 7.968170
C 8.008220 5.193549 7.132117
C 8.522405 6.006401 7.105632
C 8.501907 6.681058 7.939849
C 7.988468 5.799238 7.970851
C 0.010603 6.922060 7.146355
C 0.490230 7.820461 7.155706
C 0.522366 8.406570 7.944745
C 0.040400 7.507255 7.980870
C 0.990658 6.896523 7.156400
C 1.532417 7.801863 7.180834
C 1.492681 8.431269 7.977032
C 1.024678 7.550798 7.988793
C 1.965437 6.928783 7.199994
C 2.493910 7.823197 7.172174
C 2.557792 8.411506 7.919231
C 1.989632 7.457466 7.942459
C 2.995971 6.894832 7.096173
C 3.457116 7.790816 7.097190
C 3.545581 8.336073 7.942742
C 2.956286 7.521858 7.972161
C 3.997071 6.913539 7.195226
C 4.506029 7.816065 7.198278
C 4.500470 8.385864 7.940634
C 3.990639 7.503538 8.011248
C 5.010207 6.892967 7.171854
C 5.463756 7.748893 7.157050
C 5.465988 8.317701 7.949295
C 4.951154 7.466399 7.935594
C 6.009651 6.904236 7.190184
C 6.489125 7.794125 7.114243
C 6.521284 8.394777 7.937201
C 5.963148 7.503009 7.955074
C 6.980024 6.978285 7.187161
C 7.453258 7.820413 7.185983
C 7.562256 8.370754 7.975506
C 7.051339 7.498810 7.929131
C 7.973808 6.907339 7.089710
C 8.467849 7.814096 7.172439
C 8.527348 8.361162 7.938290
C 7.964067 7.544422 7.989435
C 0.005226 0.047141 8.738627
C 0.515605 0.827928 8.782900
C 0.548432 1.412430 9.582930
C 0.059140 0.535611 9.593672
C 0.978093 0.039130 8.701700
C 1.498342 0.917444 8.749334
C 1.454170 1.441217 9.552126
C 0.961184 0.535844 9.581848
C 1.974258 0.028628 8.836254
C 2.529790 0.826903 8.804974
C 2.504065 1.447788 9.555331
C 1.959848 0.615888 9.586427
C 3.030574 0.009853 8.811732
C 3.500116 0.819648 8.799838
C 3.504250 1.405975 9.587968
C 3.011248 0.564421 9.534281
C 4.044112 0.026357 8.796205
C 4.512888 0.829784 8.752416
C 4.514983 1.462341 9.507546
C 4.039887 0.648068 9.583897
C 4.977791 0.002926 8.857420
C 5.510298 0.826120 8.776453
C 5.504288 1.393322 9.582440
C 4.968113 0.562948 9.541365
C 5.994000 0.005425 8.755151
C 6.505335 0.884558 8.792676
C 6.527498 1.392557 9.578506
C 6.034135 0.662114 9.568628
C 6.930445 0.014637 8.801156
C 7.511206 0.921989 8.824556
C 7.528146 1.406811 9.567899
C 6.959370 0.594318 9.545877
C 7.971602 0.024856 8.760164
C 8.498515 0.819071 8.775118
C 8.547456 1.446839 9.557075
C 8.027995 0.492597 9.587299
C 0.042510 1.713930 8.816436
C 0.451168 2.605957 8.798198
C 0.491130 3.211226 9.525725
C 0.006290 2.313055 9.535927
C 1.023483 1.782411 8.822702
C 1.486968 2.571292 8.769396
C 1.538969 3.155761 9.583443
C 1.035813 2.252254 9.586087
C 1.966959 1.790271 8.826141
C 2.529705 2.593030 8.806256
C 2.536966 3.174918 9.584885
C 2.014337 2.368064 9.587123
C 3.014221 1.744398 8.816596
C 3.541427 2.624345 8.797459
C 3.538018 3.140795 9.569462
C 2.997881 2.359712 9.575587
C 4.037065 1.705825 8.766863
C 4.503714 2.594726 8.773175
C 4.476153 3.230049 9.576880
C 3.989292 2.348517 9.553388
C 4.963206 1.706834 8.781924
C 5.499598 2.658370 8.779583
C 5.549166 3.158724 9.573447
C 4.992650 2.295439 9.580510
C 6.020540 1.717971 8.742788
C 6.502328 2.618447 8.762414
C 6.470421 3.178473 9.593704
C 6.008515 2.250837 9.581803
C 7.046824 1.747610 8.741273
C 7.494009 2.615681 8.814104
C 7.457281 3.144973 9.575162
C 6.965672 2.285566 9.588873
C 8.056639 1.678851 8.782550
C 8.540300 2.614469 8.784174
C 8.438005 3.200470 9.568228
C 7.971898 2.337001 9.571869
C 0.019935 3.485872 8.760566
C 0.502886 4.315951 8.832957
C 0.461899 4.905071 9.571540
C 0.014746 4.062924 9.584864
C 1.015956 3.446529 8.805528
C 1.565003 4.319550 8.763326
C 1.516627 4.932794 9.558358
C 0.971696 4.020245 9.547880
C 1.967250 3.499083 8.769132
C 2.485066 4.323593 8.784755
C 2.490431 4.931071 9.563114
C 1.973251 3.993702 9.565524
C 2.972550 3.426780 8.781719
C 3.510626 4.396688 8.754145
C 3.504922 4.941544 9.582748
C 2.941475 4.060600 9.546833
C 4.033223 3.475830 8.805598
C 4.507677 4.377745 8.744378
C 4.549213 4.927684 9.580940
C 4.070776 4.041059 9.578780
C 5.022959 3.427487 8.777574
C 5.496126 4.322068 8.706358
C 5.474520 4.916032 9.580264
C 5.078733 4.093852 9.577237
C 5.967076 3.436263 8.753200
C 6.456015 4.322875 8.755164
C 6.458497 4.942246 9.581120
C 6.040673 4.042789 9.554664
C 7.041546 3.469564 8.766167
C 7.536061 4.306467 8.776053
C 7.510046 4.829027 9.566859
C 6.989193 4.046588 9.527544
C 8.014481 3.452920 8.817314
C 8.472624 4.294737 8.764207
C 8.511644 4.923658 9.592100
C 7.949445 4.040621 9.579910
C 0.033094 5.194575 8.827917
C 0.472142 6.050316 8.723838
C 0.514870 6.598739 9.540385
C 0.008204 5.736438 9.518566
C 1.006018 5.183779 8.713529
C 1.533106 6.085143 8.824959
C 1.526961 6.658613 9.558983
C 1.008558 5.802655 9.550693
C 2.011081 5.181190 8.795601
C 2.512036 6.014624 8.810012
C 2.484513 6.586229 9.573628
C 2.062449 5.775667 9.582407
C 2.982823 5.210578 8.790845
C 3.523563 6.022805 8.790252
C 3.510028 6.632992 9.576848
C 2.929765 5.750162 9.568851
C 4.002067 5.145323 8.729786
C 4.487699 6.099423 8.736945
C 4.474683 6.590206 9.577490
C 3.956237 5.788238 9.576367
C 5.015619 5.167686 8.770825
C 5.462950 6.080570 8.721263
C 5.536106 6.628316 9.530236
C 4.969361 5.799072 9.573895
C 5.997709 5.162906 8.814605
C 6.476620 6.075474 8.801642
C 6.453799 6.707324 9.535274
C 6.038350 5.757870 9.561960
C 6.977504 5.231369 8.773675
C 7.539017 6.052562 8.788064
C 7.552018 6.648687 9.590571
C 6.972603 5.741806 9.547407
C 7.960318 5.204520 8.734402
C 8.482688 6.028421 8.758510
C 8.535486 6.629700 9.569188
C 7.986561 5.834984 9.565193
C 0.020459 6.913456 8.727828
C 0.517026 7.805009 8.807223
C 0.474218 8.357974 9.584994
C 0.020156 7.583908 9.556622
C 0.946849 6.910361 8.794420
C 1.479288 7.821933 8.790001
C 1.519828 8.390153 9.578843
C 1.022631 7.462685 9.568991
C 1.957905 6.927478 8.827311
C 2.529801 7.826783 8.817774
C 2.552832 8.422946 9.587301
C 1.967923 7.513681 9.538533
C 2.999060 6.931690 8.769621
C 3.554318 7.840118 8.792164
C 3.473425 8.374545 9.540708
C 3.006164 7.515017 9.547893
C 3.948323 6.942116 8.760743
C 4.498912 7.843024 8.746115
C 4.454547 8.374603 9.592481
C 4.034891 7.466098 9.590121
C 4.942337 6.920399 8.764737
C 5.516993 7.744354 8.777687
C 5.493265 8.335091 9.564714
C 5.021154 7.500863 9.518963
C 6.053904 6.927407 8.747168
C 6.488424 7.747627 8.773107
C 6.513882 8.307789 9.571251
C 6.021023 7.549168 9.586919
C 7.041520 6.912732 8.772833
C 7.461520 7.793427 8.738353
C 7.469717 8.366211 9.590644
C 7.067190 7.513404 9.534187
C 7.983324 6.913543 8.741406
C 8.527973 7.798989 8.785547
C 8.499941 8.349774 9.583858
C 8.026821 7.499611 9.591607
2160
Frame 4/10
C 0.001286 0.030267 0.095855
C 0.545275 0.924401 0.014464
C 0.521852 1.436775 0.796828
C 0.013938 0.567978 0.759037
C 0.876591 0.105756 0.035267
C 1.492477 0.932177 0.068336
C 1.508686 1.476902 0.778696
C 0.977976 0.505048 0.795916
C 2.086635 0.007506 0.057892
C 2.492679 0.927855 0.100803
C 2.420956 1.413209 0.852687
C 2.048799 0.628857 0.810879
C 2.909258 0.001604 0.055109
C 3.505790 0.873719 0.058335
C 3.491358 1.462424 0.771988
C 2.980757 0.579952 0.822852
C 4.068124 0.064735 0.008759
C 4.489126 0.862480 0.023506
C 4.503662 1.381539 0.757738
C 3.958058 0.600523 0.889746
C 5.100013 0.066665 0.009465
C 5.487727 0.779430 0.044191
C 5.407942 1.334193 0.802971
C 4.975798 0.519473 0.862115
C 5.900852 0.047351 0.072474
C 6.567386 0.832261 0.008416
C 6.448005 1.448398 0.766291
C 5.995296 0.605776 0.874501
C 7.085227 0.013269 0.040280
C 7.542455 0.837211 0.063706
C 7.437377 1.457974 0.807370
C 6.935302 0.567847 0.751870
C 8.074542 0.004460 0.023528
C 8.481271 0.891017 0.009952
C 8.424294 1.456792 0.790099
C 8.031545 0.668434 0.846625
C 0.001672 1.683201 0.107437
C 0.552242 2.565611 0.030377
C 0.431358 3.168741 0.739657
C 0.055257 2.306858 0.767868
C 1.061889 1.792955 0.047373
C 1.583683 2.634611 0.080613
C 1.489230 3.146901 0.830197
C 1.032689 2.253575 0.898767
C 2.038475 1.774548 0.002337
C 2.529900 2.643257 0.017782
C 2.501804 3.194827 0.844126
C 1.927686 2.316558 0.851944
C 2.970281 1.696914 0.005420
C 3.539244 2.699368 0.043036
C 3.533604 3.158945 0.733324
C 3.063924 2.347612 0.897153
C 3.961996 1.708274 0.070833
C 4.449900 2.602438 0.040321
C 4.568874 3.113681 0.783016
C 3.980161 2.346374 0.802954
C 4.972982 1.608289 0.036344
C 5.530645 2.597431 0.006315
C 5.542749 3.181776 0.893398
C 4.994893 2.303986 0.781991
C 5.981219 1.694039 0.031169
C 6.504055 2.590604 0.063979
C 6.508411 3.121862 0.848539
C 6.104108 2.320228 0.809630
C 7.044508 1.811310 0.010572
C 7.415070 2.557607 0.014432
C 7.464437 3.163683 0.825378
C 7.024807 2.259732 0.785631
C 8.044299 1.804309 0.042752
C 8.402944 2.541043 0.031447
C 8.490652 3.174363 0.869398
C 7.893367 2.299560 0.858917
C 0.020110 3.384083 0.013174
C 0.522252 4.310034 0.059693
C 0.441584 4.919705 0.829336
C 0.006397 3.998796 0.905924
C 0.948738 3.455237 0.096285
C 1.428992 4.317604 0.005058
C 1.541946 4.862782 0.794639
C 0.967817 4.022703 0.766690
C 2.032269 3.534042 0.038759
C 2.446368 4.284501 0.019452
C 2.490731 4.856262 0.861803
C 2.041846 4.083811 0.878018
C 2.918376 3.511154 0.052567
C 3.447561 4.299806 0.008216
C 3.570419 4.932688 0.791102
C 3.002947 4.075406 0.791947
C 3.914899 3.425808 0.081402
C 4.556754 4.315351 0.023790
C 4.447374 4.882691 0.764961
C 4.085667 4.029534 0.790742
C 5.028459 3.493848 0.006219
C 5.438622 4.342869 0.051627
C 5.547284 4.891955 0.757754
C 4.906346 4.115927 0.849638
C 6.027151 3.423905 0.028301
C 6.587299 4.329236 0.003081
C 6.459567 4.912839 0.755868
C 6.011648 3.969652 0.870137
C 7.031576 3.403812 0.051077
C 7.483697 4.278950 0.022643
C 7.468667 4.918653 0.808250
C 6.961553 3.963025 0.814963
C 7.971746 3.420329 0.027837
C 8.490921 4.357745 0.058717
C 8.551127 4.942219 0.854004
C 7.961862 4.103931 0.774754
C 0.037811 5.139651 0.041728
C 0.491338 5.956037 0.035499
C 0.472555 6.718570 0.802787
C 0.017850 5.711603 0.861497
C 1.050606 5.144949 0.032727
C 1.485196 6.022976 0.026129
C 1.544411 6.693289 0.800184
C 0.952858 5.742535 0.800061
C 1.970637 5.257463 0.007692
C 2.542448 6.164431 0.003694
C 2.521466 6.666816 0.789991
C 1.995541 5.804906 0.841014
C 3.039864 5.115252 0.020238
C 3.469491 6.041615 0.054154
C 3.480138 6.688640 0.717649
C 2.967777 5.809385 0.797955
C 3.957801 5.118894 0.049127
C 4.408674 6.081710 0.007891
C 4.496862 6.664609 0.784199
C 4.045832 5.737208 0.870701
C 5.076955 5.223179 0.024021
C 5.581360 6.036547 0.088774
C 5.528086 6.659648 0.835725
C 4.983113 5.809137 0.736707
C 6.014291 5.259084 0.034349
C 6.552690 6.112432 0.055141
C 6.466965 6.739045 0.808453
C 6.012981 5.762229 0.876511
C 7.008574 5.204172 0.013992
C 7.443524 6.076097 0.007862
C 7.423674 6.623097 0.822186
C 6.966947 5.726211 0.858745
C 8.040817 5.284587 0.063496
C 8.507362 6.095064 0.014246
C 8.486354 6.594270 0.768659
C 8.027109 5.806332 0.805594
C 0.040097 6.836673 0.003789
C 0.468701 7.780439 0.057839
C 0.526802 8.389298 0.764837
C 0.062473 7.508266 0.715072
C 1.081380 6.951217 0.026622
C 1.517001 7.827478 0.066570
C 1.542154 8.324581 0.770897
C 1.037693 7.538701 0.767706
C 1.990649 6.906576 0.031878
C 2.580751 7.840234 0.034440
C 2.409002 8.427669 0.783430
C 1.946608 7.514359 0.771183
C 3.026346 6.959173 0.059130
C 3.462661 7.822330 0.005657
C 3.429455 8.417709 0.778666
C 2.963777 7.493848 0.720336
C 4.019375 6.997788 0.033351
C 4.475270 7.819521 0.058437
C 4.490467 8.398995 0.802974
C 4.017997 7.507285 0.911762
C 5.010220 6.999858 0.012402
C 5.579582 7.842480 0.047078
C 5.525938 8.363795 0.785108
C 5.047507 7.485168 0.829871
C 6.001935 6.968403 0.040372
C 6.455393 7.856384 0.047412
C 6.533799 8.336340 0.758313
C 6.022038 7.542352 0.775386
C 6.955305 6.869248 0.018066
C 7.580465 7.871936 0.040739
C 7.401822 8.384474 0.762919
C 6.963733 7.473368 0.858213
C 7.962883 7.021687 0.006290
C 8.498317 7.727306 0.063607
C 8.564654 8.351305 0.863058
C 7.954834 7.445563 0.874946
C 0.009512 0.028658 1.719830
C 0.438120 0.904713 1.568097
C 0.510722 1.383248 2.373557
C 0.035881 0.570692 2.413521
C 0.969691 0.046557 1.571140
C 1.449069 0.810857 1.562277
C 1.542685 1.457455 2.501315
C 1.064405 0.622883 2.367448
C 2.009224 0.010932 1.634283
C 2.449720 0.854279 1.706269
C 2.518848 1.389741 2.435575
C 1.966692 0.646206 2.502156
C 3.014669 0.045838 1.697278
C 3.512800 0.905508 1.681182
C 3.500308 1.488359 2.442421
C 3.069933 0.621559 2.475085
C 3.984002 0.057551 1.676609
C 4.510110 0.865643 1.695003
C 4.478275 1.481836 2.426100
C 4.085721 0.569660 2.424501
C 5.009322 0.055279 1.618749
C 5.473014 0.851730 1.643888
C 5.451247 1.458416 2.444907
C 4.926737 0.581138 2.486765
C 6.019008 0.004560 1.559176
C 6.465509 0.870322 1.594506
C 6.484055 1.372295 2.425238
C 5.995920 0.524930 2.456560
C 6.946244 0.019750 1.579005
C 7.462285 0.920786 1.574293
C 7.412994 1.427380 2.473847
C 7.030559 0.556364 2.447876
C 8.059919 0.055613 1.544282
C 8.501229 0.912902 1.709906
C 8.513117 1.483494 2.401750
C 7.962054 0.519972 2.432102
C 0.026020 1.803713 1.657072
C 0.512722 2.675264 1.561635
C 0.519877 3.164563 2.401468
C 0.009615 2.272450 2.402116
C 1.031460 1.814225 1.639753
C 1.518675 2.606083 1.704649
C 1.484951 3.131183 2.480340
C 0.949775 2.275940 2.420274
C 2.065724 1.688208 1.654937
C 2.456468 2.568029 1.601179
C 2.490271 3.150822 2.516602
C 1.950969 2.362239 2.453422
C 2.994525 1.721563 1.639840
C 3.573630 2.542451 1.642405
C 3.544953 3.185782 2.428975
C 3.048488 2.350239 2.512196
C 4.002987 1.742400 1.551431
C 4.455617 2.624706 1.572190
C 4.555482 3.146547 2.410047
C 3.969798 2.344960 2.506681
C 5.087534 1.691627 1.641014
C 5.504213 2.563300 1.544980
C 5.482781 3.100483 2.447592
C 5.016865 2.294848 2.371349
C 5.970384 1.799877 1.636065
C 6.452481 2.699539 1.629431
C 6.581992 3.143502 2.403758
C 6.057859 2.294635 2.405723
C 7.071878 1.652358 1.678403
C 7.453600 2.588096 1.667245
C 7.497101 3.167049 2.411583
C 6.999510 2.344614 2.388381
C 8.006161 1.722600 1.568180
C 8.516948 2.594462 1.623514
C 8.429758 3.144359 2.434280
C 7.940731 2.256664 2.414570
C 0.049484 3.520474 1.618300
C 0.466973 4.360466 1.732882
C 0.436268 4.891268 2.380141
C 0.014086 4.048395 2.533269
C 0.957344 3.499178 1.629190
C 1.539613 4.293086 1.536445
C 1.534404 4.868410 2.494070
C 1.083916 3.973850 2.438946
C 2.046240 3.464497 1.630186
C 2.537981 4.399688 1.576634
C 2.471625 4.937479 2.511959
C 2.002420 4.124443 2.418771
C 3.003265 3.466855 1.644162
C 3.529727 4.427954 1.678672
C 3.481014 4.959386 2.436513
C 2.959214 4.060609 2.513450
C 4.005573 3.436762 1.579662
C 4.492141 4.344427 1.644427
C 4.505077 4.927600 2.390758
C 3.947276 4.008856 2.496682
C 4.989964 3.507190 1.589305
C 5.492413 4.287223 1.666308
C 5.407979 4.913999 2.478740
C 5.084699 4.038810 2.430531
C 5.968008 3.505098 1.619003
C 6.464748 4.276995 1.599114
C 6.560748 4.958141 2.436166
C 6.092041 4.027799 2.455657
C 6.998551 3.418718 1.701717
C 7.496512 4.327012 1.575133
C 7.515994 4.976971 2.456813
C 6.968147 4.007812 2.471266
C 7.980101 3.494493 1.632420
C 8.530434 4.321807 1.661276
C 8.497494 4.869710 2.429712
C 8.039610 3.994478 2.451911
C 0.094517 5.190124 1.523970
C 0.424849 6.083556 1.613142
C 0.461604 6.676545 2.476878
C 0.015396 5.823670 2.435053
C 0.980697 5.146275 1.684763
C 1.490697 6.081808 1.716956
C 1.433067 6.675512 2.508292
C 1.013788 5.822146 2.497280
C 2.021313 5.212345 1.575100
C 2.471924 6.113701 1.694076
C 2.442296 6.641377 2.499819
C 2.037013 5.734062 2.413564
C 3.028132 5.165593 1.570429
C 3.499043 6.013162 1.676261
C 3.440663 6.656299 2.376361
C 3.025615 5.838771 2.436211
C 4.018460 5.148135 1.643667
C 4.529047 6.006187 1.692488
C 4.457289 6.699213 2.487258
C 4.018249 5.829578 2.380048
C 5.097030 5.204532 1.632243
C 5.486718 6.092452 1.643209
C 5.465142 6.614879 2.529603
C 4.961471 5.733795 2.454348
C 6.050034 5.252485 1.594338
C 6.480479 6.057802 1.740955
C 6.547106 6.610301 2.432593
C 6.052578 5.775135 2.518424
C 6.978792 5.150118 1.677903
C 7.480223 6.110148 1.578616
C 7.577003 6.628225 2.470653
C 6.977705 5.748595 2.416320
C 8.042117 5.167617 1.634722
C 8.528743 6.071484 1.597869
C 8.578856 6.668557 2.486930
C 8.060852 5.757878 2.402615
C 0.021457 6.934824 1.605620
C 0.485275 7.850160 1.565022
C 0.461560 8.397919 2.423415
C 0.022531 7.477097 2.537634
C 0.988397 6.949071 1.527499
C 1.570827 7.806594 1.720287
C 1.458936 8.390882 2.542282
C 0.986302 7.398940 2.448920
C 2.007530 6.965144 1.708892
C 2.450749 7.748453 1.596300
C 2.435885 8.434852 2.473802
C 2.060781 7.523917 2.469518
C 2.986631 6.922828 1.698589
C 3.420383 7.796653 1.572730
C 3.556573 8.414048 2.461007
C 3.011169 7.535403 2.473699
C 3.966246 6.954652 1.529190
C 4.452292 7.758683 1.568067
C 4.559234 8.388118 2.434547
C 3.986982 7.498213 2.442682
C 4.944205 6.981186 1.595028
C 5.541375 7.771225 1.703467
C 5.509747 8.462600 2.467534
C 5.017038 7.470969 2.479713
C 6.033001 6.928541 1.545475
C 6.421907 7.735477 1.607522
C 6.575892 8.368539 2.370297
C 6.060218 7.502908 2.443193
C 7.008619 6.946231 1.633585
C 7.492934 7.779811 1.692708
C 7.503431 8.406720 2.372844
C 6.969494 7.508842 2.435623
C 8.060598 6.931373 1.592393
C 8.471902 7.793193 1.621720
C 8.434152 8.296697 2.446971
C 8.002705 7.524852 2.499229
C 0.101481 0.034564 3.307813
C 0.564430 0.830197 3.248177
C 0.442813 1.497622 4.037757
C 0.022722 0.603416 4.047755
C 1.064694 0.072750 3.288785
C 1.488561 0.893052 3.312641
C 1.493384 1.452082 4.099037
C 1.034135 0.555726 4.137891
C 1.970873 0.088140 3.343640
C 2.481707 0.859721 3.230947
C 2.469165 1.377155 4.083270
C 1.951456 0.621759 4.055046
C 3.054936 0.006750 3.289749
C 3.520175 0.882031 3.365749
C 3.554939 1.504534 4.073906
C 2.992601 0.648309 4.115481
C 4.050889 0.025396 3.222182
C 4.571230 0.909362 3.299567
C 4.561059 1.446513 4.018728
C 3.992910 0.638179 4.061337
C 5.015735 0.034186 3.244094
C 5.481792 0.842551 3.314597
C 5.463087 1.503533 4.083130
C 4.980827 0.614240 3.999304
C 6.043396 0.042681 3.217782
C 6.518290 0.856741 3.252886
C 6.441891 1.517914 4.106647
C 5.983200 0.575606 4.012185
C 6.914577 0.017084 3.237767
C 7.465144 0.815701 3.207167
C 7.500981 1.378461 4.181663
C 6.991345 0.603036 4.098290
C 8.001709 0.066667 3.328236
C 8.544545 0.850397 3.320473
C 8.511983 1.423400 4.052943
C 7.926012 0.583319 4.052534
C 0.009293 1.649351 3.246497
C 0.546915 2.591050 3.287161
C 0.455423 3.165825 4.084275
C 0.054418 2.321757 3.938215
C 1.016389 1.777953 3.272783
C 1.492834 2.610506 3.162596
C 1.566994 3.169168 4.129695
C 0.999056 2.266452 4.047767
C 2.011440 1.715803 3.195566
C 2.515348 2.563518 3.219588
C 2.530872 3.197570 4.074826
C 1.946403 2.360076 4.061810
C 2.983518 1.815007 3.219542
C 3.546991 2.554048 3.302661
C 3.527003 3.184291 4.022526
C 2.995145 2.349214 4.080535
C 4.051858 1.714501 3.305077
C 4.424725 2.672623 3.234381
C 4.539425 3.184333 4.099521
C 3.960973 2.332842 4.158449
C 5.010474 1.795483 3.320846
C 5.424556 2.601655 3.331703
C 5.504658 3.129068 4.036894
C 5.018592 2.371156 4.065782
C 6.032841 1.750809 3.259832
C 6.520840 2.593192 3.277495
C 6.541812 3.170985 4.040725
C 6.093251 2.266758 4.055184
C 7.015729 1.766981 3.272681
C 7.554802 2.655086 3.318850
C 7.475734 3.240242 4.079135
C 7.074389 2.349411 4.086945
C 8.053757 1.725819 3.306601
C 8.466388 2.621700 3.347221
C 8.518696 3.243110 4.053118
C 7.954405 2.322679 4.145465
C 0.047342 3.548891 3.202533
C 0.452790 4.305991 3.191200
C 0.472700 5.007254 4.035912
C 0.079368 3.981914 4.102714
C 0.964365 3.534669 3.276308
C 1.468787 4.378716 3.234028
C 1.417804 4.987753 4.068820
C 1.016210 4.024778 4.131063
C 1.996253 3.524569 3.252790
C 2.542484 4.302053 3.203567
C 2.561162 4.884638 4.131513
C 1.954756 4.026026 4.125618
C 2.990637 3.435331 3.250698
C 3.484202 4.240288 3.205075
C 3.466535 4.946488 4.046444
C 3.046555 3.993224 4.040531
C 4.048475 3.421662 3.276112
C 4.543485 4.369370 3.278237
C 4.546954 4.841565 4.076116
C 3.914125 3.998738 4.094383
C 4.968552 3.487565 3.243408
C 5.451916 4.361844 3.334007
C 5.580130 4.971952 4.119770
C 5.006180 4.119156 4.047713
C 5.941944 3.481920 3.270915
C 6.425631 4.346352 3.356758
C 6.516377 4.838703 4.085393
C 6.026392 3.987670 4.145299
C 6.949303 3.436885 3.257440
C 7.532983 4.398929 3.228335
C 7.519756 4.873124 4.133738
C 6.920724 3.963765 4.065801
C 8.053074 3.462023 3.300891
C 8.537087 4.287363 3.321611
C 8.456660 4.915663 4.118088
C 8.070887 4.044509 4.028518
C 0.042027 5.196786 3.216381
C 0.543692 6.094253 3.230224
C 0.572420 6.571226 4.086881
C 0.010279 5.853737 4.045602
C 1.053492 5.174466 3.219253
C 1.528594 6.019774 3.277956
C 1.522031 6.644436 3.987315
C 0.952130 5.758427 4.112190
C 1.897869 5.218484 3.274337
C 2.479716 5.972811 3.247930
C 2.483052 6.623036 4.083126
C 1.966665 5.787504 4.140665
C 2.988833 5.264838 3.290199
C 3.521678 6.088480 3.258011
C 3.438881 6.657967 4.097384
C 2.972502 5.727717 4.064053
C 4.075999 5.218473 3.289016
C 4.443143 6.101810 3.307330
C 4.467879 6.628817 4.104810
C 4.031812 5.697132 4.109805
C 5.029312 5.244882 3.252351
C 5.488322 6.005256 3.277690
C 5.504625 6.567779 4.061728
C 4.994379 5.701143 4.058975
C 6.010320 5.244250 3.305688
C 6.492551 6.003007 3.297827
C 6.559558 6.597719 4.058621
C 6.050506 5.813946 4.085454
C 7.047744 5.137158 3.211285
C 7.572605 6.113252 3.266791
C 7.520688 6.613952 4.005759
C 7.024862 5.827011 4.056576
C 8.019142 5.154164 3.205663
C 8.546024 6.081213 3.312743
C 8.494937 6.631673 4.126398
C 7.969379 5.776283 4.126421
C 0.009156 6.888876 3.200450
C 0.528770 7.785820 3.215471
C 0.557394 8.311541 4.097632
C 0.096924 7.562975 4.092223
C 0.956185 6.928885 3.282297
C 1.455260 7.774342 3.214769
C 1.453479 8.353615 4.048459
C 1.107350 7.542929 4.108636
C 1.907197 6.922340 3.278496
C 2.432819 7.825393 3.302799
C 2.511169 8.359270 4.165077
C 1.989137 7.592498 4.112921
C 2.966728 6.882943 3.306486
C 3.538700 7.780553 3.274769
C 3.455577 8.381216 4.007726
C 3.014862 7.475696 4.177598
C 4.056363 6.954669 3.227977
C 4.523899 7.888658 3.306273
C 4.413149 8.337608 4.108482
C 3.945112 7.562915 4.064714
C 4.922987 6.943311 3.258578
C 5.470052 7.779392 3.197731
C 5.524579 8.330879 4.119442
C 5.003485 7.456197 4.134885
C 5.964164 6.858593 3.292579
C 6.499904 7.812980 3.263434
C 6.495118 8.424017 4.066658
C 6.033822 7.474882 4.128376
C 7.060946 6.888849 3.288590
C 7.472292 7.789693 3.238153
C 7.426504 8.395154 4.013111
C 6.987907 7.467937 4.132893
C 7.983505 6.896099 3.295169
C 8.594307 7.845806 3.281371
C 8.462347 8.355388 4.078387
C 7.921314 7.442292 4.127915
C 0.023577 0.060814 4.793655
C 0.480170 0.861368 4.959276
C 0.531632 1.457956 5.773984
C 0.063514 0.595310 5.719386
C 1.038595 0.005686 4.925676
C 1.587540 0.850694 4.880648
C 1.494418 1.389198 5.723830
C 1.020263 0.605258 5.784692
C 2.038046 0.020837 4.978558
C 2.516283 0.824131 4.937464
C 2.540359 1.385481 5.713530
C 2.048552 0.613533 5.766313
C 3.056010 0.074464 4.867802
C 3.499742 0.835217 4.948737
C 3.448556 1.428519 5.763307
C 2.997028 0.561298 5.693758
C 3.961191 0.023551 4.883280
C 4.472977 0.852180 4.945630
C 4.466519 1.531474 5.690181
C 4.057766 0.528306 5.757260
C 4.999601 0.013188 4.931497
C 5.553264 0.883069 4.879772
C 5.552981 1.483689 5.692977
C 5.078799 0.583588 5.714706
C 6.010795 0.001111 4.893766
C 6.436702 0.854321 4.835280
C 6.424181 1.456167 5.700231
C 6.030502 0.591156 5.724412
C 7.071859 0.026455 4.862703
C 7.500517 0.968344 4.909288
C 7.496761 1.491351 5.781445
C 6.968417 0.621862 5.766960
C 7.969357 0.022064 4.956192
C 8.455526 0.811733 4.915971
C 8.515176 1.480526 5.735748
C 7.936209 0.524210 5.754734
C 0.032404 1.809489 4.858502
C 0.477138 2.634618 4.929225
C 0.484120 3.098491 5.695505
C 0.030755 2.244893 5.676830
C 0.994720 1.767974 4.839674
C 1.563009 2.600061 4.880657
C 1.487875 3.217692 5.710696
C 1.046909 2.264460 5.749022
C 1.969277 1.761176 4.849690
C 2.445659 2.664289 4.874881
C 2.481357 3.217128 5.720344
C 2.067897 2.303814 5.640213
C 3.059218 1.764014 4.952158
C 3.463642 2.624470 4.935946
C 3.503834 3.214442 5.633090
C 2.917157 2.333829 5.706209
C 3.968952 1.701871 4.862667
C 4.462209 2.615669 4.957133
C 4.474115 3.186317 5.620097
C 3.928220 2.343755 5.682328
C 5.042219 1.804549 4.894555
C 5.475105 2.504169 4.902129
C 5.544401 3.199433 5.698427
C 5.005106 2.357934 5.735669
C 5.948133 1.755390 4.820761
C 6.454828 2.610052 4.959924
C 6.537795 3.147051 5.779507
C 6.054210 2.321553 5.789112
C 7.063138 1.723149 4.871728
C 7.508235 2.565158 4.972628
C 7.434342 3.166738 5.723268
C 7.039652 2.285041 5.658242
C 8.062608 1.724065 4.922046
C 8.548013 2.532213 4.928564
C 8.550981 3.135612 5.715024
C 7.964150 2.342072 5.741675
C 0.058005 3.482901 4.866171
C 0.524558 4.371045 4.810540
C 0.475462 4.837404 5.676397
C 0.006308 4.069118 5.731859
C 1.031553 3.469169 4.910845
C 1.509056 4.348373 4.956019
C 1.477055 4.976544 5.694295
C 1.085648 4.039506 5.701136
C 1.963349 3.454475 4.949448
C 2.536870 4.322742 4.826652
C 2.449290 4.921044 5.765442
C 2.006702 4.103946 5.693500
C 2.976878 3.521241 4.919048
C 3.438776 4.304917 4.891552
C 3.536554 4.933389 5.721734
C 2.999261 4.021207 5.672543
C 4.028236 3.508433 4.914140
C 4.511758 4.359180 4.858067
C 4.573754 4.928926 5.717547
C 4.030944 4.047144 5.804184
C 5.042455 3.496800 4.883768
C 5.569964 4.301698 4.890044
C 5.439444 4.942615 5.725289
C 4.989094 4.045593 5.713250
C 5.962915 3.439049 4.952569
C 6.558766 4.267795 4.921515
C 6.465879 4.910631 5.662660
C 5.993225 4.074153 5.655423
C 7.045077 3.459249 4.843293
C 7.467585 4.345663 4.844857
C 7.467366 4.837662 5.708779
C 7.020855 4.016470 5.693653
C 8.072119 3.426381 4.848956
C 8.501584 4.405009 4.970132
C 8.509479 4.940600 5.641182
C 8.046700 4.009082 5.733681
C 0.101979 5.166053 4.871862
C 0.552777 6.051964 4.879492
C 0.553356 6.662851 5.691910
C 0.031779 5.693076 5.787350
C 1.000956 5.207692 4.964825
C 1.517391 6.027608 4.915078
C 1.505367 6.661079 5.701121
C 0.988907 5.792490 5.769821
C 1.974549 5.230202 4.818774
C 2.561022 6.086182 4.830464
C 2.491649 6.658834 5.673659
C 1.982338 5.818091 5.657877
C 3.068688 5.235289 4.892192
C 3.472308 6.009552 4.864601
C 3.455629 6.637831 5.633517
C 3.032890 5.804589 5.667898
C 4.000384 5.204470 4.964966
C 4.495711 6.072430 4.955953
C 4.482595 6.650671 5.814224
C 4.010164 5.824763 5.751088
C 5.076374 5.187274 4.906647
C 5.545518 6.093576 4.948427
C 5.523744 6.671110 5.644099
C 4.960823 5.763033 5.679017
C 5.916680 5.178479 4.899233
C 6.481553 6.087212 4.857444
C 6.507780 6.636976 5.740518
C 5.968986 5.696372 5.772990
C 6.939910 5.148189 4.910018
C 7.455168 6.114991 4.866107
C 7.522347 6.574849 5.686280
C 6.993454 5.739308 5.683068
C 8.055610 5.178847 4.941530
C 8.481387 5.982618 4.915493
C 8.496653 6.681038 5.734053
C 8.033087 5.852715 5.692758
C 0.019420 6.937887 4.919486
C 0.549296 7.856166 4.955621
C 0.514036 8.407075 5.750884
C 0.033167 7.484926 5.830344
C 1.044515 6.931851 4.957325
C 1.484501 7.746622 4.882434
C 1.477271 8.389439 5.750268
C 0.980973 7.450563 5.725444
C 1.974945 6.872324 4.826350
C 2.483207 7.779252 4.835788
C 2.448874 8.347265 5.687999
C 2.056788 7.484359 5.736172
C 3.034643 6.950679 4.883381
C 3.474980 7.823664 4.872345
C 3.494168 8.381954 5.751892
C 2.942748 7.512183 5.688663
C 3.997152 6.909159 4.849242
C 4.440039 7.709848 4.874416
C 4.465098 8.396506 5.690563
C 4.040050 7.573138 5.717353
C 4.986749 6.969643 4.947302
C 5.500973 7.733166 4.951514
C 5.539605 8.410876 5.661904
C 5.053095 7.451974 5.733735
C 6.060737 6.855701 4.902573
C 6.438811 7.732543 4.980239
C 6.492345 8.420169 5.707985
C 5.932930 7.474301 5.811098
C 7.061759 6.959899 4.952262
C 7.415699 7.748607 4.872328
C 7.524683 8.429384 5.734416
C 7.084970 7.482858 5.669521
C 8.010585 6.909975 4.862003
C 8.485362 7.744405 4.872928
C 8.462705 8.359018 5.739428
C 8.049406 7.573829 5.768356
C 0.061299 0.003847 6.591512
C 0.489800 0.905926 6.465262
C 0.574143 1.447913 7.337823
C 0.040816 0.597780 7.433504
C 1.063799 0.040161 6.607185
C 1.429587 0.849220 6.571558
C 1.496663 1.387190 7.361317
C 0.941371 0.496571 7.337517
C 1.925076 0.035275 6.493108
C 2.513074 0.806262 6.489346
C 2.566767 1.415130 7.328398
C 2.057991 0.551265 7.312359
C 3.043809 0.005009 6.504301
C 3.483383 0.854704 6.428108
C 3.580941 1.441555 7.305875
C 3.063712 0.532251 7.355866
C 3.999507 0.011423 6.543096
C 4.474959 0.927882 6.515405
C 4.573279 1.406874 7.300414
C 4.073782 0.578090 7.362170
C 4.962624 0.039914 6.627821
C 5.555176 0.811058 6.549125
C 5.506371 1.449548 7.380972
C 5.044110 0.567587 7.278941
C 6.042226 0.041861 6.468948
C 6.465999 0.793193 6.534319
C 6.484611 1.400476 7.268217
C 5.978197 0.504137 7.315807
C 6.984697 0.004896 6.572931
C 7.595803 0.831181 6.503192
C 7.600046 1.473443 7.319425
C 7.096414 0.593540 7.412993
C 7.949018 0.016629 6.559665
C 8.459857 0.948624 6.533215
C 8.450035 1.488137 7.369791
C 7.967658 0.566361 7.450936
C 0.011227 1.736772 6.606319
C 0.513153 2.611489 6.521968
C 0.504274 3.138495 7.317591
C 0.001758 2.250073 7.313552
C 1.019325 1.792432 6.513563
C 1.519626 2.513127 6.560512
C 1.512668 3.242138 7.325479
C 1.054188 2.281640 7.347618
C 1.993658 1.698414 6.590587
C 2.555234 2.618927 6.553960
C 2.459662 3.214201 7.397575
C 1.965661 2.389395 7.344189
C 3.041874 1.686048 6.581641
C 3.494050 2.574916 6.568919
C 3.425569 3.183990 7.369708
C 2.999555 2.349919 7.311257
C 3.989421 1.720131 6.501720
C 4.445169 2.627187 6.492936
C 4.468526 3.181164 7.386693
C 3.978217 2.366532 7.306779
C 4.987345 1.748340 6.533708
C 5.464287 2.501173 6.490219
C 5.554814 3.126174 7.380518
C 5.009386 2.354471 7.279900
C 6.025608 1.746661 6.614381
C 6.450409 2.540854 6.604368
C 6.489083 3.113219 7.278082
C 6.033723 2.396237 7.384967
C 7.051284 1.712146 6.580841
C 7.435281 2.562255 6.526530
C 7.525101 3.197841 7.323735
C 6.929756 2.289121 7.318672
C 8.087021 1.686250 6.530039
C 8.586060 2.582406 6.537411
C 8.405004 3.156634 7.383471
C 8.033743 2.239355 7.414243
C 0.005364 3.530078 6.590558
C 0.472756 4.317493 6.473777
C 0.561224 4.937660 7.404609
C 0.081517 4.111948 7.407556
C 0.998224 3.518025 6.503524
C 1.498416 4.285978 6.495317
C 1.582616 4.908638 7.433038
C 0.952819 3.995601 7.349979
C 2.007915 3.530521 6.561184
C 2.456141 4.335019 6.535896
C 2.520054 4.887452 7.299730
C 1.944874 4.114719 7.339351
C 3.007121 3.496988 6.561085
C 3.529198 4.310418 6.477646
C 3.531457 4.938092 7.321641
C 3.032246 3.990644 7.369340
C 3.992966 3.480723 6.446263
C 4.576030 4.326010 6.605255
C 4.429130 4.933981 7.359219
C 4.043555 4.089635 7.404194
C 5.002505 3.424822 6.581744
C 5.508093 4.354970 6.535287
C 5.529232 4.961976 7.334497
C 5.009531 3.944463 7.367123
C 6.036595 3.513875 6.597188
C 6.448350 4.355524 6.514058
C 6.539743 4.942111 7.361736
C 5.986428 3.996747 7.415490
C 6.977161 3.472153 6.547026
C 7.554884 4.272927 6.544122
C 7.461740 5.026840 7.354927
C 7.005408 3.985297 7.277948
C 7.958001 3.423053 6.492015
C 8.525612 4.371065 6.509428
C 8.454111 4.936993 7.348623
C 8.068354 4.033366 7.295297
C 0.079495 5.241237 6.473350
C 0.486729 6.012843 6.478114
C 0.569824 6.638065 7.393275
C 0.011889 5.778132 7.283748
C 0.944973 5.176398 6.456927
C 1.525922 6.111036 6.594726
C 1.573724 6.590539 7.360581
C 1.030330 5.818838 7.321164
C 1.979133 5.248403 6.568254
C 2.516162 6.037378 6.511688
C 2.524346 6.540140 7.353487
C 2.042310 5.765746 7.290462
C 2.993971 5.125732 6.490399
C 3.486589 6.085516 6.539201
C 3.559101 6.644678 7.344224
C 3.021424 5.804369 7.274383
C 3.993944 5.222050 6.595797
C 4.423969 6.110722 6.524094
C 4.446808 6.655358 7.290794
C 3.948443 5.728986 7.293532
C 5.068307 5.164430 6.504797
C 5.465242 6.114792 6.486535
C 5.477761 6.618263 7.432124
C 5.055732 5.748968 7.308655
C 6.025075 5.275239 6.536084
C 6.482740 6.048819 6.599799
C 6.490958 6.601640 7.404348
C 5.960672 5.773338 7.342311
C 6.967539 5.203879 6.463371
C 7.460951 5.994790 6.554692
C 7.429885 6.663862 7.353536
C 6.974610 5.866086 7.327468
C 7.980150 5.191070 6.482424
C 8.473057 5.966082 6.560222
C 8.573254 6.649669 7.380685
C 7.949394 5.739770 7.304714
C 0.036822 6.835074 6.564519
C 0.515453 7.751951 6.480497
C 0.475643 8.336567 7.331447
C 0.001743 7.426069 7.355850
C 1.071131 6.879512 6.558713
C 1.482866 7.820638 6.539375
C 1.563486 8.408707 7.381360
C 1.021102 7.545141 7.260625
C 1.972543 6.918128 6.468097
C 2.422786 7.774397 6.469036
C 2.509329 8.407678 7.388595
C 1.931103 7.483043 7.271759
C 3.034068 6.942763 6.519504
C 3.539252 7.689417 6.550706
C 3.432345 8.387490 7.383602
C 3.036821 7.474089 7.307064
C 3.978814 6.944366 6.519312
C 4.470735 7.810357 6.519283
C 4.519720 8.339375 7.366082
C 3.922942 7.504975 7.340046
C 4.903124 6.935106 6.520612
C 5.542300 7.743536 6.620473
C 5.432767 8.404302 7.378043
C 5.010021 7.536840 7.382183
C 5.983148 7.010335 6.601778
C 6.505348 7.858625 6.570633
C 6.454936 8.324471 7.377480
C 6.055202 7.549953 7.315647
C 7.028942 6.916138 6.589686
C 7.421236 7.842917 6.527205
C 7.512674 8.324423 7.326122
C 6.972361 7.591562 7.375591
C 7.952923 6.919247 6.482413
C 8.470096 7.892106 6.495830
C 8.438800 8.355647 7.369951
C 8.043134 7.498671 7.393929
C 0.028165 0.038563 8.026187
C 0.499489 0.903032 8.131357
C 0.517018 1.392721 8.941652
C 0.022388 0.590700 8.904458
C 1.046965 0.093094 8.112912
C 1.491974 0.889531 8.107755
C 1.544020 1.516867 8.961692
C 1.054501 0.603103 9.050064
C 1.932113 0.009570 8.179514
C 2.453467 0.847747 8.100892
C 2.548526 1.401322 9.001408
C 1.969300 0.652561 8.992836
C 2.997201 0.053601 8.146441
C 3.537487 0.882552 8.207506
C 3.417452 1.454840 8.992246
C 3.030745 0.621102 8.915593
C 3.999169 0.003220 8.112723
C 4.582235 0.818265 8.089365
C 4.410706 1.408130 9.003132
C 4.019449 0.576721 9.072675
C 5.057546 0.045455 8.054315
C 5.495700 0.896060 8.255491
C 5.443780 1.485023 9.003281
C 4.983403 0.571832 8.979669
C 6.004003 0.017333 8.122147
C 6.494983 0.857421 8.064437
C 6.519206 1.412366 8.941615
C 5.969169 0.599159 9.048200
C 7.040788 0.003742 8.100776
C 7.513039 0.865683 8.247827
C 7.512270 1.515043 8.934763
C 7.049857 0.648909 8.986695
C 8.052089 0.069152 8.158910
C 8.529211 0.922746 8.196073
C 8.469961 1.419052 9.047625
C 8.070824 0.567287 9.042785
C 0.102739 1.794261 8.146036
C 0.483397 2.626409 8.244884
C 0.457417 3.218272 8.943716
C 0.103662 2.271625 8.953268
C 0.939423 1.669308 8.152908
C 1.527162 2.627904 8.257074
C 1.486246 3.184635 9.053595
C 1.057240 2.328594 9.037272
C 2.002213 1.733708 8.125940
C 2.500884 2.656447 8.221956
C 2.494118 3.160664 8.882904
C 1.941519 2.328139 8.933497
C 2.956307 1.740577 8.186556
C 3.471108 2.529364 8.201535
C 3.419019 3.176158 9.040263
C 3.034678 2.386941 8.974529
C 3.942574 1.768202 8.237783
C 4.463051 2.592861 8.222281
C 4.487939 3.200862 9.043559
C 3.934406 2.324705 9.020505
C 5.027348 1.660264 8.183521
C 5.501359 2.594016 8.235792
C 5.512110 3.202072 8.934942
C 4.983581 2.293295 9.017942
C 5.952430 1.750705 8.230895
C 6.518680 2.522131 8.197279
C 6.433869 3.170816 8.954971
C 6.060538 2.291945 9.000584
C 7.057630 1.679100 8.146744
C 7.470171 2.632051 8.210365
C 7.518125 3.247812 8.984816
C 6.946696 2.301702 9.043966
C 7.978513 1.648366 8.227989
C 8.513499 2.539757 8.177934
C 8.511577 3.232250 8.991348
C 8.040928 2.364903 9.043496
C 0.026334 3.476966 8.212204
C 0.522836 4.333373 8.058381
C 0.473940 4.932440 9.034336
C 0.009655 4.109664 9.032509
C 1.015441 3.451812 8.205835
C 1.559024 4.277497 8.160897
C 1.548995 4.880180 8.918198
C 0.960528 4.027564 8.971160
C 1.942301 3.416859 8.194366
C 2.565809 4.364602 8.178399
C 2.430109 4.927760 9.024287
C 2.040400 4.098433 8.984449
C 3.054916 3.468928 8.130581
C 3.460260 4.326328 8.208177
C 3.537671 4.940520 9.000044
C 2.983885 3.991890 9.002585
C 4.075677 3.496942 8.177873
C 4.528442 4.342373 8.099542
C 4.531081 4.958471 8.938802
C 3.973783 4.081383 8.961931
C 4.963207 3.462003 8.220430
C 5.451198 4.318172 8.133309
C 5.497301 4.990093 9.013887
C 5.020820 4.058261 9.012846
C 6.004681 3.445115 8.173425
C 6.508004 4.381050 8.216798
C 6.577353 4.925146 8.935611
C 5.965175 4.025701 8.926958
C 7.006125 3.471049 8.118769
C 7.487848 4.273582 8.137057
C 7.505332 4.965051 8.905748
C 7.006709 3.973374 8.963504
C 7.948526 3.511394 8.141076
C 8.506829 4.376205 8.178239
C 8.447165 4.930712 8.976063
C 7.991925 4.021973 8.985384
C 0.013187 5.213661 8.237845
C 0.587243 6.108852 8.164797
C 0.435704 6.547810 8.982146
C 0.089685 5.848925 8.994042
C 1.003062 5.150575 8.096003
C 1.529949 6.076388 8.174361
C 1.426506 6.629024 8.944577
C 1.049346 5.782862 8.920073
C 2.051473 5.166814 8.154275
C 2.443935 6.077325 8.125135
C 2.466945 6.628068 8.939786
C 1.941760 5.794943 8.937950
C 3.049629 5.192011 8.113735
C 3.429838 6.033357 8.137749
C 3.484301 6.626459 9.001516
C 3.035418 5.725556 8.993180
C 3.984298 5.163025 8.097940
C 4.482557 6.054929 8.135711
C 4.565410 6.638224 8.991785
C 3.999793 5.664293 9.002202
C 5.005107 5.212639 8.115109
C 5.480779 6.010448 8.163404
C 5.418038 6.696720 8.947001
C 5.017041 5.708547 9.023419
C 5.971128 5.132119 8.206916
C 6.482928 6.143475 8.191043
C 6.572736 6.654945 9.039607
C 6.020370 5.835454 9.035314
C 6.997279 5.222381 8.247662
C 7.510698 5.984207 8.209272
C 7.470187 6.657857 8.988196
C 7.045692 5.783469 9.021279
C 7.996197 5.151417 8.111650
C 8.568787 6.014119 8.187561
C 8.438637 6.620227 8.965952
C 7.955743 5.754544 8.977563
C 0.006992 6.966064 8.095733
C 0.508732 7.751403 8.135159
C 0.515010 8.368645 8.934143
C 0.043493 7.464633 9.052264
C 0.987456 6.905147 8.139003
C 1.484003 7.783432 8.091208
C 1.500642 8.366696 8.996725
C 1.031209 7.541786 8.915764
C 1.926007 6.882207 8.128485
C 2.516965 7.878756 8.136497
C 2.548217 8.342957 8.924818
C 1.944372 7.487232 8.966531
C 3.108954 6.898855 8.126625
C 3.477285 7.876181 8.179889
C 3.459926 8.410980 8.957445
C 3.015184 7.563669 8.997016
C 4.028189 6.857882 8.224964
C 4.528172 7.765054 8.099720
C 4.441331 8.396461 8.939638
C 3.939235 7.519368 8.924431
C 5.065406 6.926954 8.162053
C 5.453895 7.740082 8.248159
C 5.443445 8.380357 8.954054
C 4.962873 7.514657 8.961929
C 5.981509 6.943623 8.181550
C 6.604382 7.776800 8.194654
C 6.378000 8.363102 8.995478
C 6.069158 7.497791 9.048990
C 6.992092 6.937580 8.191269
C 7.500741 7.838989 8.207572
C 7.563691 8.396910 9.057127
C 7.024224 7.477755 8.918310
C 7.971137 6.861748 8.193344
C 8.563360 7.800277 8.225626
C 8.502588 8.311488 9.043907
C 7.972534 7.589708 9.066217
C 0.044800 0.058698 0.664699
C 0.530673 0.899272 0.624657
C 0.554987 1.474314 1.391153
C 0.004386 0.597898 1.495082
C 1.015160 0.098270 0.522480
C 1.508210 0.840235 0.627624
C 1.501199 1.499782 1.508600
C 0.939715 0.642587 1.473146
C 2.010028 0.095513 0.554553
C 2.540238 0.826978 0.646101
C 2.461707 1.435065 1.412826
C 2.017482 0.646862 1.425805
C 2.956389 0.010454 0.617768
C 3.528926 0.822356 0.599953
C 3.566317 1.477231 1.420231
C 3.030218 0.581849 1.502645
C 4.017750 0.088484 0.571085
C 4.470360 0.812957 0.583462
C 4.441951 1.450491 1.458195
C 3.930669 0.591313 1.467520
C 5.019857 0.012290 0.666297
C 5.560260 0.881528 0.645980
C 5.506444 1.455471 1.360503
C 5.033036 0.574944 1.376402
C 5.984356 0.030732 0.681976
C 6.538025 0.917705 0.666807
C 6.396130 1.460676 1.448351
C 5.947296 0.508124 1.418719
C 7.021077 0.011809 0.718204
C 7.568361 0.823001 0.661444
C 7.423904 1.422574 1.419108
C 7.022010 0.634732 1.375041
C 7.897600 0.046855 0.670781
C 8.511979 0.889650 0.598908
C 8.462226 1.440402 1.494029
C 7.944608 0.572016 1.359412
C 0.025545 1.790543 0.599270
C 0.497895 2.677327 0.563012
C 0.419066 3.133749 1.343535
C 0.109373 2.373720 1.432663
C 0.962185 1.714742 0.529418
C 1.555327 2.630338 0.610114
C 1.458894 3.131011 1.465594
C 0.940140 2.250289 1.403124
C 1.965920 1.728225 0.592367
C 2.500021 2.549165 0.589481
C 2.456653 3.183601 1.389073
C 1.966302 2.222359 1.388250
C 3.060447 1.779782 0.573226
C 3.502075 2.589231 0.610926
C 3.548757 3.216172 1.446925
C 2.955023 2.361438 1.405788
C 3.946748 1.803150 0.638791
C 4.569615 2.589979 0.582247
C 4.481598 3.159802 1.445953
C 3.986562 2.314933 1.417781
C 5.047370 1.691700 0.642804
C 5.443641 2.576993 0.657232
C 5.535311 3.232786 1.451319
C 4.937983 2.335021 1.430678
C 6.003688 1.684264 0.567979
C 6.435807 2.607603 0.579992
C 6.524323 3.199980 1.495632
C 6.052162 2.368221 1.388707
C 7.004205 1.734342 0.687561
C 7.551582 2.634277 0.640490
C 7.403072 3.135990 1.410386
C 6.942067 2.233778 1.422755
C 8.019578 1.780496 0.629768
C 8.522703 2.679944 0.611582
C 8.427711 3.164869 1.420389
C 8.024865 2.323162 1.384149
C 0.074592 3.494455 0.572152
C 0.515283 4.350119 0.690533
C 0.436657 4.908644 1.527385
C 0.075869 4.017872 1.536047
C 0.971994 3.500066 0.675649
C 1.486364 4.373521 0.575587
C 1.484009 4.840951 1.474497
C 1.025514 4.013634 1.482384
C 1.891982 3.459080 0.632047
C 2.428587 4.355733 0.642902
C 2.445358 4.915790 1.428420
C 1.977439 4.057514 1.483917
C 2.977990 3.419769 0.600125
C 3.459070 4.340145 0.633612
C 3.514546 4.842144 1.409589
C 2.955268 4.059705 1.480928
C 4.032277 3.483152 0.550991
C 4.438189 4.355553 0.584395
C 4.476300 4.967014 1.416531
C 4.057428 4.013242 1.419606
C 5.015229 3.417442 0.692638
C 5.483894 4.393370 0.631790
C 5.507943 4.954077 1.414210
C 4.930750 4.085764 1.472068
C 5.959580 3.496592 0.621038
C 6.542589 4.328613 0.579072
C 6.533993 4.844361 1.383019
C 5.999938 4.056077 1.389136
C 6.993949 3.417921 0.638692
C 7.482945 4.360719 0.592960
C 7.534126 4.902088 1.415702
C 6.987909 4.084187 1.410286
C 7.935786 3.458849 0.622238
C 8.479915 4.266653 0.627812
C 8.493415 4.902691 1.371912
C 8.086600 4.045912 1.475895
C 0.043327 5.202245 0.617271
C 0.464457 6.022695 0.573994
C 0.491498 6.740461 1.449529
C 0.030322 5.698020 1.409839
C 0.974251 5.171889 0.538274
C 1.542676 5.995393 0.614688
C 1.431650 6.592849 1.452793
C 0.975913 5.739870 1.435970
C 2.069203 5.178125 0.606453
C 2.495196 6.092377 0.564162
C 2.436303 6.595974 1.478240
C 1.942369 5.763917 1.418599
C 3.015499 5.213004 0.597013
C 3.500450 6.128391 0.661348
C 3.499234 6.699786 1.393426
C 3.052299 5.850034 1.451416
C 4.041422 5.226913 0.515594
C 4.467176 6.071977 0.535204
C 4.522989 6.582457 1.412542
C 4.071721 5.716833 1.458184
C 4.990799 5.078614 0.604969
C 5.462789 6.086062 0.561198
C 5.557475 6.650966 1.436838
C 4.949904 5.856639 1.393940
C 5.993429 5.236521 0.587806
C 6.446640 6.040175 0.606200
C 6.526295 6.672299 1.425404
C 6.066178 5.809655 1.434655
C 7.035034 5.194943 0.578542
C 7.477136 6.115585 0.556089
C 7.461465 6.620339 1.431826
C 6.984479 5.807288 1.479382
C 8.016768 5.179272 0.629724
C 8.463261 6.046386 0.581355
C 8.454190 6.597135 1.387689
C 7.964011 5.761425 1.344144
C 0.032454 6.976362 0.664559
C 0.541882 7.845692 0.635890
C 0.425046 8.342092 1.398489
C 0.009299 7.486546 1.442158
C 0.941143 6.909300 0.572942
C 1.501568 7.782065 0.602042
C 1.493729 8.403841 1.517996
C 0.948738 7.443255 1.446002
C 2.071527 6.936898 0.634681
C 2.555315 7.780386 0.680353
C 2.518395 8.407672 1.389412
C 1.966414 7.582374 1.390553
C 2.965975 6.972827 0.584312
C 3.518386 7.794481 0.687746
C 3.429658 8.385698 1.475739
C 2.966782 7.579781 1.480789
C 3.980627 6.976128 0.628853
C 4.551372 7.713145 0.640052
C 4.481821 8.288943 1.479049
C 3.958287 7.466463 1.425799
C 5.005119 6.997184 0.617533
C 5.513964 7.740845 0.627012
C 5.464555 8.358608 1.405714
C 5.009789 7.476774 1.441013
C 6.020645 7.002424 0.617436
C 6.465987 7.846534 0.579441
C 6.473953 8.431720 1.443010
C 5.956174 7.532593 1.479788
C 7.011477 6.898624 0.625754
C 7.520535 7.731819 0.603107
C 7.507184 8.378087 1.381805
C 7.006876 7.490026 1.405334
C 8.090855 6.962978 0.579340
C 8.462537 7.809747 0.650348
C 8.420744 8.370353 1.404459
C 8.073979 7.464215 1.370423
C 0.080361 0.073545 2.238378
C 0.472179 0.883122 2.289449
C 0.485058 1.389157 3.049181
C 0.025458 0.547440 3.192896
C 0.924944 0.013277 2.276386
C 1.493329 0.958038 2.251616
C 1.490098 1.476095 3.153310
C 0.983567 0.572314 2.986218
C 1.945998 0.023302 2.280281
C 2.472472 0.864308 2.262946
C 2.531937 1.419955 3.037526
C 1.932549 0.518849 3.034318
C 3.024992 0.048922 2.295303
C 3.462826 0.908381 2.238577
C 3.442030 1.417040 3.125596
C 2.955498 0.532228 3.039125
C 3.891918 0.001739 2.272687
C 4.528524 0.981221 2.236048
C 4.496803 1.450361 2.980851
C 3.942032 0.553343 3.054172
C 5.004255 0.002002 2.166868
C 5.432063 0.850581 2.202616
C 5.569164 1.441746 3.008436
C 4.987939 0.553215 3.001651
C 5.934645 0.012959 2.306003
C 6.475008 0.839357 2.265967
C 6.559541 1.430321 3.076304
C 6.011207 0.588842 3.107447
C 7.030199 0.040534 2.177909
C 7.463649 0.874833 2.237283
C 7.488295 1.464658 2.975979
C 6.999805 0.646175 3.059972
C 8.061009 0.025183 2.145483
C 8.480371 0.898923 2.288994
C 8.524878 1.498953 3.144909
C 7.998016 0.516339 3.085532
C 0.001318 1.777172 2.200069
C 0.464045 2.614973 2.263569
C 0.555625 3.142451 3.099494
C 0.091327 2.332341 3.132499
C 0.961560 1.769862 2.208195
C 1.431604 2.577133 2.270129
C 1.490968 3.153514 3.009819
C 1.099743 2.304694 3.057494
C 2.057673 1.751112 2.279363
C 2.510071 2.653299 2.294203
C 2.541149 3.101767 3.086866
C 2.056751 2.299085 3.066010
C 3.015627 1.747574 2.232232
C 3.451053 2.597611 2.247673
C 3.477015 3.127608 3.076760
C 2.975082 2.329413 3.089340
C 3.990125 1.671037 2.291671
C 4.573389 2.625146 2.277231
C 4.541702 3.170692 3.119041
C 3.960706 2.272356 3.023526
C 5.019514 1.650400 2.232367
C 5.430778 2.593977 2.214909
C 5.561200 3.101122 3.023246
C 4.898730 2.359594 3.031804
C 5.970749 1.792503 2.250762
C 6.469330 2.586476 2.274845
C 6.422385 3.174628 3.005064
C 6.046725 2.256155 3.096222
C 6.964338 1.738855 2.260502
C 7.525604 2.655020 2.315156
C 7.480410 3.109835 3.109163
C 7.047245 2.287154 3.139288
C 8.026612 1.766963 2.233470
C 8.519085 2.544540 2.254877
C 8.545719 3.162653 3.025857
C 7.924289 2.310430 3.112433
C 0.070797 3.471602 2.234973
C 0.569060 4.290898 2.185545
C 0.427241 4.896327 3.000653
C 0.050329 4.070503 3.155269
C 0.972518 3.493821 2.268012
C 1.478733 4.278959 2.294458
C 1.480147 4.893388 3.011266
C 1.036525 4.048082 3.057730
C 1.948350 3.476038 2.280901
C 2.450468 4.302807 2.224896
C 2.518307 4.914749 3.084816
C 1.995253 4.001094 3.035409
C 3.006453 3.531222 2.226703
C 3.584561 4.264301 2.257720
C 3.470684 4.852080 3.070093
C 3.000443 4.046820 3.039094
C 3.987807 3.471656 2.191596
C 4.474915 4.360814 2.278614
C 4.432326 4.906521 2.987660
C 4.059454 4.055100 3.105240
C 5.056868 3.466620 2.269314
C 5.477827 4.326905 2.220831
C 5.587670 4.905110 3.067831
C 4.973596 4.002523 3.051354
C 6.017464 3.442791 2.169079
C 6.426632 4.329556 2.262535
C 6.475443 4.879300 3.124493
C 6.016655 3.997527 3.103518
C 6.951577 3.480607 2.215061
C 7.504044 4.255114 2.278196
C 7.458753 4.903594 2.966450
C 6.922754 4.029720 3.085412
C 7.934009 3.478025 2.213306
C 8.451250 4.353083 2.193203
C 8.554189 4.940990 3.107101
C 7.995806 4.080908 3.045248
C 0.020580 5.248787 2.228954
C 0.503831 6.119548 2.279800
C 0.471872 6.653371 3.070633
C 0.016172 5.718094 3.055345
C 0.992659 5.232546 2.184609
C 1.523231 6.107341 2.329127
C 1.570336 6.608833 3.072644
C 0.949753 5.763704 3.048623
C 2.008170 5.216215 2.137591
C 2.472254 6.127756 2.297020
C 2.539756 6.667629 2.978857
C 1.958284 5.700132 3.091401
C 2.955450 5.143269 2.343629
C 3.501428 6.067070 2.213984
C 3.469946 6.658818 3.025067
C 2.987773 5.706254 3.021099
C 4.044397 5.147871 2.236821
C 4.540489 6.053897 2.217192
C 4.471995 6.606731 3.046171
C 4.082729 5.841628 3.042847
C 5.032405 5.220230 2.180115
C 5.397564 6.044018 2.283024
C 5.546235 6.656079 3.061705
C 4.950597 5.789297 3.038870
C 5.932276 5.192231 2.232186
C 6.581044 6.078667 2.250314
C 6.506352 6.605700 3.052999
C 5.938857 5.807092 3.059308
C 7.039675 5.194951 2.230710
C 7.487426 6.063651 2.165234
C 7.499670 6.615138 3.139131
C 7.018139 5.756758 2.979875
C 8.040921 5.134024 2.184727
C 8.515715 6.060569 2.204881
C 8.422585 6.609991 3.073871
C 7.979687 5.783868 2.976214
C 0.061446 6.867292 2.193944
C 0.484936 7.851262 2.335059
C 0.506191 8.361421 3.144505
C 0.053597 7.490244 3.099246
C 0.948587 6.938260 2.201896
C 1.435217 7.733075 2.241033
C 1.466916 8.453248 3.056673
C 0.994375 7.551891 3.061114
C 1.972743 6.886883 2.262731
C 2.476533 7.752955 2.177787
C 2.556349 8.411184 3.041423
C 1.977556 7.467275 2.991310
C 2.992969 6.865243 2.298661
C 3.549260 7.781526 2.154547
C 3.491577 8.438652 3.047397
C 2.973362 7.499727 3.050670
C 4.026880 6.976718 2.287617
C 4.554951 7.825997 2.236638
C 4.484537 8.297635 3.042674
C 3.983892 7.480068 2.974318
C 4.965065 6.952495 2.217753
C 5.400678 7.807051 2.221831
C 5.572972 8.386965 3.031483
C 5.033457 7.566814 2.988264
C 6.012747 6.931750 2.279063
C 6.529404 7.820352 2.342263
C 6.453289 8.356236 3.055112
C 6.064364 7.560123 3.058732
C 6.965746 6.932476 2.230343
C 7.475558 7.821847 2.221544
C 7.599286 8.350942 3.079318
C 6.911007 7.486652 3.053197
C 7.998435 6.957209 2.303605
C 8.482566 7.835077 2.205521
C 8.458684 8.320628 3.090981
C 8.076363 7.539824 3.035636
C 0.020450 0.004085 3.826610
C 0.507956 0.956353 3.910451
C 0.484661 1.444256 4.709079
C 0.027976 0.519744 4.787559
C 0.941303 0.027208 3.812911
C 1.498289 0.803821 3.850753
C 1.452375 1.495233 4.774826
C 0.940139 0.601360 4.709462
C 1.971183 0.003048 3.879048
C 2.474606 0.847101 3.968301
C 2.536725 1.436930 4.610765
C 1.988123 0.575132 4.610908
C 3.050794 0.007489 3.946588
C 3.431624 0.864640 3.868094
C 3.481702 1.418295 4.661547
C 2.938474 0.606911 4.669819
C 3.980577 0.059035 3.817427
C 4.482332 0.934559 3.891570
C 4.540745 1.376203 4.674968
C 4.017927 0.617292 4.649433
C 4.989899 0.004370 3.824666
C 5.552165 0.859847 3.863897
C 5.420481 1.485962 4.754208
C 4.981166 0.605197 4.781134
C 6.088682 0.005900 3.809499
C 6.452006 0.818608 3.885445
C 6.566895 1.451845 4.711379
C 5.981938 0.542457 4.761831
C 7.078605 0.016225 3.836490
C 7.520839 0.926183 3.819615
C 7.579906 1.503198 4.696133
C 7.058134 0.607680 4.680282
C 8.054655 0.102165 3.848911
C 8.514853 0.856615 3.854839
C 8.439432 1.394743 4.670873
C 7.982190 0.595887 4.634569
C 0.045123 1.811561 3.902461
C 0.458127 2.606786 3.887578
C 0.459199 3.173414 4.727425
C 0.050668 2.374660 4.632280
C 0.939421 1.727340 3.970313
C 1.479338 2.534287 3.800832
C 1.523490 3.113414 4.736996
C 0.991908 2.363447 4.739466
C 2.015519 1.758844 3.874816
C 2.467221 2.566960 3.939101
C 2.441167 3.224598 4.655119
C 2.013121 2.297626 4.623865
C 3.044333 1.731040 3.982557
C 3.466811 2.600292 3.921216
C 3.503325 3.226167 4.668216
C 2.974695 2.334764 4.747645
C 4.053850 1.708413 3.838266
C 4.443375 2.561042 3.940912
C 4.511157 3.140635 4.786777
C 3.972683 2.304048 4.732906
C 5.003389 1.797710 3.936436
C 5.476647 2.507556 3.849600
C 5.516801 3.133176 4.714072
C 4.966911 2.287416 4.713475
C 6.028323 1.789130 3.871515
C 6.563108 2.602437 3.866305
C 6.512099 3.258674 4.737505
C 6.059108 2.331888 4.692825
C 7.029886 1.758096 3.806584
C 7.464812 2.671559 3.917898
C 7.480743 3.193390 4.690644
C 7.025403 2.336296 4.671676
C 7.975961 1.748484 3.811637
C 8.477666 2.568537 3.883956
C 8.482854 3.125226 4.707433
C 8.014718 2.363970 4.670561
C 0.032144 3.462234 3.958872
C 0.534711 4.399267 3.895617
C 0.579985 4.925917 4.677514
C 0.061221 4.073777 4.654506
C 0.966120 3.516834 3.860997
C 1.503895 4.389750 3.878492
C 1.410617 4.896685 4.703309
C 1.035721 3.977031 4.711886
C 2.084957 3.513300 3.873005
C 2.488316 4.369829 3.826552
C 2.537855 4.903170 4.666160
C 1.969575 3.975056 4.757353
C 2.984242 3.459677 3.847807
C 3.471140 4.279235 3.869734
C 3.502205 4.897521 4.708502
C 3.047004 4.027736 4.686576
C 3.953505 3.450444 3.775696
C 4.474965 4.383853 3.830606
C 4.513868 4.936529 4.737495
C 4.052520 4.075262 4.735183
C 5.027200 3.506031 3.938345
C 5.560437 4.307919 3.880079
C 5.476406 4.962731 4.644510
C 5.003596 4.044227 4.625589
C 5.991419 3.424322 3.915694
C 6.497252 4.265244 3.897936
C 6.441217 4.884272 4.586619
C 6.041554 4.051571 4.776237
C 6.955047 3.476378 3.850762
C 7.452388 4.306112 3.912470
C 7.464115 4.933934 4.721413
C 7.062897 4.035550 4.712232
C 8.026355 3.527294 3.837598
C 8.552015 4.270727 3.965172
C 8.520199 4.887881 4.750496
C 7.988122 4.076775 4.734707
C 0.030474 5.142607 3.903061
C 0.521672 6.035319 3.928363
C 0.511227 6.736614 4.633344
C 0.010008 5.759361 4.744143
C 0.927592 5.132214 3.848166
C 1.488735 6.138618 3.846363
C 1.519857 6.630829 4.721938
C 1.015671 5.852091 4.608158
C 1.930686 5.173099 3.886043
C 2.436388 6.110237 3.883790
C 2.534134 6.680550 4.739598
C 1.986662 5.765445 4.792106
C 3.019316 5.203047 3.884700
C 3.461944 6.080762 3.939476
C 3.479367 6.580960 4.669736
C 2.989383 5.711095 4.668931
C 3.961508 5.193981 3.819858
C 4.503782 6.033380 3.927497
C 4.424468 6.598075 4.717023
C 4.038859 5.719776 4.693504
C 5.071518 5.199367 3.890249
C 5.526461 6.030818 3.841598
C 5.448587 6.594805 4.695533
C 5.046907 5.798737 4.671826
C 6.008697 5.274729 3.847450
C 6.582564 6.029060 3.852128
C 6.482487 6.701953 4.666506
C 5.983061 5.727871 4.606380
C 7.007050 5.227743 3.954937
C 7.518225 6.017868 3.933162
C 7.459139 6.645615 4.669031
C 6.960164 5.709198 4.638936
C 8.009368 5.218408 3.841231
C 8.461632 6.118824 3.923170
C 8.470946 6.692978 4.736815
C 8.049143 5.806898 4.648727
C 0.018921 6.958766 3.908602
C 0.569257 7.794381 3.841502
C 0.471207 8.335197 4.773865
C 0.009458 7.510753 4.662602
C 0.931956 6.885386 3.860672
C 1.562191 7.839570 3.864940
C 1.452303 8.331354 4.675178
C 1.035369 7.527689 4.684603
C 1.960347 6.947077 3.833785
C 2.491548 7.827074 3.834068
C 2.475115 8.304228 4.781738
C 1.979155 7.491743 4.664573
C 3.041919 6.873006 3.841103
C 3.487693 7.879838 3.846110
C 3.566702 8.336039 4.729394
C 3.031098 7.565192 4.673494
C 4.034142 6.918074 3.819270
C 4.563631 7.762928 3.854613
C 4.467179 8.389777 4.702405
C 3.930124 7.515299 4.685406
C 4.934841 6.902084 3.852311
C 5.483792 7.865851 3.886598
C 5.458265 8.377961 4.712622
C 4.996644 7.562310 4.774651
C 6.007074 6.893664 3.934937
C 6.461501 7.778362 3.862935
C 6.531429 8.384799 4.742191
C 5.958491 7.444328 4.650443
C 6.917659 6.918083 3.898941
C 7.526178 7.814661 3.976248
C 7.539506 8.346201 4.676380
C 6.991169 7.469704 4.770768
C 7.953919 6.991193 3.876907
C 8.531426 7.738857 3.825988
C 8.472667 8.365445 4.628078
C 7.977679 7.428567 4.673996
C 0.011669 0.111276 5.520879
C 0.516740 0.918053 5.503978
C 0.497186 1.506638 6.300235
C 0.005283 0.556706 6.242811
C 1.093207 0.080001 5.475600
C 1.578685 0.833573 5.487533
C 1.545122 1.500914 6.350723
C 1.032805 0.533121 6.315316
C 2.029557 0.058384 5.541233
C 2.476606 0.841537 5.539216
C 2.547025 1.475692 6.298179
C 1.996319 0.670444 6.302984
C 3.052060 0.008699 5.519304
C 3.524705 0.948174 5.536398
C 3.489874 1.456656 6.358800
C 2.975971 0.573173 6.306376
C 3.980757 0.021173 5.429492
C 4.543275 0.922705 5.589169
C 4.480352 1.444493 6.328099
C 3.952397 0.595180 6.296433
C 4.977993 0.049535 5.503705
C 5.594553 0.908921 5.493439
C 5.508165 1.526984 6.331997
C 5.021929 0.648208 6.292556
C 5.913129 0.011598 5.481584
C 6.440048 0.873347 5.538114
C 6.498625 1.369014 6.276195
C 6.025230 0.571170 6.329300
C 7.059573 0.010411 5.525318
C 7.480401 0.934283 5.547296
C 7.457709 1.394515 6.322587
C 6.960113 0.512800 6.341586
C 7.954263 0.040653 5.534995
C 8.546569 0.833271 5.493539
C 8.545310 1.475455 6.354974
C 8.080300 0.599496 6.396746
C 0.016626 1.671960 5.509398
C 0.578151 2.609264 5.500727
C 0.462669 3.191602 6.298541
C 0.026705 2.309186 6.298593
C 1.058807 1.706144 5.534052
C 1.522428 2.657322 5.543894
C 1.522112 3.209138 6.238981
C 0.989154 2.262917 6.292961
C 1.967468 1.729762 5.454958
C 2.476315 2.608340 5.572138
C 2.538604 3.188236 6.366587
C 1.954628 2.277446 6.334415
C 3.025897 1.698391 5.590976
C 3.507775 2.702291 5.481518
C 3.471876 3.106358 6.328343
C 3.068966 2.336765 6.272653
C 3.969133 1.694341 5.511775
C 4.548505 2.668102 5.534101
C 4.515532 3.221220 6.344568
C 3.912702 2.314885 6.356020
C 4.931777 1.756834 5.501803
C 5.457937 2.580433 5.593139
C 5.500989 3.135815 6.384165
C 4.957616 2.308117 6.287190
C 5.966098 1.662646 5.431812
C 6.421193 2.572114 5.480814
C 6.429328 3.136476 6.294103
C 5.954312 2.270844 6.303923
C 7.060705 1.742980 5.473908
C 7.529015 2.556046 5.538064
C 7.496506 3.145301 6.333298
C 6.974656 2.278057 6.416782
C 7.920777 1.690462 5.533721
C 8.577527 2.641571 5.474123
C 8.449855 3.191285 6.406088
C 7.927761 2.323580 6.404897
C 0.061112 3.486182 5.561789
C 0.581430 4.330116 5.545247
C 0.512945 4.821963 6.330968
C 0.019254 4.072353 6.274545
C 0.978781 3.512580 5.529200
C 1.513782 4.280937 5.489680
C 1.467200 4.954774 6.240170
C 0.953674 4.064956 6.370058
C 1.936620 3.507781 5.546671
C 2.578119 4.309283 5.525257
C 2.531628 4.980092 6.292363
C 1.971606 4.011257 6.333200
C 3.023530 3.394784 5.488176
C 3.453730 4.280353 5.526500
C 3.484787 4.956242 6.313206
C 3.007360 4.030455 6.341236
C 3.968818 3.436379 5.514668
C 4.583545 4.293474 5.467945
C 4.474849 4.955165 6.312482
C 4.043930 4.094990 6.376743
C 4.930927 3.449572 5.468009
C 5.447886 4.259961 5.496327
C 5.517475 4.969378 6.271212
C 4.958840 4.020882 6.396898
C 5.973013 3.565989 5.529180
C 6.492052 4.394141 5.518827
C 6.566707 4.888340 6.338163
C 6.051878 4.079340 6.303881
C 6.981911 3.426921 5.573080
C 7.486235 4.365654 5.456456
C 7.461254 4.928567 6.388499
C 6.932072 3.946440 6.317410
C 8.035219 3.505487 5.539532
C 8.557303 4.366949 5.526587
C 8.434952 4.919186 6.377203
C 7.997630 4.014566 6.372176
C 0.010838 5.267101 5.509516
C 0.460708 6.066971 5.559606
C 0.415807 6.665822 6.291918
C 0.019581 5.856240 6.299877
C 1.019727 5.232668 5.504232
C 1.584210 6.116769 5.518557
C 1.519360 6.606950 6.321944
C 0.916455 5.742077 6.338367
C 2.032710 5.114262 5.516276
C 2.509568 6.101697 5.593606
C 2.564582 6.611642 6.304460
C 2.010334 5.785714 6.413149
C 3.040042 5.245648 5.493877
C 3.418798 6.132254 5.499180
C 3.543660 6.570208 6.359428
C 3.042200 5.821340 6.370210
C 4.079381 5.156776 5.479851
C 4.534184 5.995032 5.472612
C 4.507750 6.600387 6.381866
C 4.036525 5.805774 6.302514
C 4.980512 5.252385 5.529435
C 5.565829 6.120326 5.497871
C 5.470812 6.680239 6.332088
C 5.037775 5.698679 6.331785
C 6.025448 5.189961 5.477644
C 6.546598 6.009104 5.559882
C 6.526170 6.583583 6.332230
C 5.904983 5.746587 6.377270
C 6.978497 5.219420 5.607154
C 7.487622 6.031637 5.563405
C 7.433279 6.648739 6.384681
C 6.983980 5.829858 6.289288
C 7.950156 5.175118 5.517214
C 8.493096 6.063245 5.522388
C 8.471114 6.568262 6.322125
C 8.062305 5.815575 6.273784
C 0.019820 7.001148 5.516060
C 0.541981 7.869430 5.571682
C 0.545064 8.338777 6.288231
C 0.012895 7.526180 6.360420
C 0.996479 6.916028 5.550402
C 1.467936 7.834137 5.586809
C 1.572090 8.430766 6.380585
C 1.021755 7.429468 6.365606
C 2.009033 6.972697 5.586679
C 2.554345 7.773952 5.463929
C 2.552994 8.332573 6.327816
C 1.956803 7.494266 6.285588
C 2.921857 6.906233 5.437830
C 3.401930 7.784019 5.499610
C 3.539270 8.311351 6.273287
C 2.977877 7.449004 6.350681
C 3.998357 6.955967 5.435246
C 4.531873 7.792077 5.463527
C 4.489935 8.405311 6.396345
C 4.007931 7.520075 6.302552
C 4.981112 6.939222 5.502385
C 5.484777 7.741402 5.587454
C 5.455997 8.375953 6.359842
C 5.007952 7.470034 6.393491
C 6.040397 6.925926 5.427126
C 6.504951 7.805371 5.504445
C 6.532388 8.333371 6.330940
C 5.950495 7.497699 6.382087
C 7.007158 6.967125 5.476246
C 7.434838 7.760621 5.434921
C 7.504960 8.370323 6.354449
C 7.056930 7.507724 6.384168
C 7.983324 6.975258 5.558388
C 8.473154 7.731904 5.529691
C 8.563406 8.365875 6.304904
C 7.932607 7.513568 6.287080
C 0.056599 0.073915 7.180785
C 0.484258 0.784475 7.161042
C 0.456245 1.491105 7.941935
C 0.011201 0.560349 8.040645
C 1.025463 0.005866 7.196741
C 1.518527 0.870442 7.069231
C 1.537586 1.516086 7.905126
C 1.009908 0.600543 7.971291
C 2.059426 0.031270 7.168730
C 2.524133 0.824554 7.153807
C 2.532878 1.504732 7.941957
C 1.981705 0.613817 7.909656
C 2.983401 0.049965 7.114481
C 3.590277 0.907797 7.159111
C 3.498589 1.389249 7.861394
C 2.991456 0.617435 8.036054
C 4.003246 0.034362 7.074464
C 4.566340 0.904513 7.104383
C 4.462444 1.444245 7.999066
C 4.040985 0.518999 7.917750
C 4.992794 0.035957 7.172101
C 5.456959 0.961172 7.145756
C 5.459108 1.418200 7.897789
C 4.989256 0.530871 8.031847
C 6.072857 0.045343 7.144335
C 6.529078 0.888617 7.164538
C 6.429022 1.474502 7.942390
C 5.945271 0.523751 8.020831
C 7.055717 0.079586 7.103476
C 7.535671 0.886557 7.099148
C 7.511012 1.476608 7.910282
C 6.971523 0.552683 7.937686
C 7.996503 0.018688 7.138229
C 8.549476 0.895987 7.157614
C 8.461784 1.490049 7.916408
C 7.992303 0.639051 7.966905
C 0.079592 1.747092 7.185277
C 0.505979 2.533855 7.082492
C 0.480245 3.180052 7.993535
C 0.011391 2.334116 7.943744
C 0.988844 1.775398 7.109735
C 1.448617 2.658707 7.138296
C 1.427194 3.180106 7.932195
C 1.029564 2.411071 7.935101
C 1.934312 1.709146 7.134138
C 2.501952 2.647939 7.223304
C 2.446515 3.110865 7.991669
C 1.960560 2.332235 7.981058
C 3.008046 1.755212 7.093747
C 3.538577 2.510669 7.098172
C 3.535899 3.167263 7.942981
C 3.086594 2.270969 7.973265
C 3.989672 1.771407 7.175232
C 4.505759 2.659789 7.158506
C 4.469000 3.184812 8.009392
C 3.964752 2.302229 7.918756
C 5.014061 1.684133 7.147346
C 5.475471 2.624327 7.178044
C 5.456917 3.182466 7.914515
C 4.928583 2.297336 7.923781
C 5.908465 1.685973 7.088608
C 6.551826 2.578250 7.118548
C 6.428139 3.174807 7.909728
C 5.922216 2.310608 7.963180
C 7.078707 1.733573 7.118684
C 7.497596 2.648742 7.124964
C 7.460742 3.236860 7.915907
C 6.999729 2.398383 7.963002
C 7.936812 1.795552 7.182884
C 8.497322 2.588061 7.159960
C 8.447127 3.214263 7.948389
C 8.049178 2.354990 8.008989
C 0.041734 3.350809 7.143512
C 0.543039 4.313767 7.154096
C 0.530537 4.869060 8.002665
C 0.062366 4.097968 7.946204
C 0.992467 3.463435 7.096303
C 1.533936 4.345967 7.059776
C 1.463728 4.841578 7.961331
C 1.040884 4.016628 7.923591
C 2.043418 3.412946 7.140301
C 2.502891 4.329645 7.064689
C 2.518112 4.872053 8.032028
C 1.953753 4.042709 7.887619
C 3.055596 3.499340 7.151346
C 3.504143 4.420645 7.147241
C 3.496416 4.936066 8.042332
C 2.966279 4.066244 7.907371
C 3.986745 3.506984 7.149286
C 4.572286 4.309209 7.134923
C 4.520093 4.998762 8.023818
C 4.028266 4.113157 7.950186
C 4.975080 3.532850 7.106117
C 5.440433 4.312714 7.143047
C 5.486798 4.864322 7.993581
C 4.971630 4.011298 7.905408
C 6.077782 3.417094 7.092926
C 6.570403 4.292613 7.194522
C 6.537339 4.946607 8.067455
C 6.024160 4.114063 7.935846
C 6.980820 3.479108 7.176833
C 7.438788 4.358402 7.168694
C 7.447522 4.989906 8.002201
C 6.951456 3.967230 7.968220
C 7.992298 3.432582 7.159559
C 8.485432 4.398237 7.145432
C 8.462652 4.848764 7.878430
C 7.971072 4.065278 7.973707
C 0.020783 5.108911 7.134716
C 0.492876 6.081919 7.141209
C 0.526657 6.638272 8.022122
C 0.005553 5.800318 7.919775
C 0.971368 5.230046 7.190999
C 1.464207 6.085297 7.190217
C 1.457925 6.678958 7.987901
C 1.077570 5.796917 7.964205
C 2.090180 5.225546 7.169762
C 2.541922 6.001944 7.109011
C 2.536286 6.626946 7.986043
C 1.993310 5.826645 7.959351
C 2.963460 5.161729 7.207536
C 3.525161 6.048137 7.135935
C 3.509074 6.558574 7.984541
C 2.991879 5.724224 7.933614
C 3.994331 5.208328 7.199022
C 4.528545 6.056711 7.145678
C 4.598303 6.631488 7.964710
C 4.032604 5.729105 7.922758
C 5.009731 5.161311 7.122191
C 5.499161 6.023669 7.182673
C 5.534195 6.691777 8.007111
C 5.035700 5.744834 7.964393
C 5.960062 5.196685 7.114604
C 6.525827 5.995192 7.134072
C 6.560315 6.597566 7.939532
C 6.033421 5.819731 7.962149
C 6.972003 5.286415 7.144673
C 7.526749 6.021812 7.167616
C 7.448615 6.599392 7.891288
C 7.055300 5.831833 7.971835
C 8.012330 5.192249 7.126001
C 8.533607 5.978512 7.086273
C 8.502860 6.701821 7.929353
C 7.982702 5.812107 7.975856
C 0.015905 6.918990 7.147357
C 0.485345 7.833576 7.161383
C 0.533549 8.424064 7.936697
C 0.060600 7.508108 7.990886
C 0.985987 6.880684 7.162426
C 1.548626 7.805680 7.199076
C 1.489022 8.461113 7.985129
C 1.037017 7.573422 8.002770
C 1.948156 6.929074 7.227816
C 2.490865 7.837681 7.186086
C 2.586688 8.431469 7.898427
C 1.984448 7.433423 7.933269
C 2.993957 6.878148 7.072085
C 3.435674 7.789109 7.073610
C 3.568371 8.318319 7.933692
C 2.934430 7.530012 7.977822
C 3.995606 6.906208 7.220664
C 4.509043 7.826982 7.225242
C 4.500704 8.393006 7.930530
C 3.985958 7.502532 8.036452
C 5.015311 6.875350 7.185606
C 5.445633 7.726225 7.163400
C 5.448981 8.290761 7.943523
C 4.926730 7.446824 7.922971
C 6.014476 6.892253 7.213101
C 6.483688 7.794073 7.099190
C 6.531925 8.406376 7.925381
C 5.944722 7.501739 7.952191
C 6.970035 7.003328 7.208567
C 7.429887 7.833504 7.206800
C 7.593384 8.370341 7.982839
C 7.077009 7.495439 7.913277
C 7.960711 6.896909 7.062390
C 8.451774 7.824030 7.186483
C 8.541021 8.355952 7.927014
C 7.946101 7.563858 8.003733
C 0.007839 0.070711 8.719271
C 0.523407 0.808879 8.785680
C 0.572649 1.396955 9.577481
C 0.088710 0.514741 9.593593
C 0.967139 0.058695 8.663880
C 1.497513 0.943153 8.735330
C 1.431255 1.440136 9.531275
C 0.941776 0.515090 9.575858
C 1.961387 0.042942 8.865711
C 2.544685 0.807342 8.818791
C 2.506097 1.449992 9.536081
C 1.939772 0.635156 9.582726
C 3.045861 0.014780 8.828928
C 3.500174 0.796460 8.811087
C 3.506375 1.387272 9.585037
C 3.016872 0.557957 9.504507
C 4.066168 0.039535 8.805637
C 4.519332 0.811664 8.739955
C 4.522474 1.471821 9.464404
C 4.059830 0.683427 9.578931
C 4.966686 0.004388 8.897460
C 5.515446 0.806168 8.776009
C 5.506432 1.368292 9.576746
C 4.952169 0.555747 9.515133
C 5.991000 0.008138 8.744057
C 6.508003 0.893825 8.800344
C 6.541246 1.367145 9.570843
C 6.051202 0.704496 9.556027
C 6.895667 0.021956 8.813064
C 7.516810 0.949971 8.848164
C 7.542219 1.388527 9.554934
C 6.939056 0.602802 9.521901
C 7.957403 0.037284 8.751576
C 8.497773 0.795594 8.774007
C 8.571184 1.448569 9.538698
C 8.041993 0.450221 9.584034
C 0.063765 1.704869 8.835983
C 0.426752 2.609895 8.808627
C 0.486696 3.229125 9.491672
C 0.009436 2.314883 9.506975
C 1.035225 1.807592 8.845383
C 1.480452 2.557898 8.765424
C 1.558454 3.145927 9.578250
C 1.053719 2.223681 9.582216
C 1.950439 1.819381 8.850541
C 2.544558 2.590505 8.820713
C 2.555450 3.174662 9.580412
C 2.021505 2.397396 9.583770
C 3.021332 1.750572 8.836224
C 3.562141 2.637477 8.807519
C 3.557027 3.123477 9.557278
C 2.996821 2.384868 9.566465
C 4.055598 1.692712 8.761624
C 4.505572 2.593049 8.771092
C 4.464229 3.257358 9.568405
C 3.983939 2.368075 9.533168
C 4.944809 1.694226 8.784216
C 5.499397 2.688515 8.780704
C 5.573749 3.150371 9.563255
C 4.988974 2.288458 9.573850
C 6.030811 1.710931 8.725512
C 6.503492 2.628630 8.754952
C 6.455632 3.179994 9.593640
C 6.012773 2.221555 9.575790
C 7.070236 1.755390 8.723239
C 7.491014 2.624482 8.832485
C 7.435922 3.129745 9.565828
C 6.948508 2.273650 9.586394
C 8.084959 1.652251 8.785154
C 8.560450 2.622664 8.787592
C 8.407007 3.212990 9.555427
C 7.957847 2.350802 9.560889
C 0.029903 3.496758 8.752179
C 0.504329 4.308861 8.860766
C 0.442849 4.903867 9.560395
C 0.022119 4.073661 9.580381
C 1.023934 3.437744 8.819621
C 1.597504 4.314260 8.756319
C 1.524940 4.945451 9.540622
C 0.957544 4.009642 9.524905
C 1.950874 3.516574 8.765027
C 2.477599 4.320325 8.788462
C 2.485646 4.942867 9.547756
C 1.959877 3.969827 9.551371
C 2.958825 3.408119 8.783909
C 3.515940 4.429967 8.742547
C 3.507383 4.958575 9.577206
C 2.912213 4.070175 9.523334
C 4.049834 3.481695 8.819727
C 4.511516 4.401552 8.727897
C 4.573820 4.937785 9.574496
C 4.106164 4.040863 9.571255
C 5.034438 3.409181 8.777692
C 5.494190 4.318036 8.670866
C 5.461780 4.920308 9.573481
C 5.118099 4.120053 9.568941
C 5.950614 3.422345 8.741130
C 6.434023 4.319247 8.744076
C 6.437746 4.959629 9.574765
C 6.061010 4.043458 9.535080
C 7.062319 3.472296 8.760580
C 7.554091 4.294635 8.775410
C 7.515069 4.789800 9.553373
C 6.983789 4.049157 9.494401
C 8.021722 3.447329 8.837301
C 8.458937 4.277040 8.757640
C 8.517466 4.931747 9.591235
C 7.924168 4.040206 9.572949
C 0.049641 5.193787 8.853205
C 0.458213 6.044384 8.697087
C 0.522305 6.578344 9.513663
C 0.012307 5.717907 9.480934
C 1.009026 5.177593 8.681623
C 1.549659 6.096624 8.848768
C 1.540441 6.668154 9.541559
C 1.012837 5.817232 9.529124
C 2.016622 5.173710 8.804731
C 2.518055 5.990846 8.826349
C 2.476769 6.559579 9.563528
C 2.093674 5.776750 9.576695
C 2.974234 5.217792 8.797597
C 3.535345 6.003118 8.796709
C 3.515042 6.629723 9.568358
C 2.894647 5.738493 9.556361
C 4.003100 5.119910 8.706009
C 4.481549 6.118044 8.716748
C 4.462025 6.565545 9.569320
C 3.934355 5.795606 9.567636
C 5.023428 5.153454 8.767568
C 5.444424 6.089764 8.693224
C 5.554159 6.622708 9.498438
C 4.954041 5.811858 9.563927
C 5.996564 5.146284 8.833238
C 6.464930 6.082122 8.813792
C 6.430698 6.741220 9.505996
C 6.057526 5.750054 9.546025
C 6.966256 5.248978 8.771843
C 7.558525 6.047753 8.793426
C 7.578027 6.653265 9.588942
C 6.958905 5.725959 9.524195
C 7.940477 5.208705 8.712932
C 8.474031 6.011541 8.749094
C 8.553229 6.624784 9.556867
C 7.979842 5.865726 9.550875
C 0.030688 6.906084 8.703072
C 0.525538 7.810399 8.822165
C 0.461326 8.351172 9.580577
C 0.030234 7.623087 9.538018
C 0.920274 6.901441 8.802960
C 1.468933 7.835785 8.796332
C 1.529742 8.399439 9.571350
C 1.033946 7.441252 9.556571
C 1.936858 6.927118 8.852296
C 2.544702 7.843060 8.837991
C 2.579249 8.448629 9.584037
C 1.951885 7.517747 9.510885
C 2.998590 6.933434 8.765762
C 3.581477 7.863062 8.799575
C 3.460138 8.376027 9.514147
C 3.009246 7.519750 9.524924
C 3.922484 6.949074 8.752444
C 4.498368 7.867421 8.730502
C 4.431821 8.376115 9.591806
C 4.052337 7.446372 9.588266
C 4.913505 6.916499 8.758436
C 5.525489 7.719416 8.777860
C 5.489898 8.316846 9.550155
C 5.031731 7.498520 9.481529
C 6.080856 6.927010 8.732081
C 6.482636 7.724325 8.770991
C 6.520822 8.275894 9.559962
C 6.031535 7.570977 9.583463
C 7.062280 6.904997 8.770579
C 7.442280 7.793025 8.718859
C 7.454576 8.363526 9.589051
C 7.100785 7.517331 9.504365
C 7.974986 6.906215 8.723439
C 8.541959 7.801369 8.789650
C 8.499912 8.338871 9.578871
C 8.040231 7.496642 9.590495
2160
Frame 5/10
C 0.001715 0.040355 0.127807
C 0.560366 0.943860 0.019285
C 0.529136 1.434573 0.790272
C 0.018584 0.564854 0.739884
C 0.835454 0.141008 0.047022
C 1.489970 0.954228 0.091115
C 1.511581 1.488076 0.766095
C 0.970635 0.480948 0.789055
C 2.115513 0.010008 0.077190
C 2.490239 0.948465 0.134404
C 2.394608 1.403153 0.864750
C 2.065065 0.646026 0.809007
C 2.879010 0.002139 0.073478
C 3.507720 0.876283 0.077780
C 3.488477 1.468772 0.757152
C 2.974343 0.580819 0.824971
C 4.090833 0.086314 0.011679
C 4.485501 0.861299 0.031342
C 4.504883 1.360925 0.738152
C 3.944078 0.608247 0.914162
C 5.133351 0.088886 0.012621
C 5.483636 0.750565 0.058921
C 5.377256 1.297797 0.798462
C 4.967731 0.500181 0.877322
C 5.867803 0.063135 0.096632
C 6.589847 0.821006 0.011222
C 6.430673 1.450071 0.749556
C 5.993728 0.615251 0.893836
C 7.113637 0.017692 0.053707
C 7.556606 0.827606 0.084941
C 7.416503 1.462839 0.804328
C 6.913736 0.564680 0.730327
C 8.099390 0.005947 0.031371
C 8.475029 0.899348 0.013270
C 8.399058 1.461262 0.781300
C 8.042060 0.698796 0.856668
C 0.002230 1.666918 0.143249
C 0.569656 2.554788 0.040502
C 0.408477 3.166512 0.714044
C 0.073676 2.306010 0.751659
C 1.082518 1.813257 0.063163
C 1.611577 2.646788 0.107484
C 1.485640 3.137391 0.834763
C 1.043585 2.234967 0.926190
C 2.051300 1.788713 0.003116
C 2.539867 2.658315 0.023709
C 2.502405 3.201292 0.853336
C 1.903581 2.318944 0.863759
C 2.960375 1.685202 0.007227
C 3.552325 2.733130 0.057382
C 3.544806 3.153450 0.705600
C 3.085232 2.360350 0.924039
C 3.949328 1.700348 0.094443
C 4.433200 2.603891 0.053761
C 4.591832 3.093098 0.771856
C 3.973548 2.358698 0.798439
C 4.963976 1.567035 0.048458
C 5.540860 2.597215 0.008420
C 5.556999 3.183891 0.919031
C 4.993190 2.302181 0.770489
C 5.974958 1.681368 0.041559
C 6.505406 2.588111 0.085306
C 6.511214 3.104007 0.859219
C 6.138811 2.323837 0.807341
C 7.059344 1.837730 0.014096
C 7.386760 2.544116 0.019243
C 7.452583 3.159768 0.828338
C 7.033076 2.243176 0.775342
C 8.059065 1.828395 0.057003
C 8.370592 2.522030 0.041929
C 8.487536 3.174007 0.887031
C 7.857823 2.296280 0.873057
C 0.026813 3.357411 0.017566
C 0.529669 4.303335 0.079591
C 0.422113 4.923780 0.833616
C 0.008529 3.984579 0.935733
C 0.931651 3.452282 0.128380
C 1.405322 4.313428 0.006744
C 1.555928 4.847883 0.787354
C 0.957089 4.016453 0.750088
C 2.043025 3.557355 0.051678
C 2.428491 4.269291 0.025936
C 2.487641 4.839189 0.876906
C 2.055794 4.097931 0.898525
C 2.891168 3.526838 0.070089
C 3.430082 4.289698 0.010955
C 3.593892 4.941090 0.782637
C 3.003929 4.086724 0.783763
C 3.886532 3.413043 0.108536
C 4.575673 4.310424 0.031720
C 4.429832 4.874429 0.747783
C 4.114223 4.025562 0.782157
C 5.037945 3.503764 0.008292
C 5.418162 4.347115 0.068836
C 5.563045 4.886780 0.738174
C 4.875128 4.140753 0.860685
C 6.036202 3.410506 0.037735
C 6.616398 4.328938 0.004108
C 6.446089 4.914625 0.735658
C 6.015530 3.945719 0.888017
C 7.042102 3.383716 0.068102
C 7.478262 4.261890 0.030191
C 7.458223 4.922378 0.805500
C 6.948737 3.936883 0.814452
C 7.962327 3.405739 0.037115
C 8.487895 4.366950 0.078289
C 8.568169 4.953799 0.866506
C 7.949149 4.124759 0.760839
C 0.050415 5.120819 0.055637
C 0.488451 5.920655 0.047333
C 0.463407 6.744917 0.798217
C 0.023800 5.690971 0.876496
C 1.067474 5.127882 0.043637
C 1.480262 6.009908 0.034839
C 1.559214 6.711209 0.794747
C 0.937144 5.732213 0.794582
C 1.960849 5.277900 0.010256
C 2.556597 6.198515 0.004925
C 2.528622 6.675911 0.781156
C 1.994055 5.815374 0.849186
C 3.053152 5.088286 0.026985
C 3.459322 6.034760 0.072205
C 3.473518 6.705010 0.684700
C 2.957036 5.821346 0.791774
C 3.943734 5.093143 0.065503
C 4.378233 6.088220 0.010521
C 4.495816 6.672968 0.773433
C 4.061110 5.725111 0.888769
C 5.102607 5.232189 0.032028
C 5.608480 6.028003 0.118366
C 5.537448 6.666354 0.842134
C 4.977484 5.821016 0.710111
C 6.019055 5.280062 0.045799
C 6.570254 6.129183 0.073521
C 6.455953 6.772216 0.805771
C 6.017308 5.758471 0.896515
C 7.011432 5.206846 0.018656
C 7.424699 6.080736 0.010482
C 7.398232 6.617619 0.824082
C 6.955930 5.710448 0.872827
C 8.054423 5.314066 0.084661
C 8.509817 6.106025 0.018994
C 8.481805 6.579184 0.752713
C 8.036146 5.817277 0.801960
C 0.053463 6.806165 0.005052
C 0.458268 7.775842 0.077118
C 0.535736 8.395204 0.747617
C 0.083297 7.509172 0.681263
C 1.108507 6.958889 0.035495
C 1.522668 7.838561 0.088760
C 1.556206 8.308914 0.755696
C 1.050257 7.549752 0.751442
C 1.987532 6.899368 0.042504
C 2.607668 7.855569 0.045920
C 2.378669 8.446366 0.772407
C 1.928811 7.517295 0.756079
C 3.035128 6.969497 0.078840
C 3.450215 7.831697 0.007543
C 3.405939 8.433085 0.766056
C 2.951703 7.489948 0.688282
C 4.025833 7.020984 0.044467
C 4.467026 7.827952 0.077916
C 4.487289 8.408133 0.798466
C 4.023995 7.507863 0.943517
C 5.013626 7.023744 0.016536
C 5.606109 7.858563 0.062771
C 5.534584 8.361200 0.774645
C 5.063342 7.478374 0.834330
C 6.002580 6.981804 0.053829
C 6.440523 7.877102 0.063216
C 6.545065 8.324593 0.738919
C 6.029384 7.554619 0.761682
C 6.940406 6.849598 0.024088
C 7.607286 7.897839 0.054319
C 7.369096 8.388772 0.745060
C 6.951644 7.462640 0.872119
C 7.950511 7.052850 0.008387
C 8.497757 7.704998 0.084809
C 8.586205 8.344546 0.878579
C 7.939779 7.425567 0.894430
C 0.012682 0.038210 1.748777
C 0.417493 0.917609 1.546466
C 0.514296 1.363204 2.348246
C 0.047841 0.568473 2.401531
C 0.959587 0.062076 1.550524
C 1.432093 0.792467 1.538706
C 1.556913 1.462147 2.518591
C 1.085873 0.638061 2.340101
C 2.012299 0.014576 1.634714
C 2.432960 0.850364 1.730696
C 2.525131 1.371861 2.430937
C 1.955589 0.669157 2.519712
C 3.019558 0.061117 1.718708
C 3.517067 0.918669 1.697245
C 3.500411 1.503352 2.440065
C 3.093243 0.636296 2.483616
C 3.978670 0.076735 1.691149
C 4.513480 0.865516 1.715674
C 4.471033 1.494655 2.418303
C 4.114295 0.567097 2.416171
C 5.012430 0.073705 1.614002
C 5.464019 0.846965 1.647521
C 5.434996 1.463429 2.443379
C 4.902316 0.582401 2.499190
C 6.025344 0.006079 1.534571
C 6.454011 0.871754 1.581678
C 6.478740 1.348601 2.417154
C 5.994560 0.507457 2.458916
C 6.928325 0.026334 1.561010
C 7.449713 0.939040 1.554727
C 7.383992 1.422047 2.481967
C 7.040745 0.549368 2.447338
C 8.079892 0.074150 1.514713
C 8.501639 0.928527 1.735545
C 8.517490 1.496865 2.385837
C 7.949405 0.500846 2.426306
C 0.034693 1.827601 1.665099
C 0.516962 2.700992 1.537850
C 0.526503 3.160941 2.385461
C 0.012819 2.260133 2.386325
C 1.041946 1.841616 1.642008
C 1.524900 2.608751 1.728535
C 1.479935 3.116434 2.490623
C 0.933034 2.264787 2.410535
C 2.087632 1.673593 1.662252
C 2.441958 2.558012 1.590576
C 2.487027 3.142620 2.538973
C 1.934625 2.379852 2.454733
C 2.992700 1.718067 1.642123
C 3.598173 2.523908 1.645543
C 3.559937 3.189233 2.422137
C 3.064651 2.363852 2.533098
C 4.003983 1.745850 1.524244
C 4.440823 2.633581 1.551924
C 4.573976 3.136919 2.396899
C 3.959731 2.356813 2.525745
C 5.116712 1.678152 1.643689
C 5.505617 2.551707 1.515644
C 5.477041 3.075501 2.446959
C 5.022486 2.289998 2.345302
C 5.960512 1.822486 1.637090
C 6.436641 2.733359 1.628244
C 6.609323 3.132859 2.388515
C 6.077146 2.289713 2.391133
C 7.095838 1.625794 1.693540
C 7.438134 2.584768 1.678664
C 7.496135 3.164256 2.398947
C 6.999347 2.356351 2.368011
C 8.008215 1.719450 1.546577
C 8.522597 2.593256 1.620355
C 8.406344 3.134003 2.429210
C 7.920975 2.239085 2.402931
C 0.065979 3.539265 1.613403
C 0.455964 4.370578 1.766180
C 0.415024 4.885864 2.357025
C 0.018781 4.050710 2.561195
C 0.943126 3.510870 1.627923
C 1.552817 4.280739 1.504264
C 1.545872 4.855387 2.508930
C 1.111888 3.951316 2.435431
C 2.061654 3.464630 1.629252
C 2.550642 4.422874 1.557849
C 2.462167 4.947479 2.532783
C 2.003227 4.152107 2.408531
C 3.004353 3.467773 1.647886
C 3.539636 4.460562 1.693899
C 3.474686 4.976688 2.432187
C 2.945619 4.066995 2.534770
C 4.007430 3.427649 1.561885
C 4.489522 4.349192 1.648239
C 4.506770 4.934307 2.371181
C 3.929701 3.997991 2.512413
C 4.986618 3.521553 1.574743
C 5.489884 4.272921 1.677414
C 5.377306 4.916172 2.488491
C 5.112932 4.037930 2.424211
C 5.957344 3.518764 1.614340
C 6.452997 4.259283 1.587822
C 6.580997 4.975028 2.431724
C 6.122721 4.023249 2.457712
C 6.998068 3.403590 1.724626
C 7.495349 4.325973 1.555847
C 7.521326 5.000134 2.459254
C 6.957529 3.996599 2.478525
C 7.973468 3.504624 1.632230
C 8.540578 4.319033 1.670705
C 8.496659 4.857121 2.423119
C 8.052813 3.978820 2.452717
C 0.126022 5.188115 1.487629
C 0.399799 6.090681 1.606526
C 0.448805 6.688884 2.486008
C 0.020529 5.840394 2.430240
C 0.974263 5.129650 1.702021
C 1.487595 6.088350 1.744945
C 1.410755 6.687506 2.527892
C 1.018383 5.838361 2.513210
C 2.028417 5.217744 1.555803
C 2.462566 6.130875 1.714438
C 2.423061 6.641992 2.516595
C 2.049351 5.720916 2.401589
C 3.037510 5.155407 1.549575
C 3.498725 5.996823 1.690685
C 3.420884 6.661889 2.351985
C 3.034153 5.860528 2.431785
C 4.024613 5.132131 1.647225
C 4.538729 5.987523 1.712321
C 4.443052 6.719108 2.499848
C 4.024332 5.848270 2.356901
C 5.129374 5.207327 1.631993
C 5.482291 6.102543 1.646616
C 5.453523 6.606662 2.556308
C 4.948627 5.720560 2.455967
C 6.066711 5.271264 1.581454
C 6.473972 6.056343 1.776944
C 6.562807 6.600558 2.426961
C 6.070103 5.775681 2.541402
C 6.971723 5.134774 1.692874
C 7.473630 6.126138 1.560491
C 7.602670 6.624457 2.477707
C 6.970273 5.740293 2.405263
C 8.056156 5.158106 1.635299
C 8.538324 6.074585 1.586162
C 8.605142 6.678233 2.499411
C 8.081136 5.752671 2.386990
C 0.028610 6.937032 1.596497
C 0.480367 7.868803 1.542366
C 0.448746 8.406698 2.414723
C 0.030041 7.467612 2.567015
C 0.984529 6.956027 1.492335
C 1.594435 7.810715 1.749386
C 1.445248 8.397316 2.573213
C 0.981736 7.363403 2.448730
C 2.010040 6.977459 1.734192
C 2.434332 7.733194 1.584070
C 2.414513 8.455943 2.481906
C 2.081042 7.530039 2.476194
C 2.982175 6.921037 1.720455
C 3.393843 7.797460 1.552644
C 3.575431 8.428204 2.464846
C 3.014892 7.545354 2.481769
C 3.954995 6.963469 1.494591
C 4.436389 7.746834 1.546427
C 4.578978 8.393631 2.429566
C 3.982643 7.495767 2.440413
C 4.925606 6.998848 1.582374
C 5.555167 7.763556 1.726960
C 5.512995 8.492940 2.473549
C 5.022718 7.459442 2.489788
C 6.044002 6.928655 1.516304
C 6.395876 7.715892 1.599032
C 6.601189 8.367526 2.343900
C 6.080291 7.502028 2.441094
C 7.011492 6.952241 1.633783
C 7.490579 7.775005 1.712614
C 7.504575 8.418433 2.347295
C 6.959325 7.509940 2.431001
C 8.080797 6.932430 1.578861
C 8.462536 7.792847 1.617963
C 8.412203 8.271736 2.446132
C 8.003606 7.531286 2.515809
C 0.135308 0.046086 3.321754
C 0.585907 0.818255 3.242240
C 0.423750 1.515703 4.022849
C 0.030296 0.612104 4.036179
C 1.086259 0.097000 3.296384
C 1.484748 0.902062 3.328192
C 1.491178 1.454982 4.104557
C 1.045513 0.548518 4.156362
C 1.961163 0.117519 3.369524
C 2.475609 0.857619 3.219266
C 2.458887 1.355081 4.083533
C 1.935274 0.636562 4.045902
C 3.073247 0.009000 3.297669
C 3.526900 0.887367 3.399002
C 3.573251 1.524919 4.071048
C 2.990135 0.671962 4.126481
C 4.067852 0.033862 3.207580
C 4.594974 0.923807 3.310760
C 4.581412 1.447557 3.997477
C 3.990546 0.658455 4.054290
C 5.020980 0.045581 3.236795
C 5.475723 0.834727 3.330799
C 5.450782 1.523584 4.083347
C 4.974436 0.626536 3.971579
C 6.057861 0.056908 3.201713
C 6.524387 0.853646 3.248519
C 6.422522 1.542758 4.114703
C 5.977601 0.575024 3.988754
C 6.886103 0.022778 3.228359
C 7.453525 0.798927 3.187560
C 7.501308 1.356822 4.214724
C 6.988461 0.611598 4.103559
C 8.002279 0.088890 3.348984
C 8.559393 0.845188 3.338635
C 8.515977 1.416739 4.043098
C 7.901349 0.585309 4.042552
C 0.012391 1.621784 3.240000
C 0.562553 2.588707 3.294218
C 0.440565 3.162624 4.084874
C 0.072557 2.325877 3.890127
C 1.021852 1.793253 3.275047
C 1.490446 2.614648 3.128132
C 1.589326 3.167080 4.145433
C 0.998741 2.252136 4.036196
C 2.015253 1.710387 3.172091
C 2.520464 2.551997 3.204120
C 2.541163 3.204951 4.072275
C 1.928538 2.376968 4.054921
C 2.978024 1.842660 3.204059
C 3.562655 2.539371 3.314885
C 3.536003 3.187245 4.002541
C 2.993526 2.362485 4.079886
C 4.069144 1.708652 3.318106
C 4.399634 2.697471 3.223845
C 4.552567 3.187301 4.105202
C 3.947964 2.340656 4.183772
C 5.013966 1.816628 3.339131
C 5.399408 2.602846 3.353608
C 5.506211 3.113614 4.021698
C 5.024789 2.391741 4.060217
C 6.043788 1.757063 3.257780
C 6.527787 2.591563 3.281330
C 6.555749 3.169504 4.026807
C 6.124334 2.252544 4.046086
C 7.020972 1.778625 3.274911
C 7.573069 2.674088 3.336470
C 7.467646 3.261846 4.078020
C 7.099185 2.362747 4.088433
C 8.071675 1.723743 3.320137
C 8.455185 2.629573 3.374299
C 8.524928 3.265670 4.043331
C 7.939207 2.327105 4.166460
C 0.063122 3.577155 3.181380
C 0.437054 4.297945 3.166269
C 0.463600 5.040512 4.020390
C 0.105824 3.962069 4.109458
C 0.952486 3.558192 3.279748
C 1.458382 4.394911 3.223375
C 1.390406 5.014510 4.064266
C 1.021613 4.019221 4.147258
C 1.995004 3.544725 3.248390
C 2.556646 4.292694 3.182759
C 2.581549 4.877024 4.147858
C 1.939675 4.020884 4.139998
C 2.987517 3.425742 3.245601
C 3.478936 4.210341 3.184769
C 3.455379 4.959490 4.034432
C 3.062073 3.977149 4.026548
C 4.064634 3.407516 3.279486
C 4.557980 4.382450 3.282319
C 4.562606 4.819594 4.073994
C 3.885500 3.984500 4.098351
C 4.958069 3.495386 3.235880
C 5.435887 4.372416 3.356679
C 5.606840 4.993443 4.132200
C 5.008240 4.145058 4.036125
C 5.922593 3.487860 3.272557
C 6.400842 4.351760 3.387014
C 6.521836 4.815777 4.086364
C 6.035189 3.969743 4.166239
C 6.932404 3.427814 3.254590
C 7.543977 4.421862 3.215783
C 7.526341 4.861672 4.150824
C 6.894298 3.937870 4.060242
C 8.070765 3.461331 3.312524
C 8.549450 4.273107 3.340152
C 8.442214 4.918391 4.129958
C 8.094517 4.045529 4.010531
C 0.056037 5.196997 3.199844
C 0.558257 6.104944 3.218303
C 0.596560 6.548459 4.088348
C 0.013706 5.880483 4.033310
C 1.071322 5.167238 3.203674
C 1.538126 6.005638 3.281945
C 1.529375 6.646072 3.955594
C 0.936174 5.753402 4.122094
C 1.863825 5.225928 3.277119
C 2.472955 5.943022 3.241909
C 2.477403 6.617538 4.083341
C 1.955553 5.792172 4.160060
C 2.985111 5.287734 3.298268
C 3.528904 6.097247 3.255352
C 3.418507 6.664112 4.102352
C 2.963336 5.712456 4.057910
C 4.101332 5.225915 3.296691
C 4.424190 6.115021 3.321109
C 4.457173 6.625245 4.112254
C 4.042416 5.671676 4.118913
C 5.039082 5.261126 3.247805
C 5.484429 5.986281 3.281590
C 5.506167 6.543862 4.054811
C 4.992506 5.677024 4.051140
C 6.013760 5.260283 3.318920
C 6.490068 5.983283 3.308439
C 6.579411 6.583783 4.050668
C 6.067341 5.827427 4.086445
C 7.063659 5.117493 3.193050
C 7.596807 6.130276 3.267058
C 7.527584 6.605426 3.980185
C 7.033150 5.844848 4.047941
C 8.025523 5.140169 3.185554
C 8.561366 6.087557 3.328328
C 8.493249 6.629054 4.141037
C 7.959171 5.777211 4.141068
C 0.012208 6.875768 3.178603
C 0.538360 7.783016 3.198631
C 0.576525 8.291527 4.102682
C 0.129232 7.582117 4.095470
C 0.941580 6.929114 3.287733
C 1.440347 7.767713 3.197695
C 1.437972 8.347627 4.037119
C 1.143134 7.555388 4.117355
C 1.876262 6.920386 3.282665
C 2.410425 7.835781 3.315068
C 2.514892 8.355167 4.192609
C 1.985515 7.621481 4.123068
C 2.955637 6.867857 3.319984
C 3.551601 7.775994 3.277695
C 3.440769 8.384428 3.982808
C 3.019815 7.465744 4.209304
C 4.075151 6.963492 3.215306
C 4.531865 7.920134 3.319700
C 4.384198 8.326284 4.117149
C 3.926815 7.582037 4.058792
C 4.897316 6.948348 3.256108
C 5.460069 7.774447 3.174978
C 5.532773 8.317312 4.131763
C 5.004647 7.439746 4.152354
C 5.952219 6.835391 3.301442
C 6.499873 7.819230 3.262582
C 6.493490 8.441496 4.061384
C 6.045096 7.464660 4.143674
C 7.081261 6.875731 3.296124
C 7.463056 7.788181 3.228874
C 7.402005 8.403013 3.989988
C 6.983876 7.455399 4.149697
C 7.978007 6.885399 3.304896
C 8.625743 7.862998 3.286499
C 8.449796 8.349990 4.077022
C 7.895086 7.421205 4.143060
C 0.031436 0.081086 4.758547
C 0.473560 0.859815 4.979374
C 0.542176 1.462814 5.793485
C 0.084686 0.601297 5.720688
C 1.051461 0.007581 4.934574
C 1.616720 0.845583 4.874538
C 1.492558 1.371138 5.726613
C 1.027017 0.614561 5.807763
C 2.050727 0.027782 5.005084
C 2.521711 0.810166 4.950292
C 2.553812 1.366181 5.712879
C 2.064737 0.625594 5.783257
C 3.074680 0.099286 4.857409
C 3.499655 0.824948 4.965323
C 3.431407 1.423565 5.779249
C 2.996037 0.555947 5.686517
C 3.948255 0.031402 4.878046
C 4.463970 0.847565 4.961180
C 4.455359 1.560839 5.681748
C 4.077022 0.511958 5.771186
C 4.999467 0.017584 4.942336
C 5.571019 0.888751 4.873369
C 5.570641 1.497125 5.685476
C 5.105065 0.585667 5.714448
C 6.014393 0.001482 4.892027
C 6.415603 0.850420 4.814047
C 6.398908 1.460429 5.695148
C 6.040669 0.595758 5.727390
C 7.095812 0.035273 4.850611
C 7.500689 1.002451 4.912724
C 7.495681 1.507342 5.803434
C 6.957889 0.636700 5.784120
C 7.959142 0.029419 4.975263
C 8.440702 0.793635 4.921634
C 8.520235 1.492908 5.742505
C 7.914946 0.506497 5.767818
C 0.043205 1.835302 4.845009
C 0.469517 2.646798 4.939306
C 0.478827 3.072844 5.688847
C 0.041006 2.223391 5.663947
C 0.992960 1.779949 4.819905
C 1.584012 2.600721 4.874549
C 1.483834 3.231780 5.709101
C 1.062545 2.249479 5.760203
C 1.959036 1.770884 4.833261
C 2.427545 2.686358 4.866848
C 2.475142 3.231027 5.721965
C 2.090529 2.301953 5.615124
C 3.078957 1.774669 4.969884
C 3.451523 2.633267 4.948267
C 3.505112 3.227445 5.605626
C 2.889543 2.341972 5.703119
C 3.958602 1.691811 4.850563
C 4.449613 2.621532 4.976517
C 4.465487 3.189946 5.588303
C 3.904294 2.355206 5.671278
C 5.056292 1.828715 4.893079
C 5.466807 2.472866 4.903179
C 5.559201 3.207434 5.692742
C 5.006809 2.374112 5.742398
C 5.930844 1.763169 4.794688
C 6.439771 2.614043 4.980239
C 6.550393 3.137591 5.800849
C 6.072280 2.325604 5.813656
C 7.084184 1.720181 4.862644
C 7.510980 2.554185 4.997177
C 7.412456 3.163840 5.725864
C 7.052869 2.276921 5.639163
C 8.083477 1.721404 4.929734
C 8.564018 2.510257 4.938425
C 8.567974 3.122339 5.714872
C 7.952200 2.352962 5.750407
C 0.077340 3.489168 4.855235
C 0.532743 4.384683 4.781061
C 0.467283 4.814045 5.663369
C 0.008410 4.078340 5.737318
C 1.042070 3.470858 4.914801
C 1.512074 4.354455 4.975032
C 1.469407 4.999566 5.687234
C 1.114198 4.038858 5.696355
C 1.951132 3.451267 4.966271
C 2.549160 4.320279 4.802543
C 2.432387 4.925565 5.782096
C 2.008936 4.124779 5.686174
C 2.969170 3.540288 4.925737
C 3.418368 4.296513 4.889076
C 3.548738 4.942025 5.723818
C 2.999015 4.014460 5.658230
C 4.037648 3.523210 4.919193
C 4.515677 4.368863 4.844430
C 4.598338 4.936074 5.718236
C 4.041259 4.049043 5.833752
C 5.056607 3.507700 4.878698
C 5.593286 4.292220 4.887065
C 5.419259 4.954327 5.728559
C 4.985459 4.046974 5.712506
C 5.950553 3.430699 4.970432
C 6.578355 4.247017 4.929027
C 6.454505 4.911681 5.645053
C 5.990967 4.085054 5.635404
C 7.060103 3.457632 4.824731
C 7.456780 4.350840 4.826816
C 7.456488 4.814390 5.706545
C 7.027807 4.008143 5.686377
C 8.096159 3.413808 4.832281
C 8.502112 4.429969 4.993850
C 8.512638 4.951640 5.616416
C 8.062267 3.998293 5.739748
C 0.135972 5.156020 4.862823
C 0.570370 6.048559 4.872996
C 0.571142 6.670624 5.684053
C 0.042372 5.666268 5.811306
C 1.001275 5.211539 4.986774
C 1.523188 6.016084 4.920444
C 1.507156 6.668262 5.696335
C 0.985210 5.798819 5.787935
C 1.966065 5.241553 4.792039
C 2.581363 6.094183 4.807626
C 2.488866 6.665269 5.659719
C 1.976451 5.832954 5.638676
C 3.091585 5.248335 4.889930
C 3.463078 5.992009 4.853141
C 3.440839 6.637265 5.606196
C 3.043853 5.814952 5.652037
C 4.000512 5.207243 4.986962
C 4.494281 6.075847 4.974944
C 4.476793 6.654385 5.847138
C 4.013552 5.841850 5.762957
C 5.101832 5.184315 4.909203
C 5.560691 6.104041 4.964909
C 5.531658 6.681637 5.620305
C 4.947764 5.759544 5.666863
C 5.888906 5.172589 4.899317
C 6.475405 6.095556 4.843599
C 6.510373 6.636124 5.748863
C 5.958648 5.670662 5.792160
C 6.919880 5.132203 4.913698
C 7.440224 6.132594 4.855149
C 7.529796 6.553288 5.676546
C 6.991272 5.727910 5.672264
C 8.074147 5.173079 4.955714
C 8.475183 5.956098 4.920997
C 8.495537 6.694874 5.740244
C 8.044116 5.879120 5.685185
C 0.025893 6.941115 4.926321
C 0.565728 7.876811 4.974501
C 0.518715 8.418906 5.762686
C 0.044223 7.478051 5.868632
C 1.059353 6.933069 4.976773
C 1.479334 7.730753 4.876918
C 1.469694 8.395391 5.761864
C 0.974630 7.432234 5.728765
C 1.966594 6.853699 4.802140
C 2.477610 7.774259 4.814724
C 2.431832 8.339161 5.678838
C 2.075718 7.477295 5.743070
C 3.046191 6.958171 4.878181
C 3.466640 7.833475 4.863466
C 3.492224 8.385412 5.764029
C 2.923663 7.514394 5.679724
C 3.996202 6.902812 4.832663
C 4.420052 7.681720 4.866228
C 4.453465 8.404815 5.682257
C 4.053400 7.595667 5.717978
C 4.982332 6.983457 4.963409
C 5.501297 7.712811 4.969026
C 5.552807 8.423975 5.644045
C 5.070793 7.434115 5.739819
C 6.080982 6.831534 4.903770
C 6.418414 7.711980 5.007325
C 6.489794 8.436366 5.705487
C 5.910573 7.463885 5.842971
C 7.082345 6.970465 4.970023
C 7.387599 7.733399 4.863445
C 7.532911 8.448652 5.740729
C 7.113293 7.475293 5.654202
C 8.014113 6.903900 4.849678
C 8.480483 7.727797 4.864245
C 8.450274 8.354831 5.747411
C 8.065875 7.596589 5.785982
C 0.081732 0.005129 6.611359
C 0.486400 0.919227 6.443027
C 0.598858 1.449424 7.334274
C 0.054421 0.604590 7.461849
C 1.085066 0.053548 6.632257
C 1.406116 0.843619 6.584754
C 1.495550 1.368460 7.365599
C 0.921828 0.469645 7.333866
C 1.900102 0.047033 6.480154
C 2.517432 0.786341 6.475138
C 2.589023 1.405713 7.321707
C 2.077321 0.542570 7.300323
C 3.058412 0.006679 6.495078
C 3.477844 0.850930 6.393487
C 3.607921 1.440946 7.291677
C 3.084950 0.517218 7.358332
C 3.999342 0.015231 6.546804
C 4.466612 0.948501 6.509883
C 4.597705 1.394705 7.284395
C 4.098376 0.578337 7.366737
C 4.950166 0.053219 6.659771
C 5.573568 0.792736 6.554844
C 5.508495 1.451605 7.391806
C 5.058813 0.564332 7.255765
C 6.056302 0.055814 6.447941
C 6.454665 0.768916 6.535102
C 6.479481 1.386174 7.241466
C 5.970929 0.479733 7.304919
C 6.979596 0.006528 6.586585
C 7.627737 0.819567 6.493599
C 7.633395 1.483464 7.309743
C 7.128551 0.598937 7.434501
C 7.932025 0.022172 6.568896
C 8.446475 0.976157 6.533630
C 8.433380 1.503056 7.376898
C 7.956878 0.562699 7.485092
C 0.014970 1.738346 6.631102
C 0.517537 2.615959 6.518634
C 0.505699 3.126183 7.307298
C 0.002343 2.230298 7.301913
C 1.025767 1.812559 6.507428
C 1.526168 2.484810 6.570026
C 1.516890 3.264373 7.317815
C 1.072250 2.272387 7.347334
C 1.991544 1.687202 6.610126
C 2.573645 2.625876 6.561290
C 2.446216 3.227124 7.413943
C 1.954214 2.416059 7.342761
C 3.055832 1.670714 6.598198
C 3.492067 2.567195 6.581236
C 3.400759 3.186843 7.376788
C 2.999407 2.363425 7.298853
C 3.985894 1.716158 6.491636
C 4.426893 2.636889 6.479925
C 4.458035 3.183075 7.399434
C 3.970956 2.385576 7.292882
C 4.983127 1.753770 6.534288
C 5.452382 2.468871 6.476302
C 5.573086 3.109755 7.391201
C 5.012515 2.369494 7.257044
C 6.034144 1.751532 6.641852
C 6.433879 2.521779 6.628501
C 6.485444 3.092482 7.254620
C 6.044964 2.425182 7.397133
C 7.068379 1.705512 6.597131
C 7.413708 2.550313 6.524716
C 7.533467 3.205312 7.315490
C 6.906342 2.282361 7.308739
C 8.116028 1.670983 6.529395
C 8.614747 2.577182 6.539224
C 8.373339 3.150369 7.395138
C 8.044991 2.216007 7.436167
C 0.007152 3.552070 6.610088
C 0.463674 4.313280 6.454379
C 0.581632 4.947719 7.423323
C 0.108689 4.135447 7.427251
C 0.997631 3.535999 6.494042
C 1.497888 4.271261 6.483100
C 1.610155 4.909024 7.461227
C 0.937092 3.980318 7.350483
C 2.010553 3.552662 6.570922
C 2.441521 4.336648 6.537204
C 2.526739 4.880776 7.283483
C 1.926499 4.139141 7.336311
C 3.009495 3.507950 6.570790
C 3.538931 4.303847 6.459537
C 3.541942 4.948295 7.312698
C 3.042994 3.973708 7.376297
C 3.990621 3.486264 6.417694
C 4.601374 4.324636 6.629683
C 4.405507 4.942815 7.362802
C 4.058074 4.105696 7.422769
C 5.003340 3.411730 6.598335
C 5.510791 4.363251 6.536392
C 5.538976 4.980142 7.329839
C 5.012708 3.912134 7.373341
C 6.048793 3.530466 6.618927
C 6.431133 4.363989 6.508087
C 6.552991 4.953655 7.366158
C 5.981904 3.981846 7.437831
C 6.969549 3.474837 6.552044
C 7.573178 4.253859 6.548173
C 7.448986 5.066627 7.357079
C 7.007210 3.966579 7.254440
C 7.944001 3.409370 6.478696
C 8.534149 4.384710 6.501914
C 8.438815 4.946830 7.348675
C 8.091139 4.030671 7.277572
C 0.105993 5.256265 6.453810
C 0.482305 5.996397 6.460162
C 0.593098 6.637577 7.408210
C 0.015852 5.779676 7.262174
C 0.926630 5.169814 6.431912
C 1.534563 6.127322 6.615644
C 1.598299 6.574208 7.364618
C 1.040440 5.833951 7.312063
C 1.972178 5.265821 6.580349
C 2.521550 6.029111 6.504927
C 2.532462 6.507010 7.355159
C 2.056413 5.763161 7.271126
C 2.991961 5.102260 6.476542
C 3.482118 6.093295 6.541612
C 3.578801 6.646394 7.342809
C 3.028566 5.814658 7.249688
C 3.991926 5.230683 6.617072
C 4.398625 6.126902 6.521468
C 4.429077 6.660635 7.271569
C 3.931257 5.714149 7.275219
C 5.091076 5.153857 6.495740
C 5.453656 6.132330 6.471390
C 5.470349 6.611174 7.460008
C 5.074309 5.740791 7.295384
C 6.033433 5.301602 6.537455
C 6.476987 6.044366 6.622409
C 6.487944 6.589010 7.422974
C 5.947562 5.773283 7.340258
C 6.956718 5.206455 6.440505
C 7.447934 5.972326 6.562265
C 7.406513 6.671972 7.355225
C 6.966147 5.896949 7.320468
C 7.973533 5.189377 6.465909
C 8.464076 5.934050 6.569639
C 8.597672 6.653049 7.391423
C 7.932525 5.728527 7.290129
C 0.049096 6.804032 6.575369
C 0.520604 7.737858 6.463340
C 0.467525 8.324897 7.325773
C 0.002324 7.399575 7.358310
C 1.094841 6.863283 6.567628
C 1.477155 7.829441 6.541843
C 1.584648 8.421083 7.392324
C 1.028136 7.558338 7.231344
C 1.963391 6.914770 6.446806
C 2.397048 7.767786 6.448058
C 2.512438 8.419710 7.401970
C 1.908138 7.475540 7.246189
C 3.045425 6.947618 6.515348
C 3.552336 7.654479 6.556952
C 3.409794 8.392793 7.395313
C 3.049094 7.463602 7.293263
C 3.971751 6.949755 6.515093
C 4.460981 7.815733 6.515054
C 4.526293 8.328639 7.371953
C 3.897256 7.504783 7.337238
C 4.870832 6.937407 6.516826
C 5.556400 7.726639 6.649974
C 5.410356 8.415210 7.387900
C 5.013362 7.547270 7.393421
C 5.977531 7.037714 6.625048
C 6.507130 7.880090 6.583521
C 6.439914 8.308768 7.387150
C 6.073603 7.564755 7.304706
C 7.038590 6.912117 6.608925
C 7.394981 7.859146 6.525617
C 7.516898 8.308704 7.318672
C 6.963148 7.620233 7.384631
C 7.937230 6.916263 6.465894
C 8.460128 7.924732 6.483783
C 8.418401 8.350336 7.377111
C 8.057511 7.496378 7.409082
C 0.037553 0.051417 7.979925
C 0.499319 0.915367 8.120153
C 0.522691 1.375835 8.928383
C 0.029850 0.595150 8.878790
C 1.062620 0.124126 8.095560
C 1.489299 0.897367 8.088683
C 1.558694 1.541363 8.955103
C 1.072668 0.611687 9.072932
C 1.909484 0.012760 8.184362
C 2.437956 0.841654 8.079532
C 2.564701 1.387303 9.008057
C 1.959066 0.677631 8.996629
C 2.996268 0.071469 8.140265
C 3.549983 0.888061 8.221684
C 3.389936 1.458660 8.995842
C 3.040993 0.635685 8.893637
C 3.998892 0.004293 8.095307
C 4.609647 0.802345 8.064164
C 4.380942 1.396379 9.010356
C 4.025932 0.576512 9.103080
C 5.076728 0.060606 8.017430
C 5.494267 0.906071 8.285665
C 5.425040 1.498903 9.010555
C 4.977870 0.569993 8.979072
C 6.005337 0.023110 8.107872
C 6.493311 0.854553 8.030926
C 6.525608 1.402028 8.928333
C 5.958892 0.606428 9.070446
C 7.054384 0.004990 8.079378
C 7.517386 0.865569 8.275445
C 7.516361 1.538930 8.919197
C 7.066476 0.672762 8.988440
C 8.069452 0.092203 8.156890
C 8.538948 0.941654 8.206441
C 8.459948 1.410943 9.069680
C 8.094432 0.563933 9.063226
C 0.136985 1.814999 8.139724
C 0.477862 2.635852 8.271522
C 0.443223 3.232552 8.931135
C 0.138216 2.259033 8.943871
C 0.919230 1.648394 8.148888
C 1.536216 2.637846 8.287775
C 1.481662 3.187703 9.077640
C 1.076319 2.334991 9.055876
C 2.002951 1.734260 8.112929
C 2.501179 2.675902 8.240951
C 2.492158 3.155742 8.850052
C 1.922025 2.334385 8.917509
C 2.941742 1.743419 8.193751
C 3.461478 2.506459 8.213723
C 3.392026 3.176401 9.059865
C 3.046238 2.412788 8.972219
C 3.923432 1.780253 8.262054
C 4.450735 2.591121 8.241385
C 4.483918 3.209339 9.064259
C 3.912541 2.329806 9.033520
C 5.036464 1.636335 8.189704
C 5.501812 2.592662 8.259400
C 5.516146 3.210952 8.919436
C 4.978108 2.287927 9.030103
C 5.936574 1.756924 8.252870
C 6.524907 2.496814 8.208049
C 6.411825 3.169278 8.946141
C 6.080717 2.286127 9.006959
C 7.076840 1.661451 8.140669
C 7.460228 2.643374 8.225496
C 7.524167 3.271940 8.985934
C 6.928928 2.299136 9.064802
C 7.971351 1.620471 8.248996
C 8.517998 2.520316 8.182255
C 8.515437 3.251191 8.994644
C 8.054571 2.383403 9.064175
C 0.035112 3.481255 8.227949
C 0.530447 4.334454 8.022852
C 0.465253 4.940760 9.051962
C 0.012873 4.132402 9.049525
C 1.020588 3.447716 8.219457
C 1.578699 4.259953 8.159539
C 1.565327 4.871080 8.897111
C 0.947371 4.022936 8.967726
C 1.923068 3.401112 8.204164
C 2.587746 4.376093 8.182876
C 2.406812 4.934520 9.038562
C 2.053866 4.117427 8.985445
C 3.073221 3.470537 8.119119
C 3.447013 4.325061 8.222579
C 3.550228 4.951533 9.006239
C 2.978513 3.975370 9.009627
C 4.100903 3.507889 8.182174
C 4.537922 4.346454 8.077733
C 4.541441 4.975469 8.924582
C 3.965044 4.094694 8.955422
C 4.950943 3.461305 8.238916
C 5.434931 4.314186 8.122755
C 5.496402 5.017631 9.024696
C 5.027760 4.063865 9.023308
C 6.006242 3.438786 8.176243
C 6.510671 4.398024 8.234074
C 6.603137 4.931035 8.920328
C 5.953567 4.020451 8.908791
C 7.008167 3.473365 8.103369
C 7.483798 4.254732 8.127752
C 7.507110 4.984242 8.880511
C 7.008945 3.950683 8.957519
C 7.931368 3.527159 8.133111
C 8.509105 4.391564 8.182662
C 8.429553 4.938456 8.974263
C 7.989234 4.015480 8.986692
C 0.017583 5.219498 8.262136
C 0.616324 6.124409 8.164739
C 0.414272 6.517236 8.982374
C 0.119580 5.874067 8.998235
C 1.004082 5.135384 8.073013
C 1.539932 6.081125 8.177491
C 1.402008 6.625522 8.932283
C 1.065795 5.785982 8.899610
C 2.068630 5.157035 8.150709
C 2.425247 6.082374 8.111857
C 2.455927 6.624247 8.925895
C 1.922346 5.802091 8.923447
C 3.066173 5.190631 8.096657
C 3.406451 6.023749 8.128675
C 3.479069 6.622101 9.008201
C 3.047224 5.709575 8.997086
C 3.979064 5.151984 8.075597
C 4.476743 6.052513 8.125957
C 4.587214 6.637789 8.995227
C 3.999724 5.627891 9.009116
C 5.006809 5.218135 8.098489
C 5.474372 5.993205 8.162882
C 5.390717 6.715784 8.935515
C 5.022721 5.686896 9.037406
C 5.961504 5.110775 8.220898
C 6.477238 6.170573 8.199734
C 6.596981 6.660083 9.058989
C 6.027159 5.856105 9.053266
C 6.996373 5.231125 8.275227
C 7.514263 5.958216 8.224039
C 7.460249 6.663966 8.990442
C 7.060923 5.786792 9.034552
C 7.994929 5.136506 8.093876
C 8.591716 5.998099 8.195092
C 8.418183 6.613793 8.960782
C 7.940991 5.748225 8.976264
C 0.009322 6.978686 8.072654
C 0.511642 7.737127 8.125222
C 0.520014 8.367667 8.918371
C 0.057990 7.450994 9.075866
C 0.983274 6.897462 8.130347
C 1.478671 7.779833 8.066621
C 1.500856 8.365068 9.001814
C 1.041612 7.553865 8.893866
C 1.901343 6.866876 8.116323
C 2.522619 7.906931 8.127007
C 2.564289 8.333416 8.905937
C 1.925829 7.481126 8.961555
C 3.145272 6.889074 8.113843
C 3.469713 7.903498 8.184861
C 3.446568 8.424114 8.949440
C 3.020245 7.583042 9.002201
C 4.037586 6.834443 8.244962
C 4.537563 7.755329 8.077970
C 4.421775 8.404755 8.925697
C 3.918980 7.523974 8.905421
C 5.087207 6.926539 8.161081
C 5.438527 7.722033 8.275889
C 5.424593 8.383282 8.944918
C 4.950497 7.517693 8.955419
C 5.975346 6.948764 8.187077
C 6.639176 7.770991 8.204549
C 6.337334 8.360277 9.000150
C 6.092210 7.495205 9.071500
C 6.989456 6.940707 8.200035
C 7.500989 7.853909 8.221773
C 7.584921 8.405353 9.082349
C 7.032299 7.468490 8.897260
C 7.961516 6.839598 8.202802
C 8.584480 7.802292 8.245844
C 8.503451 8.291457 9.064723
C 7.963378 7.617761 9.094469
C 0.059734 0.078264 0.682141
C 0.540897 0.910354 0.628752
C 0.573316 1.484625 1.378581
C 0.005848 0.604748 1.517153
C 1.020213 0.131027 0.492515
C 1.510947 0.831638 0.632708
C 1.501599 1.518583 1.535177
C 0.919620 0.664333 1.487905
C 2.013371 0.127351 0.535280
C 2.553651 0.813962 0.657344
C 2.448942 1.432293 1.407478
C 2.023310 0.670033 1.424783
C 2.941852 0.013938 0.619566
C 3.538568 0.807799 0.595814
C 3.588423 1.488515 1.417352
C 3.040291 0.583349 1.527236
C 4.023666 0.117979 0.557323
C 4.460479 0.795268 0.573825
C 4.422601 1.452862 1.467971
C 3.907559 0.595967 1.480403
C 5.026476 0.016386 0.684271
C 5.580347 0.886696 0.657182
C 5.508592 1.459502 1.337714
C 5.044047 0.574142 1.358912
C 5.979142 0.040976 0.705177
C 6.550700 0.934932 0.684952
C 6.361506 1.466441 1.454845
C 5.929728 0.485049 1.415335
C 7.028103 0.015745 0.753481
C 7.591148 0.808659 0.677802
C 7.398538 1.415639 1.415855
C 7.029346 0.653860 1.357098
C 7.863466 0.062473 0.690251
C 8.515971 0.897525 0.594420
C 8.449635 1.439409 1.515749
C 7.926144 0.570238 1.336260
C 0.034061 1.810040 0.594903
C 0.497193 2.703743 0.546558
C 0.392088 3.119855 1.315089
C 0.145830 2.395160 1.433927
C 0.949580 1.708972 0.501767
C 1.573769 2.641091 0.609362
C 1.445192 3.116205 1.477835
C 0.920186 2.230585 1.394542
C 1.954560 1.726950 0.585699
C 2.500029 2.532861 0.581851
C 2.442204 3.186325 1.375807
C 1.955069 2.193346 1.374709
C 3.080596 1.795692 0.560177
C 3.502767 2.586281 0.610444
C 3.565010 3.229753 1.452943
C 2.940031 2.378784 1.398094
C 3.928998 1.826850 0.647597
C 4.592820 2.587278 0.572205
C 4.475464 3.154593 1.451647
C 3.982082 2.316777 1.414085
C 5.063160 1.678250 0.652949
C 5.424855 2.569964 0.672186
C 5.547082 3.251904 1.458802
C 4.917311 2.343561 1.431281
C 6.004917 1.668336 0.553182
C 6.414410 2.610777 0.569198
C 6.532431 3.208163 1.517886
C 6.069549 2.387828 1.375319
C 7.005607 1.735106 0.712625
C 7.568776 2.646343 0.649862
C 7.370763 3.122843 1.404224
C 6.922756 2.208571 1.420717
C 8.026104 1.796644 0.635566
C 8.530271 2.707232 0.611319
C 8.403614 3.161349 1.417563
C 8.033154 2.327749 1.369241
C 0.099456 3.504574 0.558746
C 0.520377 4.356781 0.716587
C 0.415543 4.909032 1.560224
C 0.101158 4.010013 1.571773
C 0.962659 3.512054 0.696741
C 1.481819 4.387985 0.563326
C 1.478678 4.818774 1.489707
C 1.034018 4.004363 1.500222
C 1.855975 3.457407 0.638606
C 2.404782 4.364268 0.653078
C 2.427143 4.918560 1.428270
C 1.969918 4.062868 1.502266
C 2.970654 3.404993 0.596042
C 3.445427 4.343483 0.640692
C 3.519394 4.820366 1.403162
C 2.940357 4.065791 1.498281
C 4.043035 3.489503 0.530531
C 4.417586 4.364027 0.575070
C 4.468400 4.986858 1.412417
C 4.076570 4.003839 1.416518
C 5.020305 3.401889 0.719393
C 5.478526 4.414451 0.638263
C 5.510591 4.969610 1.409323
C 4.907667 4.100535 1.486467
C 5.946106 3.507422 0.623926
C 6.556785 4.328107 0.567973
C 6.545324 4.823322 1.367735
C 5.999917 4.060953 1.375891
C 6.991933 3.402528 0.647465
C 7.477259 4.370915 0.586489
C 7.545501 4.900291 1.411313
C 6.983879 4.098432 1.404092
C 7.914381 3.457099 0.625526
C 8.473220 4.245494 0.632959
C 8.491221 4.901095 1.352927
C 8.115467 4.047400 1.491570
C 0.057769 5.204276 0.618904
C 0.452610 6.009533 0.561201
C 0.488664 6.774105 1.456415
C 0.040429 5.672860 1.403496
C 0.965668 5.163803 0.513575
C 1.556901 5.973131 0.615460
C 1.408866 6.577289 1.460767
C 0.967885 5.728660 1.438336
C 2.092270 5.172117 0.604480
C 2.493594 6.102443 0.548092
C 2.415071 6.581456 1.494697
C 1.923159 5.760722 1.415175
C 3.020665 5.218622 0.591893
C 3.500600 6.150462 0.677673
C 3.498978 6.719872 1.381611
C 3.069732 5.875546 1.458931
C 4.055230 5.237168 0.483335
C 4.456234 6.075243 0.509481
C 4.530652 6.563432 1.407100
C 4.095628 5.697944 1.467955
C 4.987731 5.039436 0.602501
C 5.450385 6.094022 0.544139
C 5.576633 6.654778 1.439494
C 4.933205 5.884352 1.382296
C 5.991239 5.249978 0.579618
C 6.428854 6.032840 0.604143
C 6.535061 6.683222 1.424249
C 6.088237 5.821706 1.436584
C 7.046712 5.194541 0.567266
C 7.469515 6.133387 0.537328
C 7.448620 6.613942 1.432811
C 6.979305 5.818551 1.496220
C 8.022357 5.173646 0.635508
C 8.451015 6.041121 0.571016
C 8.438920 6.583003 1.373962
C 7.952014 5.757401 1.315902
C 0.043272 6.992416 0.681955
C 0.555842 7.862846 0.643730
C 0.400061 8.332263 1.388362
C 0.012398 7.480212 1.446588
C 0.921524 6.903001 0.559799
C 1.502091 7.778011 0.598598
C 1.491638 8.414595 1.547705
C 0.931651 7.422490 1.451712
C 2.095370 6.939798 0.642118
C 2.573754 7.775771 0.703013
C 2.524527 8.419703 1.376260
C 1.955219 7.607982 1.377781
C 2.954633 6.987703 0.574959
C 3.524514 7.794565 0.712871
C 3.406211 8.390404 1.491362
C 2.955710 7.604525 1.498096
C 3.974170 6.992104 0.634347
C 4.568496 7.686117 0.649278
C 4.475761 8.261397 1.495775
C 3.944382 7.453434 1.424775
C 5.006826 7.020179 0.619253
C 5.518618 7.723050 0.631893
C 5.452740 8.354283 1.397995
C 5.013052 7.467182 1.445061
C 6.027527 7.027165 0.619124
C 6.454650 7.863968 0.568464
C 6.465271 8.451767 1.447723
C 5.941565 7.541607 1.496761
C 7.015303 6.888766 0.630214
C 7.527380 7.711015 0.600019
C 7.509578 8.380256 1.366116
C 7.009168 7.484851 1.397488
C 8.121140 6.974570 0.568329
C 8.450049 7.814919 0.663007
C 8.394325 8.369944 1.396322
C 8.098638 7.450437 1.350941
C 0.107148 0.098060 2.236048
C 0.462905 0.888821 2.304142
C 0.480077 1.371082 3.044954
C 0.033944 0.537470 3.236574
C 0.899926 0.017703 2.286725
C 1.491105 0.988709 2.253698
C 1.486798 1.487000 3.183793
C 0.978090 0.570635 2.961004
C 1.927997 0.031069 2.291918
C 2.463295 0.863736 2.268805
C 2.542583 1.412147 3.029414
C 1.910065 0.499348 3.025137
C 3.033323 0.065229 2.311948
C 3.450434 0.922500 2.236313
C 3.422707 1.408260 3.146841
C 2.940663 0.517187 3.031547
C 3.855891 0.002318 2.281793
C 4.538032 1.019620 2.232941
C 4.495738 1.452688 2.953848
C 3.922709 0.545341 3.051609
C 5.005673 0.002669 2.140700
C 5.409417 0.845433 2.188364
C 5.592218 1.441201 2.990629
C 4.983919 0.545171 2.981581
C 5.912860 0.017279 2.326215
C 6.466677 0.830468 2.272833
C 6.579388 1.425968 3.081118
C 6.014943 0.592672 3.122643
C 7.040266 0.054046 2.155422
C 7.451532 0.877769 2.234587
C 7.484394 1.471751 2.947352
C 6.999740 0.669117 3.059342
C 8.081345 0.033577 2.112188
C 8.473827 0.909889 2.303536
C 8.533171 1.517478 3.172592
C 7.997355 0.496002 3.093423
C 0.001757 1.792213 2.184968
C 0.452059 2.620604 2.269636
C 0.574167 3.131458 3.112039
C 0.121769 2.339988 3.156046
C 0.948746 1.782465 2.195804
C 1.408806 2.570150 2.278382
C 1.487957 3.146208 2.992472
C 1.132990 2.303125 3.056039
C 2.076897 1.757466 2.290693
C 2.513427 2.671706 2.310481
C 2.554865 3.077213 3.095202
C 2.075668 2.295647 3.067394
C 3.020836 1.752749 2.227852
C 3.434738 2.597454 2.248441
C 3.469354 3.111667 3.081726
C 2.966776 2.336084 3.098500
C 3.986833 1.650699 2.307105
C 4.597852 2.634168 2.287852
C 4.555602 3.169113 3.138101
C 3.947607 2.260008 3.010747
C 5.026018 1.623184 2.228032
C 5.407704 2.592609 2.204756
C 5.581600 3.076353 3.010374
C 4.864973 2.376326 3.021786
C 5.960999 1.812654 2.252560
C 6.459107 2.582609 2.284670
C 6.396514 3.174361 2.986133
C 6.062300 2.238406 3.107676
C 6.952451 1.741123 2.265546
C 7.534139 2.674000 2.338419
C 7.473881 3.087970 3.124931
C 7.062993 2.279739 3.165097
C 8.035483 1.778600 2.229503
C 8.525446 2.526694 2.258046
C 8.560959 3.158394 3.013856
C 7.899052 2.310773 3.129290
C 0.094396 3.474102 2.231508
C 0.592080 4.277821 2.165603
C 0.402988 4.892610 2.980250
C 0.067105 4.080188 3.186405
C 0.963357 3.503728 2.275559
C 1.471644 4.261902 2.310821
C 1.473529 4.888691 2.994401
C 1.048699 4.050292 3.056353
C 1.931133 3.480017 2.292745
C 2.433957 4.293699 2.218072
C 2.524409 4.917173 3.092468
C 1.993671 3.987642 3.026592
C 3.008604 3.553597 2.220481
C 3.612749 4.242358 2.261837
C 3.460912 4.833613 3.072837
C 3.000591 4.048610 3.031506
C 3.983743 3.474174 2.173671
C 4.466553 4.371042 2.289695
C 4.409768 4.906201 2.962927
C 4.079273 4.059649 3.119700
C 5.075824 3.467459 2.277295
C 5.470436 4.325830 2.212652
C 5.616893 4.904320 3.069822
C 4.964795 3.989548 3.047851
C 6.023285 3.435689 2.143649
C 6.402176 4.329365 2.268256
C 6.467258 4.869906 3.145371
C 6.022207 3.982886 3.117403
C 6.935436 3.486109 2.204958
C 7.505392 4.230108 2.289138
C 7.445005 4.902298 2.934647
C 6.897005 4.025810 3.093262
C 7.912012 3.482666 2.202618
C 8.434999 4.360735 2.175813
C 8.572252 4.952161 3.122182
C 7.994408 4.094061 3.039710
C 0.027440 5.266333 2.223482
C 0.505108 6.138671 2.291277
C 0.462496 6.657985 3.073557
C 0.021563 5.699625 3.053173
C 0.990213 5.244679 2.164355
C 1.530975 6.122394 2.357046
C 1.593781 6.598601 3.076239
C 0.933004 5.760439 3.044211
C 2.010894 5.222903 2.101665
C 2.463006 6.149614 2.314236
C 2.553008 6.676995 2.951189
C 1.944379 5.675676 3.101248
C 2.940600 5.125642 2.376382
C 3.501904 6.068700 2.203522
C 3.459928 6.665247 3.012803
C 2.983697 5.683839 3.007513
C 4.059196 5.131778 2.233971
C 4.553985 6.051137 2.207799
C 4.462661 6.595797 3.040941
C 4.110305 5.864337 3.036509
C 5.043207 5.228256 2.158364
C 5.363418 6.037964 2.295575
C 5.561647 6.661595 3.061653
C 4.934129 5.794562 3.031207
C 5.909702 5.190924 2.227791
C 6.608059 6.084163 2.251962
C 6.508469 6.594424 3.050045
C 5.918476 5.818289 3.058457
C 7.052899 5.194551 2.225824
C 7.483235 6.064142 2.138522
C 7.499559 6.607008 3.164888
C 7.024185 5.751178 2.952547
C 8.054561 5.113315 2.164513
C 8.520954 6.060032 2.191384
C 8.396781 6.600145 3.077875
C 7.972915 5.787325 2.947665
C 0.081928 6.846989 2.176802
C 0.479914 7.870273 2.364955
C 0.508254 8.358034 3.172053
C 0.071462 7.485141 3.111708
C 0.931449 6.941613 2.187405
C 1.413622 7.712691 2.239587
C 1.455887 8.480471 3.054944
C 0.992499 7.567338 3.060865
C 1.963657 6.873110 2.268519
C 2.468711 7.739197 2.155259
C 2.575132 8.424385 3.034610
C 1.970074 7.454517 2.967794
C 2.990626 6.844257 2.316424
C 3.565680 7.777291 2.124273
C 3.488770 8.461009 3.042576
C 2.964482 7.497786 3.046941
C 4.035840 6.992890 2.301699
C 4.573268 7.836586 2.233727
C 4.479383 8.272987 3.036279
C 3.978523 7.471574 2.945137
C 4.953419 6.960593 2.208548
C 5.367570 7.811325 2.213985
C 5.597296 8.392093 3.021357
C 5.044610 7.587236 2.963733
C 6.016996 6.932934 2.290294
C 6.539205 7.829060 2.374560
C 6.437718 8.351122 3.052863
C 6.085819 7.578314 3.057689
C 6.954328 6.933902 2.225333
C 7.467411 7.831053 2.213602
C 7.632381 8.344063 3.085137
C 6.881343 7.480353 3.050310
C 7.997913 6.966878 2.323016
C 8.476755 7.848693 2.192238
C 8.444912 8.303644 3.100687
C 8.101817 7.551248 3.026894
C 0.027266 0.005447 3.809361
C 0.510607 0.986462 3.921148
C 0.479548 1.444548 4.713819
C 0.037301 0.500542 4.818459
C 0.921738 0.036278 3.791094
C 1.497719 0.783086 3.841550
C 1.436500 1.512517 4.801481
C 0.920185 0.609363 4.714330
C 1.961577 0.004064 3.879278
C 2.466142 0.840793 3.998281
C 2.548967 1.434780 4.582733
C 1.984164 0.574393 4.582924
C 3.067726 0.009986 3.969331
C 3.408832 0.864178 3.864671
C 3.475603 1.409933 4.650443
C 2.917965 0.616765 4.661472
C 3.974103 0.078713 3.797116
C 4.476442 0.957404 3.895973
C 4.554327 1.353810 4.668337
C 4.023902 0.630606 4.634291
C 4.986532 0.005827 3.806769
C 5.569553 0.857788 3.859077
C 5.393975 1.500155 4.773990
C 4.974888 0.614480 4.809892
C 6.118243 0.007866 3.786545
C 6.436008 0.802803 3.887807
C 6.589193 1.454667 4.716885
C 5.975918 0.530826 4.784155
C 7.104807 0.021633 3.822534
C 7.527786 0.946236 3.800034
C 7.606542 1.523137 4.696557
C 7.077511 0.617790 4.675423
C 8.072874 0.136220 3.839095
C 8.519804 0.853478 3.846998
C 8.419243 1.378531 4.662877
C 7.976253 0.602066 4.614472
C 0.060164 1.838065 3.910495
C 0.444169 2.609689 3.890650
C 0.445599 3.172742 4.738280
C 0.067558 2.396414 4.611421
C 0.919229 1.725771 4.000963
C 1.472450 2.513023 3.774990
C 1.531320 3.092742 4.751041
C 0.989211 2.381463 4.754335
C 2.020692 1.767775 3.873634
C 2.456295 2.556587 3.959347
C 2.421557 3.240987 4.641872
C 2.017495 2.293701 4.600199
C 3.059110 1.730703 4.017289
C 3.455747 2.601029 3.935502
C 3.504434 3.243079 4.659334
C 2.966260 2.343219 4.765240
C 4.071800 1.700535 3.824902
C 4.424500 2.548696 3.961762
C 4.514876 3.129036 4.817416
C 3.963578 2.302264 4.745588
C 5.004519 1.819596 3.955795
C 5.468862 2.477381 3.840013
C 5.522401 3.119092 4.720475
C 4.955881 2.280088 4.719680
C 6.037764 1.808156 3.869234
C 6.584144 2.603889 3.862286
C 6.516133 3.286422 4.751719
C 6.078811 2.339384 4.692147
C 7.039848 1.766777 3.782659
C 7.453083 2.696052 3.931077
C 7.474324 3.199376 4.689239
C 7.033870 2.345261 4.663948
C 7.967948 1.753963 3.789396
C 8.470221 2.558690 3.885821
C 8.477139 3.108492 4.711624
C 8.019624 2.382161 4.662461
C 0.042858 3.461612 3.985710
C 0.546281 4.422312 3.901369
C 0.606647 4.932063 4.671732
C 0.081628 4.084553 4.641055
C 0.954827 3.534412 3.855209
C 1.505194 4.409623 3.878536
C 1.380822 4.893087 4.706126
C 1.047628 3.955557 4.717561
C 2.113277 3.529701 3.871219
C 2.484421 4.383062 3.809283
C 2.550474 4.901733 4.656594
C 1.959433 3.952925 4.778184
C 2.978989 3.458203 3.837622
C 3.461519 4.262270 3.866858
C 3.502940 4.894201 4.713049
C 3.062672 4.023165 4.683815
C 3.938007 3.445891 3.741475
C 4.466621 4.401761 3.814688
C 4.518491 4.946212 4.751707
C 4.070027 4.086533 4.748624
C 5.036267 3.520008 3.958340
C 5.580582 4.300515 3.880652
C 5.468541 4.981147 4.627727
C 5.004794 4.045152 4.602499
C 5.988558 3.411062 3.928139
C 6.496335 4.243616 3.904462
C 6.421622 4.876536 4.550539
C 6.055405 4.054945 4.803362
C 6.940063 3.480470 3.841563
C 7.436517 4.298106 3.923840
C 7.452153 4.942752 4.730263
C 7.083863 4.033584 4.718022
C 8.035141 3.548358 3.824011
C 8.569353 4.250927 3.994109
C 8.526932 4.881348 4.769042
C 7.984163 4.088550 4.747989
C 0.040632 5.124760 3.911295
C 0.528896 6.026365 3.945031
C 0.514969 6.768975 4.612839
C 0.013344 5.754648 4.760571
C 0.903456 5.110902 3.838102
C 1.484980 6.164097 3.835697
C 1.526477 6.627928 4.730965
C 1.020894 5.878288 4.579258
C 1.907581 5.165416 3.888605
C 2.415184 6.126256 3.885600
C 2.545512 6.694223 4.754511
C 1.982217 5.762760 4.824521
C 3.025755 5.205346 3.886813
C 3.449258 6.086956 3.959848
C 3.472490 6.561437 4.661361
C 2.985844 5.690293 4.660288
C 3.948677 5.193258 3.800358
C 4.505043 6.023780 3.943877
C 4.399291 6.584257 4.724411
C 4.051812 5.701868 4.693052
C 5.095358 5.200440 3.894212
C 5.535282 6.020365 3.829343
C 5.431449 6.579897 4.695757
C 5.062542 5.807149 4.664147
C 6.011596 5.300922 3.837147
C 6.610086 6.018020 3.843384
C 6.476649 6.722761 4.657054
C 5.977414 5.712662 4.576887
C 7.009400 5.238273 3.980463
C 7.524300 6.003097 3.951429
C 7.445518 6.647643 4.660422
C 6.946885 5.687764 4.620295
C 8.012490 5.225827 3.828854
C 8.448843 6.137705 3.938107
C 8.461261 6.710794 4.750800
C 8.065524 5.818030 4.633349
C 0.025228 6.968954 3.918683
C 0.592343 7.794432 3.829216
C 0.461609 8.323069 4.800200
C 0.012611 7.512488 4.651849
C 0.909275 6.871115 3.854776
C 1.582922 7.854683 3.860466
C 1.436404 8.317945 4.668618
C 1.047159 7.535069 4.681185
C 1.947130 6.953369 3.818926
C 2.488730 7.838022 3.819304
C 2.466820 8.281778 4.810697
C 1.972207 7.487141 4.654477
C 3.055892 6.854608 3.828684
C 3.483591 7.908374 3.835360
C 3.588936 8.324191 4.740906
C 3.041465 7.585072 4.666372
C 4.045523 6.914699 3.799573
C 4.584841 7.752494 3.846698
C 4.456238 8.395842 4.704921
C 3.906832 7.518549 4.682255
C 4.913122 6.893379 3.843627
C 5.478389 7.889724 3.889344
C 5.444353 8.380088 4.718543
C 4.995525 7.581230 4.801249
C 6.009432 6.882153 3.953795
C 6.448668 7.773073 3.857794
C 6.541905 8.389205 4.757968
C 5.944654 7.423920 4.635638
C 6.890212 6.914710 3.905801
C 7.534904 7.821471 4.008878
C 7.552675 8.337742 4.670220
C 6.988225 7.457756 4.796070
C 7.938559 7.012190 3.876423
C 8.541901 7.720400 3.808531
C 8.463556 8.363400 4.605818
C 7.970239 7.402907 4.667041
C 0.015559 0.148368 5.524055
C 0.522320 0.935396 5.501521
C 0.496248 1.527723 6.291030
C 0.007044 0.549825 6.214465
C 1.124277 0.106667 5.463683
C 1.604914 0.822756 5.479594
C 1.560162 1.520092 6.358347
C 1.043740 0.518378 6.311138
C 2.039409 0.077845 5.551194
C 2.468809 0.833374 5.548504
C 2.562699 1.486463 6.288288
C 1.995092 0.701475 6.294695
C 3.069413 0.011599 5.521955
C 3.532939 0.975557 5.544748
C 3.486499 1.461081 6.369117
C 2.967961 0.571780 6.299218
C 3.974343 0.028230 5.402206
C 4.557701 0.941599 5.615109
C 4.473803 1.444864 6.328182
C 3.936529 0.601123 6.285961
C 4.970658 0.066047 5.501157
C 5.626070 0.923220 5.487469
C 5.510887 1.554852 6.333379
C 5.029239 0.671827 6.280791
C 5.884173 0.015464 5.471662
C 6.420064 0.875788 5.547035
C 6.498167 1.344225 6.258976
C 6.033641 0.569110 6.329783
C 7.079431 0.013882 5.529974
C 7.473868 0.957036 5.559278
C 7.443612 1.378226 6.320833
C 6.946817 0.491283 6.346165
C 7.939018 0.054204 5.542876
C 8.562092 0.822353 5.487602
C 8.560413 1.486147 6.364015
C 8.107067 0.606878 6.419712
C 0.022167 1.651930 5.508748
C 0.604202 2.612991 5.497186
C 0.450225 3.196992 6.288771
C 0.035606 2.309115 6.288841
C 1.078409 1.697508 5.541619
C 1.529904 2.677069 5.554743
C 1.529483 3.220374 6.209358
C 0.985539 2.247422 6.281332
C 1.956624 1.728999 5.436160
C 2.468420 2.611759 5.592401
C 2.551472 3.192505 6.379500
C 1.939504 2.266795 6.336603
C 3.034529 1.687171 5.617518
C 3.510366 2.737028 5.471574
C 3.462502 3.083334 6.328507
C 3.091955 2.345887 6.254254
C 3.958844 1.681771 5.511917
C 4.564674 2.691442 5.541684
C 4.520709 3.236483 6.350141
C 3.883603 2.316714 6.365410
C 4.909036 1.765095 5.498621
C 5.443916 2.574550 5.620402
C 5.501319 3.122610 6.402937
C 4.943488 2.307690 6.273637
C 5.954797 1.639511 5.405299
C 6.394924 2.563459 5.470636
C 6.405771 3.123491 6.282854
C 5.939082 2.257992 6.295947
C 7.080940 1.746623 5.461428
C 7.538686 2.542035 5.546968
C 7.495341 3.135258 6.335114
C 6.966208 2.267610 6.446426
C 7.894369 1.676599 5.541178
C 8.603369 2.656068 5.461714
C 8.433140 3.196570 6.432167
C 7.903681 2.328306 6.430579
C 0.081483 3.493543 5.578601
C 0.608573 4.330111 5.556546
C 0.517259 4.793457 6.332007
C 0.025672 4.082654 6.256777
C 0.971708 3.528740 5.535150
C 1.518375 4.264540 5.482457
C 1.456267 4.970539 6.210943
C 0.938233 4.072791 6.384128
C 1.915494 3.522342 5.558445
C 2.604159 4.302334 5.529893
C 2.542170 5.004296 6.280534
C 1.962141 4.001193 6.334984
C 3.031373 3.371679 5.480451
C 3.438307 4.263761 5.531550
C 3.479716 4.972495 6.308324
C 3.009813 4.026791 6.345698
C 3.958424 3.427139 5.515774
C 4.611393 4.281256 5.453476
C 4.466465 4.971060 6.307360
C 4.058573 4.112837 6.393040
C 4.907903 3.444730 5.453562
C 5.430515 4.236571 5.491320
C 5.523300 4.990011 6.252332
C 4.945120 4.014026 6.419914
C 5.964017 3.599952 5.535123
C 6.489403 4.415478 5.521320
C 6.588943 4.881960 6.341601
C 6.069171 4.091970 6.295892
C 6.975881 3.414527 5.593656
C 7.481647 4.377496 5.438159
C 7.448339 4.935596 6.408716
C 6.909429 3.914770 6.313930
C 8.046959 3.519283 5.548926
C 8.576404 4.379223 5.531666
C 8.413270 4.923088 6.393654
C 7.996841 4.005604 6.386952
C 0.014450 5.290752 5.508905
C 0.447611 6.068568 5.575691
C 0.387743 6.674586 6.279941
C 0.026108 5.883819 6.290553
C 1.026303 5.244841 5.501860
C 1.612279 6.134965 5.520960
C 1.525814 6.596090 6.319975
C 0.888606 5.731603 6.341872
C 2.043614 5.086966 5.517918
C 2.512757 6.114869 5.621025
C 2.586109 6.602346 6.296663
C 2.013779 5.789785 6.441582
C 3.053390 5.262147 5.488053
C 3.391731 6.155613 5.495123
C 3.558214 6.547101 6.369954
C 3.056266 5.837286 6.384330
C 4.105841 5.143652 5.469351
C 4.545578 5.972649 5.459700
C 4.510334 6.587339 6.399872
C 4.048701 5.816532 6.294069
C 4.974017 5.271130 5.535463
C 5.587773 6.139707 5.493378
C 5.461082 6.693809 6.333500
C 5.050367 5.673738 6.333097
C 6.033930 5.187898 5.466409
C 6.562130 5.991412 5.576059
C 6.534893 6.564934 6.333690
C 5.873310 5.737616 6.393743
C 6.971330 5.227177 5.639089
C 7.483496 6.021456 5.580756
C 7.411038 6.651809 6.403625
C 6.978640 5.848644 6.276434
C 7.933542 5.168108 5.519169
C 8.490795 6.063600 5.526067
C 8.461486 6.544506 6.320217
C 8.083074 5.829601 6.255761
C 0.026427 7.025464 5.517630
C 0.555975 7.894497 5.591793
C 0.560085 8.327843 6.275024
C 0.017194 7.533057 6.371277
C 0.995305 6.911971 5.563419
C 1.457248 7.847440 5.611962
C 1.596120 8.450494 6.398163
C 1.029007 7.404108 6.378192
C 2.012044 6.987530 5.611789
C 2.572460 7.767192 5.448122
C 2.570659 8.319571 6.327804
C 1.942404 7.490505 6.271500
C 2.895809 6.898910 5.413324
C 3.369240 7.780615 5.495697
C 3.552360 8.291274 6.255099
C 2.970503 7.430155 6.358291
C 3.997809 6.965222 5.409878
C 4.542498 7.791360 5.447586
C 4.486580 8.416555 6.419177
C 4.010575 7.524917 6.294120
C 4.974815 6.942895 5.499396
C 5.479702 7.723793 5.612822
C 5.441330 8.377411 6.370506
C 5.010603 7.458195 6.415371
C 6.053863 6.925168 5.399051
C 6.506602 7.809084 5.502144
C 6.543185 8.320635 6.331970
C 5.933994 7.495082 6.400166
C 7.009544 6.980100 5.464545
C 7.413117 7.749418 5.409445
C 7.506613 8.369904 6.363315
C 7.075907 7.508448 6.402941
C 7.977766 6.990944 5.574067
C 8.464205 7.711129 5.535804
C 8.584542 8.363973 6.297256
C 7.910143 7.516241 6.273489
C 0.075465 0.098553 7.192930
C 0.479010 0.757291 7.166606
C 0.441660 1.507013 7.935633
C 0.014934 0.554682 8.067246
C 1.033951 0.007822 7.214205
C 1.524703 0.871915 7.044192
C 1.550114 1.540322 7.886554
C 1.013211 0.608274 7.974775
C 2.079234 0.041694 7.176857
C 2.532178 0.810731 7.156960
C 2.543838 1.525183 7.935662
C 1.975607 0.625973 7.892594
C 2.977868 0.066620 7.104525
C 3.620369 0.921722 7.164031
C 3.498119 1.371205 7.828246
C 2.988608 0.630797 8.061125
C 4.004329 0.045816 7.051168
C 4.588453 0.917343 7.091061
C 4.449925 1.444533 8.011808
C 4.054646 0.499549 7.903387
C 4.990391 0.047942 7.181351
C 5.442612 0.992888 7.146225
C 5.445477 1.409807 7.876772
C 4.985674 0.515378 8.055516
C 6.097142 0.060457 7.144330
C 6.538771 0.896148 7.171267
C 6.405362 1.484876 7.936241
C 5.927028 0.505884 8.040828
C 7.074289 0.106114 7.089852
C 7.547561 0.893402 7.084080
C 7.514683 1.487684 7.893430
C 6.962031 0.544461 7.929968
C 7.995337 0.024918 7.136188
C 8.565967 0.905974 7.162036
C 8.449045 1.505605 7.901598
C 7.989737 0.659619 7.968927
C 0.106122 1.752106 7.198920
C 0.507972 2.512447 7.061873
C 0.473660 3.181592 8.004434
C 0.015188 2.342355 7.938045
C 0.985125 1.789847 7.098196
C 1.431490 2.678916 7.136277
C 1.402926 3.181665 7.922646
C 1.039419 2.444962 7.926522
C 1.912415 1.701511 7.130734
C 2.502603 2.664559 7.249622
C 2.428687 3.089343 8.001945
C 1.947414 2.339847 7.987797
C 3.010727 1.762933 7.076880
C 3.551435 2.481532 7.082779
C 3.547865 3.164540 7.937029
C 3.115458 2.258159 7.977406
C 3.986229 1.784526 7.185526
C 4.507678 2.680358 7.163225
C 4.458666 3.187939 8.025576
C 3.953002 2.299838 7.904728
C 5.018748 1.668161 7.148345
C 5.467294 2.633076 7.189275
C 5.442556 3.184811 7.899073
C 4.904777 2.293315 7.911428
C 5.877954 1.670614 7.070028
C 6.569101 2.571639 7.109947
C 6.404186 3.174600 7.892691
C 5.896288 2.311011 7.963960
C 7.104943 1.734081 7.110129
C 7.496794 2.665629 7.118501
C 7.447655 3.257336 7.900930
C 6.999638 2.428044 7.963723
C 7.915750 1.816719 7.195728
C 8.496429 2.584721 7.165163
C 8.429503 3.227207 7.944239
C 8.065571 2.370187 8.025039
C 0.055645 3.313045 7.143233
C 0.557385 4.308313 7.157344
C 0.540716 4.856253 8.016607
C 0.083154 4.116807 7.941326
C 0.989956 3.463213 7.080287
C 1.545248 4.351246 7.031584
C 1.451638 4.819611 7.961495
C 1.054512 4.008355 7.911175
C 2.057891 3.395894 7.138952
C 2.503854 4.329484 7.038135
C 2.524150 4.860244 8.055758
C 1.938338 4.043128 7.863212
C 3.074128 3.511086 7.153677
C 3.505524 4.450817 7.148205
C 3.495221 4.945595 8.069495
C 2.955039 4.074509 7.889548
C 3.982326 3.521279 7.150932
C 4.596381 4.302235 7.131781
C 4.526791 5.029189 8.044810
C 4.037687 4.137060 7.946634
C 4.966773 3.555766 7.093373
C 5.420578 4.306909 7.142613
C 5.482398 4.849936 8.004495
C 4.962173 4.001247 7.886930
C 6.103709 3.401425 7.075785
C 6.593871 4.280107 7.211246
C 6.549785 4.959650 8.102993
C 6.032213 4.138267 7.927515
C 6.974427 3.484110 7.187661
C 7.418385 4.367826 7.176809
C 7.430030 5.017381 8.015988
C 6.935275 3.942489 7.970680
C 7.989731 3.422076 7.164628
C 8.480577 4.420940 7.145793
C 8.450202 4.829193 7.850960
C 7.961430 4.073221 7.977996
C 0.027711 5.079831 7.131504
C 0.490502 6.088499 7.140162
C 0.535543 6.637853 8.042549
C 0.007404 5.809257 7.906086
C 0.961824 5.241345 7.206549
C 1.452276 6.093003 7.205506
C 1.443900 6.692101 7.996922
C 1.103427 5.804722 7.965327
C 2.120241 5.235345 7.178233
C 2.555897 5.981866 7.097231
C 2.548381 6.622752 7.994444
C 1.991080 5.844361 7.958855
C 2.951279 5.150256 7.228598
C 3.533548 6.043457 7.133130
C 3.512099 6.531588 7.992441
C 2.989172 5.707799 7.924538
C 3.992441 5.212387 7.217245
C 4.538060 6.054888 7.146121
C 4.631071 6.628807 7.966000
C 4.043473 5.714306 7.910064
C 5.012974 5.149697 7.114805
C 5.498881 6.010832 7.195448
C 5.545594 6.709192 8.022534
C 5.047600 5.735279 7.965577
C 5.946749 5.196863 7.104688
C 6.534436 5.972862 7.130646
C 6.580420 6.583579 7.932430
C 6.044562 5.835141 7.962585
C 6.962671 5.316503 7.144780
C 7.535665 6.008356 7.175372
C 7.431486 6.586012 7.868104
C 7.073733 5.851277 7.975500
C 8.016441 5.190948 7.119884
C 8.544809 5.950623 7.066914
C 8.503813 6.722585 7.918857
C 7.976936 5.824976 7.980862
C 0.021206 6.915920 7.148359
C 0.480460 7.846691 7.167061
C 0.544732 8.441559 7.928650
C 0.080800 7.508960 8.000901
C 0.981316 6.864846 7.168451
C 1.564834 7.809496 7.217319
C 1.485363 8.490957 7.993225
C 1.049356 7.596046 8.016746
C 1.930875 6.929366 7.255639
C 2.487820 7.852164 7.199998
C 2.615584 8.451432 7.877622
C 1.979264 7.409381 7.924078
C 2.991943 6.861464 7.047997
C 3.414232 7.787402 7.050030
C 3.591161 8.300565 7.924643
C 2.912573 7.538166 7.983483
C 3.994141 6.898877 7.246102
C 4.512058 7.837900 7.252206
C 4.500939 8.400148 7.920427
C 3.981277 7.501526 8.061656
C 5.020415 6.857733 7.199358
C 5.427511 7.703557 7.169750
C 5.431975 8.263821 7.937750
C 4.902307 7.427249 7.910348
C 6.019302 6.880271 7.236018
C 6.478251 7.794020 7.084137
C 6.542567 8.417974 7.913561
C 5.926296 7.500469 7.949307
C 6.960047 7.028371 7.229973
C 7.406516 7.846595 7.227616
C 7.624512 8.369928 7.990172
C 7.102679 7.492069 7.897423
C 7.947615 6.886479 7.035070
C 8.435699 7.833963 7.200527
C 8.554695 8.350743 7.915739
C 7.928134 7.583294 8.018031
C 0.010452 0.094281 8.699914
C 0.531209 0.789831 8.788459
C 0.596865 1.381480 9.572031
C 0.118281 0.493872 9.593514
C 0.956185 0.078260 8.626060
C 1.496684 0.968862 8.721327
C 1.408341 1.439055 9.510423
C 0.922368 0.494337 9.569867
C 1.948516 0.057256 8.895168
C 2.559579 0.787781 8.832607
C 2.508130 1.452196 9.516832
C 1.919695 0.654425 9.579025
C 3.061148 0.019707 8.846124
C 3.500232 0.773272 8.822337
C 3.508500 1.368569 9.582106
C 3.022496 0.551493 9.474732
C 4.088224 0.052713 8.815070
C 4.525777 0.793544 8.727493
C 4.529965 1.481302 9.421262
C 4.079774 0.718786 9.573964
C 4.955581 0.005851 8.937501
C 5.520595 0.786216 8.775565
C 5.508576 1.343263 9.571051
C 4.936225 0.548546 9.488901
C 5.988000 0.010851 8.732962
C 6.510671 0.903092 8.808012
C 6.554995 1.341734 9.563181
C 6.068270 0.746878 9.543426
C 6.860889 0.029275 8.824973
C 7.522413 0.977953 8.871772
C 7.556293 1.370243 9.541968
C 6.918741 0.611286 9.497925
C 7.943204 0.049711 8.742987
C 8.497030 0.772116 8.772896
C 8.594912 1.450298 9.520321
C 8.055990 0.407845 9.580768
C 0.085020 1.695809 8.855531
C 0.402336 2.613833 8.819056
C 0.482261 3.247023 9.457620
C 0.012581 2.316711 9.478024
C 1.046966 1.832773 8.868064
C 1.473937 2.544504 8.761452
C 1.577939 3.136093 9.573056
C 1.071625 2.195108 9.578344
C 1.933918 1.848491 8.874941
C 2.559411 2.587980 8.835171
C 2.573933 3.174406 9.575939
C 2.028673 2.426728 9.580416
C 3.028443 1.756746 8.855852
C 3.582854 2.650610 8.817578
C 3.576037 3.106159 9.545094
C 2.995762 2.410023 9.557344
C 4.074130 1.679599 8.756386
C 4.507429 2.591371 8.769009
C 4.452306 3.284668 9.559929
C 3.978585 2.387633 9.512947
C 4.926412 1.681618 8.786508
C 5.499197 2.718660 8.781826
C 5.598331 3.142018 9.553063
C 4.985299 2.281477 9.567189
C 6.041081 1.703891 8.708236
C 6.504655 2.638813 8.747489
C 6.440842 3.181515 9.593577
C 6.017030 2.192273 9.569776
C 7.093648 1.763171 8.705205
C 7.488019 2.633283 8.850867
C 7.414563 3.114516 9.556494
C 6.931344 2.261733 9.583915
C 8.113279 1.625652 8.787759
C 8.580600 2.630859 8.791009
C 8.376010 3.225509 9.542626
C 7.943796 2.364603 9.549909
C 0.039871 3.507643 8.743792
C 0.505772 4.301772 8.888575
C 0.423798 4.902663 9.549250
C 0.029491 4.084398 9.575899
C 1.031912 3.428958 8.833715
C 1.630005 4.308970 8.749312
C 1.533253 4.958108 9.522885
C 0.943392 3.999040 9.501930
C 1.934499 3.534065 8.760923
C 2.470131 4.317057 8.792170
C 2.480862 4.954663 9.532398
C 1.946503 3.945953 9.537219
C 2.945100 3.389459 8.786098
C 3.521253 4.463245 8.730950
C 3.509843 4.975607 9.571665
C 2.882950 4.079750 9.499835
C 4.066446 3.487560 8.833856
C 4.515354 4.425359 8.711416
C 4.598426 4.947887 9.568051
C 4.141553 4.040667 9.563731
C 5.045918 3.390875 8.777809
C 5.492253 4.314005 8.635375
C 5.449040 4.924585 9.566698
C 5.157465 4.146254 9.560644
C 5.934152 3.408427 8.729060
C 6.412030 4.315620 8.732988
C 6.416994 4.977012 9.568410
C 6.081347 4.044128 9.515497
C 7.083092 3.475028 8.754993
C 7.572122 4.282803 8.774767
C 7.520092 4.750574 9.539888
C 6.978386 4.051726 9.461258
C 8.028962 3.441739 8.857288
C 8.445249 4.259344 8.751073
C 8.523289 4.939836 9.590370
C 7.898891 4.039791 9.565989
C 0.066188 5.193000 8.878493
C 0.444285 6.038452 8.670337
C 0.529740 6.557949 9.486941
C 0.016409 5.699376 9.443301
C 1.012035 5.171407 8.649718
C 1.566212 6.108106 8.872577
C 1.553921 6.677696 9.524135
C 1.017117 5.831810 9.507555
C 2.022162 5.166230 8.813861
C 2.524073 5.967068 8.842685
C 2.469025 6.532928 9.553427
C 2.124899 5.777833 9.570983
C 2.965646 5.225006 8.804349
C 3.547127 5.983431 8.803165
C 3.520056 6.626454 9.559867
C 2.859529 5.726823 9.543872
C 4.004134 5.094497 8.682232
C 4.475398 6.136666 8.696551
C 4.449366 6.540883 9.561150
C 3.912474 5.802975 9.558904
C 5.031238 5.139222 8.764310
C 5.425899 6.098959 8.665186
C 5.572212 6.617101 9.466641
C 4.938721 5.824644 9.553960
C 5.995418 5.129662 8.851871
C 6.453239 6.088769 8.825943
C 6.407598 6.775117 9.476718
C 6.076701 5.742239 9.530090
C 6.955008 5.266587 8.770011
C 7.578033 6.042945 8.798787
C 7.604037 6.657844 9.587313
C 6.945206 5.710112 9.500983
C 7.920636 5.212890 8.691463
C 8.465375 5.994661 8.739679
C 8.570972 6.619869 9.544546
C 7.973123 5.896468 9.536557
C 0.040917 6.898712 8.678316
C 0.534051 7.815788 8.837106
C 0.448435 8.344369 9.576159
C 0.040313 7.662267 9.519414
C 0.893699 6.892521 8.811500
C 1.458577 7.849637 8.802663
C 1.539656 8.408725 9.563857
C 1.045262 7.419820 9.544152
C 1.915810 6.926757 8.877281
C 2.559602 7.859336 8.858208
C 2.605665 8.474312 9.580772
C 1.935847 7.521813 9.483236
C 2.998120 6.935179 8.761903
C 3.608636 7.886006 8.806987
C 3.446850 8.377510 9.487587
C 3.012328 7.524483 9.501956
C 3.896645 6.956032 8.744145
C 4.497824 7.891818 8.714889
C 4.409094 8.377626 9.591131
C 4.069783 7.426646 9.586411
C 4.884674 6.912599 8.752135
C 5.533985 7.694478 8.778033
C 5.486530 8.298602 9.535597
C 5.042308 7.496177 9.444095
C 6.107808 6.926614 8.716995
C 6.476849 7.701024 8.768874
C 6.527763 8.243999 9.548673
C 6.042047 7.592786 9.580007
C 7.083039 6.897263 8.768325
C 7.423040 7.792624 8.699365
C 7.439435 8.360842 9.587458
C 7.134380 7.521258 9.474544
C 7.966648 6.898886 8.705472
C 8.555946 7.803748 8.793754
C 8.499883 8.327968 9.573885
C 8.053642 7.493672 9.589384
2160
Frame 6/10
C 0.002144 0.050444 0.159759
C 0.575458 0.963319 0.024106
C 0.536421 1.432371 0.783716
C 0.023229 0.561730 0.720731
C 0.794318 0.176260 0.058778
C 1.487462 0.976279 0.113894
C 1.514476 1.499249 0.753495
C 0.963294 0.456847 0.782195
C 2.144392 0.012510 0.096487
C 2.487799 0.969075 0.168005
C 2.368260 1.393096 0.876813
C 2.081331 0.663195 0.807134
C 2.848763 0.002674 0.091848
C 3.509650 0.878848 0.097225
C 3.485597 1.475120 0.742316
C 2.967928 0.581687 0.827089
C 4.113541 0.107892 0.014599
C 4.481876 0.860117 0.039177
C 4.506104 1.340311 0.718565
C 3.930097 0.615971 0.938578
C 5.166689 0.111108 0.015776
C 5.479545 0.721700 0.073651
C 5.346570 1.261402 0.793953
C 4.959664 0.480889 0.892528
C 5.834754 0.078919 0.120791
C 6.612309 0.809751 0.014027
C 6.413341 1.451743 0.732821
C 5.992160 0.624726 0.913171
C 7.142046 0.022115 0.067133
C 7.570758 0.818001 0.106177
C 7.395629 1.467704 0.801285
C 6.892170 0.561512 0.708785
C 8.124237 0.007434 0.039214
C 8.468786 0.907679 0.016587
C 8.373823 1.465733 0.772501
C 8.052574 0.729157 0.866710
C 0.002787 1.650635 0.179062
C 0.587069 2.543965 0.050628
C 0.385597 3.164282 0.688431
C 0.092096 2.305163 0.735449
C 1.103148 1.833559 0.078954
C 1.639471 2.658965 0.134355
C 1.482050 3.127882 0.839330
C 1.054481 2.216359 0.953613
C 2.064124 1.802879 0.003895
C 2.549834 2.673374 0.029637
C 2.503006 3.207758 0.862545
C 1.879476 2.321330 0.875575
C 2.950469 1.673490 0.009033
C 3.565406 2.766893 0.071727
C 3.556007 3.147955 0.677876
C 3.106540 2.373087 0.950924
C 3.936660 1.692423 0.118054
C 4.416500 2.605344 0.067202
C 4.614790 3.072515 0.760696
C 3.966935 2.371023 0.793925
C 4.954970 1.525782 0.060573
C 5.551075 2.596999 0.010524
C 5.571248 3.186007 0.944665
C 4.991488 2.300376 0.758987
C 5.968698 1.668698 0.051949
C 6.506758 2.585619 0.106632
C 6.514018 3.086151 0.869900
C 6.173513 2.327446 0.805052
C 7.074180 1.864150 0.017620
C 7.358450 2.530625 0.024053
C 7.440729 3.155852 0.831298
C 7.041345 2.226621 0.765053
C 8.073832 1.852481 0.071254
C 8.338240 2.503018 0.052411
C 8.484420 3.173652 0.904665
C 7.822278 2.292999 0.887197
C 0.033516 3.330739 0.021957
C 0.537086 4.296636 0.099488
C 0.402641 4.927855 0.837896
C 0.010661 3.970361 0.965542
C 0.914564 3.449328 0.160474
C 1.381653 4.309253 0.008430
C 1.569910 4.832984 0.780068
C 0.946361 4.010204 0.733486
C 2.053781 3.580669 0.064598
C 2.410614 4.254082 0.032420
C 2.484552 4.822116 0.892008
C 2.069743 4.112052 0.919032
C 2.863960 3.542523 0.087611
C 3.412602 4.279590 0.013693
C 3.617365 4.949493 0.774172
C 3.004912 4.098043 0.775580
C 3.858165 3.400279 0.135670
C 4.594591 4.305498 0.039650
C 4.412291 4.866166 0.730604
C 4.142779 4.021590 0.773572
C 5.047432 3.513680 0.010365
C 5.397703 4.351361 0.086046
C 5.578806 4.881604 0.718593
C 4.843909 4.165578 0.871732
C 6.045252 3.397108 0.047169
C 6.645498 4.328640 0.005135
C 6.432611 4.916411 0.715448
C 6.019413 3.921786 0.905896
C 7.052627 3.363620 0.085128
C 7.472828 4.244830 0.037739
C 7.447779 4.926102 0.802751
C 6.935922 3.910741 0.813940
C 7.952909 3.391149 0.046394
C 8.484869 4.376155 0.097862
C 8.585211 4.965378 0.879008
C 7.936436 4.145586 0.746925
C 0.063018 5.101986 0.069547
C 0.485563 5.885274 0.059166
C 0.454258 6.771264 0.793647
C 0.029750 5.670339 0.891496
C 1.084343 5.110815 0.054546
C 1.475327 5.996841 0.043548
C 1.574018 6.729128 0.789309
C 0.921429 5.721891 0.789103
C 1.951061 5.298338 0.012820
C 2.570746 6.232598 0.006157
C 2.535777 6.685007 0.772320
C 1.992569 5.825843 0.857358
C 3.066440 5.061320 0.033731
C 3.449152 6.027904 0.090256
C 3.466897 6.721380 0.651751
C 2.946295 5.833308 0.785594
C 3.929668 5.067391 0.081878
C 4.347791 6.094731 0.013152
C 4.494771 6.681328 0.762667
C 4.076387 5.713014 0.906837
C 5.128259 5.241199 0.040035
C 5.635600 6.019459 0.147957
C 5.546809 6.673060 0.848543
C 4.971855 5.832895 0.683514
C 6.023818 5.301039 0.057248
C 6.587817 6.145933 0.091901
C 6.444941 6.805388 0.803090
C 6.021636 5.754714 0.916520
C 7.014290 5.209521 0.023320
C 7.405874 6.085375 0.013103
C 7.372790 6.612141 0.825979
C 6.944912 5.694685 0.886910
C 8.068029 5.343545 0.105826
C 8.512271 6.116986 0.023743
C 8.477257 6.564097 0.736767
C 8.045182 5.828221 0.798326
C 0.066829 6.775656 0.006315
C 0.447835 7.771245 0.096398
C 0.544670 8.401111 0.730397
C 0.104121 7.510077 0.647455
C 1.135633 6.966561 0.044369
C 1.528335 7.849644 0.110950
C 1.570257 8.293248 0.740496
C 1.062821 7.560802 0.735179
C 1.984415 6.892159 0.053130
C 2.634585 7.870903 0.057400
C 2.348337 8.465062 0.761385
C 1.911013 7.520231 0.740974
C 3.043910 6.979821 0.098550
C 3.437769 7.841064 0.009429
C 3.382424 8.448461 0.753446
C 2.939628 7.486047 0.656228
C 4.032291 7.044180 0.055584
C 4.458783 7.836382 0.097395
C 4.484111 8.417271 0.793959
C 4.029994 7.508442 0.975272
C 5.017033 7.047630 0.020670
C 5.632636 7.874646 0.078463
C 5.543230 8.358605 0.764182
C 5.079178 7.471580 0.838788
C 6.003226 6.995205 0.067286
C 6.425654 7.897820 0.079020
C 6.556331 8.312846 0.719524
C 6.036731 7.566887 0.747978
C 6.925508 6.829947 0.030110
C 7.634108 7.923741 0.067899
C 7.336370 8.393070 0.727201
C 6.939555 7.451913 0.886024
C 7.938139 7.084012 0.010484
C 8.497196 7.682690 0.106012
C 8.607756 8.337788 0.894099
C 7.924723 7.405571 0.913913
C 0.015853 0.047763 1.777724
C 0.396866 0.930505 1.524835
C 0.517869 1.343161 2.322935
C 0.059801 0.566254 2.389541
C 0.949484 0.077595 1.529907
C 1.415116 0.774078 1.515136
C 1.571141 1.466838 2.535866
C 1.107341 0.653239 2.312753
C 2.015374 0.018221 1.635144
C 2.416200 0.846449 1.755122
C 2.531413 1.353981 2.426299
C 1.944487 0.692109 2.537267
C 3.024448 0.076396 1.740137
C 3.521334 0.931830 1.713309
C 3.500513 1.518345 2.437708
C 3.116554 0.651032 2.492148
C 3.973337 0.095919 1.705688
C 4.516850 0.865389 1.736345
C 4.463791 1.507474 2.410506
C 4.142869 0.564534 2.407841
C 5.015537 0.092132 1.609255
C 5.455023 0.842200 1.651153
C 5.418745 1.468441 2.441851
C 4.877896 0.583663 2.511615
C 6.031679 0.007599 1.509966
C 6.442514 0.873186 1.568850
C 6.473425 1.324906 2.409070
C 5.993200 0.489984 2.461273
C 6.910406 0.032917 1.543016
C 7.437141 0.957293 1.535161
C 7.354990 1.416714 2.490086
C 7.050931 0.542373 2.446800
C 8.099864 0.092688 1.485143
C 8.502049 0.944153 1.761184
C 8.521862 1.510236 2.369923
C 7.936757 0.481720 2.420509
C 0.043367 1.851489 1.673127
C 0.521203 2.726720 1.514065
C 0.533128 3.157318 2.369453
C 0.016024 2.247816 2.370534
C 1.052433 1.869008 1.644262
C 1.531125 2.611419 1.752421
C 1.474919 3.101685 2.500906
C 0.916292 2.253634 2.400797
C 2.109540 1.658979 1.669568
C 2.427447 2.547995 1.579972
C 2.483784 3.134417 2.561344
C 1.918282 2.397465 2.456044
C 2.990876 1.714572 1.644407
C 3.622716 2.505365 1.648681
C 3.574921 3.192683 2.415299
C 3.080814 2.377465 2.554001
C 4.004979 1.749301 1.497058
C 4.426028 2.642456 1.531657
C 4.592470 3.127291 2.383752
C 3.949663 2.368666 2.544808
C 5.145890 1.664678 1.646363
C 5.507021 2.540114 1.486307
C 5.471301 3.050519 2.446326
C 5.028108 2.285147 2.319255
C 5.950640 1.845096 1.638115
C 6.420802 2.767178 1.627058
C 6.636654 3.122216 2.373271
C 6.096432 2.284792 2.376544
C 7.119797 1.599230 1.708678
C 7.422667 2.581440 1.690082
C 7.495169 3.161462 2.386311
C 6.999183 2.368089 2.347641
C 8.010268 1.716299 1.524974
C 8.528246 2.592050 1.617196
C 8.382930 3.123646 2.424141
C 7.901219 2.221506 2.391291
C 0.082474 3.558056 1.608507
C 0.444955 4.380690 1.799477
C 0.393780 4.880460 2.333909
C 0.023477 4.053025 2.589121
C 0.928907 3.522563 1.626656
C 1.566021 4.268391 1.472082
C 1.557340 4.842364 2.523790
C 1.139860 3.928783 2.431917
C 2.077067 3.464762 1.628317
C 2.563302 4.446060 1.539063
C 2.452709 4.957479 2.553606
C 2.004034 4.179771 2.398291
C 3.005441 3.468692 1.651610
C 3.549544 4.493170 1.709126
C 3.468357 4.993990 2.427862
C 2.932023 4.073382 2.556090
C 4.009288 3.418536 1.544109
C 4.486902 4.353958 1.652051
C 4.508462 4.941014 2.351603
C 3.912127 3.987126 2.528144
C 4.983273 3.535916 1.560182
C 5.487355 4.258618 1.688520
C 5.346632 4.918345 2.498241
C 5.141164 4.037050 2.417891
C 5.946680 3.532429 1.609678
C 6.441246 4.241572 1.576529
C 6.601246 4.991915 2.427283
C 6.153402 4.018699 2.459768
C 6.997584 3.388463 1.747535
C 7.494187 4.324933 1.536561
C 7.526657 5.023298 2.461695
C 6.946912 3.985386 2.485783
C 7.966834 3.514756 1.632040
C 8.550723 4.316258 1.680134
C 8.495824 4.844531 2.416527
C 8.066016 3.963163 2.453524
C 0.157528 5.186106 1.451289
C 0.374749 6.097806 1.599910
C 0.436006 6.701222 2.495137
C 0.025661 5.857117 2.425428
C 0.967829 5.113026 1.719279
C 1.484494 6.094893 1.772934
C 1.388444 6.699501 2.547493
C 1.022979 5.854576 2.529140
C 2.035521 5.223142 1.536507
C 2.453207 6.148049 1.734800
C 2.403826 6.642608 2.533372
C 2.061689 5.707770 2.389613
C 3.046887 5.145221 1.528721
C 3.498406 5.980483 1.705109
C 3.401105 6.667478 2.327608
C 3.042691 5.882284 2.427359
C 4.030766 5.116126 1.650784
C 4.548411 5.968859 1.732154
C 4.428815 6.739002 2.512437
C 4.030415 5.866963 2.333753
C 5.161717 5.210121 1.631744
C 5.477864 6.112633 1.650022
C 5.441903 6.598446 2.583012
C 4.935784 5.707325 2.457586
C 6.083389 5.290042 1.568570
C 6.467466 6.054884 1.812932
C 6.578509 6.590815 2.421328
C 6.087629 5.776226 2.564379
C 6.964654 5.119430 1.707845
C 7.467038 6.142127 1.542366
C 7.628338 6.620688 2.484761
C 6.962841 5.731991 2.394207
C 8.070195 5.148595 1.635877
C 8.547905 6.077686 1.574455
C 8.631427 6.687909 2.511891
C 8.101420 5.747464 2.371365
C 0.035762 6.939241 1.587374
C 0.475459 7.887446 1.519710
C 0.435933 8.415478 2.406031
C 0.037552 7.458128 2.596397
C 0.980661 6.962984 1.457171
C 1.618044 7.814836 1.778485
C 1.431560 8.403750 2.604143
C 0.977171 7.327867 2.448540
C 2.012550 6.989773 1.759493
C 2.417914 7.717935 1.571840
C 2.393141 8.477034 2.490010
C 2.101302 7.536161 2.482870
C 2.977719 6.919246 1.742321
C 3.367304 7.798268 1.532557
C 3.594288 8.442359 2.468685
C 3.018615 7.555306 2.489839
C 3.943744 6.972287 1.459991
C 4.420486 7.734985 1.524786
C 4.598723 8.399144 2.424585
C 3.978304 7.493321 2.438144
C 4.907008 7.016510 1.569720
C 5.568959 7.755888 1.750452
C 5.516244 8.523280 2.479563
C 5.028397 7.447915 2.499862
C 6.055002 6.928768 1.487132
C 6.369845 7.696308 1.590543
C 6.626487 8.366512 2.317502
C 6.100363 7.501147 2.438995
C 7.014364 6.958252 1.633981
C 7.488224 7.770199 1.732520
C 7.505718 8.430147 2.321746
C 6.949157 7.511037 2.426379
C 8.100997 6.933488 1.565329
C 8.453170 7.792502 1.614206
C 8.390254 8.246775 2.445292
C 8.004508 7.537719 2.532389
C 0.169135 0.057607 3.335695
C 0.607384 0.806312 3.236302
C 0.404688 1.533783 4.007942
C 0.037871 0.620793 4.024604
C 1.107824 0.121250 3.303982
C 1.480935 0.911071 3.343742
C 1.488973 1.457883 4.110076
C 1.056892 0.541310 4.174832
C 1.951454 0.146899 3.395407
C 2.469511 0.855518 3.207585
C 2.448609 1.333006 4.083796
C 1.919093 0.651365 4.036757
C 3.091559 0.011250 3.305588
C 3.533625 0.892702 3.432255
C 3.591564 1.545303 4.068189
C 2.987668 0.695615 4.137482
C 4.084815 0.042327 3.192977
C 4.618717 0.938253 3.321952
C 4.601764 1.448601 3.976226
C 3.988183 0.678731 4.047242
C 5.026225 0.056976 3.229496
C 5.469654 0.826902 3.347001
C 5.438478 1.543635 4.083564
C 4.968046 0.638833 3.943854
C 6.072326 0.071134 3.185643
C 6.530484 0.850552 3.244151
C 6.403152 1.567603 4.122759
C 5.972001 0.574443 3.965322
C 6.857628 0.028473 3.218951
C 7.441906 0.782152 3.167952
C 7.501635 1.335182 4.247786
C 6.985576 0.620160 4.108829
C 8.002848 0.111112 3.369733
C 8.574242 0.839979 3.356796
C 8.519972 1.410079 4.033252
C 7.876686 0.587299 4.032570
C 0.015489 1.594218 3.233502
C 0.578192 2.586363 3.301275
C 0.425706 3.159422 4.085472
C 0.090696 2.329996 3.842038
C 1.027315 1.808554 3.277311
C 1.488057 2.618789 3.093667
C 1.611657 3.164993 4.161171
C 0.998427 2.237820 4.024624
C 2.019066 1.704971 3.148616
C 2.525580 2.540476 3.188653
C 2.551453 3.212331 4.069724
C 1.910672 2.393859 4.048031
C 2.972530 1.870312 3.188576
C 3.578319 2.524693 3.327108
C 3.545004 3.190199 3.982556
C 2.991908 2.375757 4.079238
C 4.086430 1.702802 3.331135
C 4.374542 2.722318 3.213309
C 4.565709 3.190269 4.110882
C 3.934955 2.348470 4.209094
C 5.017457 1.837772 3.357416
C 5.374259 2.604038 3.375512
C 5.507764 3.098160 4.006503
C 5.030986 2.412327 4.054651
C 6.054735 1.763316 3.255727
C 6.534733 2.589934 3.285165
C 6.569686 3.168022 4.012888
C 6.155418 2.238329 4.036987
C 7.026215 1.790269 3.277142
C 7.591336 2.693090 3.354090
C 7.459557 3.283450 4.076905
C 7.123981 2.376084 4.089921
C 8.089594 1.721666 3.333674
C 8.443981 2.637447 3.401376
C 8.531160 3.288230 4.033544
C 7.924008 2.331531 4.187455
C 0.078903 3.605419 3.160228
C 0.421317 4.289899 3.141339
C 0.454500 5.073770 4.004867
C 0.132279 3.942223 4.116203
C 0.940608 3.581715 3.283187
C 1.447978 4.411107 3.212721
C 1.363007 5.041268 4.059713
C 1.027016 4.013664 4.163452
C 1.993755 3.564882 3.243990
C 2.570807 4.283335 3.161951
C 2.601937 4.869409 4.164202
C 1.924594 4.015743 4.154377
C 2.984396 3.416152 3.240504
C 3.473670 4.180394 3.164464
C 3.444224 4.972493 4.022420
C 3.077591 3.961074 4.012565
C 4.080792 3.393370 3.282860
C 4.572475 4.395530 3.286401
C 4.578257 4.797622 4.071873
C 3.856875 3.970263 4.102319
C 4.947586 3.503208 3.228353
C 5.419859 4.382987 3.379352
C 5.633550 5.014933 4.144630
C 5.010300 4.170960 4.024536
C 5.903241 3.493800 3.274198
C 6.376052 4.357167 3.417270
C 6.527296 4.792851 4.087335
C 6.043987 3.951817 4.187178
C 6.915505 3.418742 3.251740
C 7.554971 4.444795 3.203232
C 7.532926 4.850220 4.167910
C 6.867873 3.911975 4.054682
C 8.088457 3.460639 3.324158
C 8.561812 4.258851 3.358692
C 8.427767 4.921119 4.141827
C 8.118146 4.046549 3.992544
C 0.070046 5.197209 3.183308
C 0.572821 6.115636 3.206381
C 0.620700 6.525691 4.089815
C 0.017132 5.907229 4.021017
C 1.089153 5.160011 3.188095
C 1.547657 5.991503 3.285934
C 1.536719 6.647707 3.923872
C 0.920217 5.748378 4.131997
C 1.829781 5.233373 3.279901
C 2.466194 5.913232 3.235889
C 2.471754 6.612040 4.083556
C 1.944441 5.796840 4.179455
C 2.981388 5.310629 3.306338
C 3.536130 6.106013 3.252692
C 3.398134 6.670258 4.107320
C 2.954170 5.697195 4.051768
C 4.126666 5.233356 3.304366
C 4.405238 6.128231 3.334889
C 4.446466 6.621674 4.119697
C 4.053020 5.646221 4.128022
C 5.048853 5.277370 3.243259
C 5.480536 5.967306 3.285490
C 5.507709 6.519945 4.047894
C 4.990632 5.652906 4.043305
C 6.017200 5.276317 3.332153
C 6.487585 5.963559 3.319051
C 6.599264 6.569846 4.042715
C 6.084176 5.840909 4.087436
C 7.079573 5.097829 3.174815
C 7.621009 6.147300 3.267325
C 7.534480 6.596901 3.954611
C 7.041437 5.862685 4.039307
C 8.031904 5.126174 3.165445
C 8.576707 6.093901 3.343912
C 8.491561 6.626435 4.155677
C 7.948964 5.778139 4.155714
C 0.015260 6.862660 3.156756
C 0.547951 7.780213 3.181791
C 0.595656 8.271514 4.107733
C 0.161540 7.601259 4.098718
C 0.926975 6.929342 3.293169
C 1.425433 7.761084 3.180621
C 1.422465 8.341639 4.025779
C 1.178917 7.567848 4.126074
C 1.845328 6.918433 3.286834
C 2.388031 7.846169 3.327338
C 2.518615 8.351064 4.220141
C 1.981894 7.650463 4.133215
C 2.944546 6.852771 3.333483
C 3.564501 7.771435 3.280622
C 3.425962 8.387640 3.957890
C 3.024769 7.455793 4.241010
C 4.093939 6.972315 3.202635
C 4.539831 7.951610 3.333128
C 4.355248 8.314960 4.125817
C 3.908519 7.601159 4.052870
C 4.871645 6.953385 3.253637
C 5.450087 7.769501 3.152225
C 5.540966 8.303745 4.144083
C 5.005809 7.423295 4.169822
C 5.940274 6.812189 3.310305
C 6.499841 7.825479 3.261730
C 6.491863 8.458975 4.056110
C 6.056370 7.454437 4.158973
C 7.101576 6.862614 3.303657
C 7.453820 7.786668 3.219594
C 7.377506 8.410871 3.966865
C 6.979844 7.442861 4.166501
C 7.972509 6.874698 3.314622
C 8.657178 7.880189 3.291626
C 8.437245 8.344593 4.075658
C 7.868857 7.400119 4.158205
C 0.039295 0.101357 4.723439
C 0.466949 0.858263 4.999473
C 0.552720 1.467673 5.812987
C 0.105857 0.607283 5.721990
C 1.064326 0.009476 4.943473
C 1.645900 0.840473 4.868427
C 1.490697 1.353077 5.729396
C 1.033771 0.623864 5.830833
C 2.063409 0.034728 5.031610
C 2.527139 0.796201 4.963119
C 2.567265 1.346882 5.712229
C 2.080921 0.637655 5.800201
C 3.093350 0.124107 4.847016
C 3.499569 0.814679 4.981909
C 3.414259 1.418612 5.795191
C 2.995046 0.550596 5.679277
C 3.935318 0.039252 4.872813
C 4.454962 0.842950 4.976730
C 4.444199 1.590203 5.673315
C 4.096277 0.495610 5.785113
C 4.999334 0.021980 4.953174
C 5.588774 0.894432 4.866967
C 5.588301 1.510562 5.677975
C 5.131331 0.587746 5.714191
C 6.017991 0.001852 4.890289
C 6.394504 0.846519 4.792813
C 6.373635 1.464691 5.690065
C 6.050836 0.600360 5.730367
C 7.119765 0.044091 4.838518
C 7.500861 1.036557 4.916160
C 7.494601 1.523332 5.825422
C 6.947361 0.651537 5.801281
C 7.948928 0.036773 4.994333
C 8.425877 0.775538 4.927298
C 8.525294 1.505289 5.749261
C 7.893682 0.488783 5.780903
C 0.054007 1.861114 4.831516
C 0.461897 2.658977 4.949388
C 0.473533 3.047198 5.682188
C 0.051258 2.201889 5.651064
C 0.991200 1.791924 4.800137
C 1.605015 2.601381 4.868442
C 1.479792 3.245867 5.707506
C 1.078181 2.234499 5.771383
C 1.948795 1.780593 4.816831
C 2.409432 2.708428 4.858815
C 2.468928 3.244927 5.723587
C 2.113162 2.300091 5.590035
C 3.098696 1.785324 4.987610
C 3.439404 2.642064 4.960589
C 3.506390 3.240449 5.578163
C 2.861929 2.350116 5.700029
C 3.948253 1.681752 4.838458
C 4.437016 2.627395 4.995901
C 4.456858 3.193575 5.556509
C 3.880367 2.366658 5.660227
C 5.070366 1.852881 4.891604
C 5.458509 2.441562 4.904229
C 5.574001 3.215435 5.687058
C 5.008511 2.390290 5.749128
C 5.913555 1.770949 4.768615
C 6.424714 2.618033 5.000553
C 6.562991 3.128131 5.822191
C 6.090350 2.329656 5.838201
C 7.105230 1.717214 4.853560
C 7.513725 2.543211 5.021726
C 7.390569 3.160943 5.728460
C 7.066086 2.268801 5.620084
C 8.104347 1.718742 4.937423
C 8.580022 2.488301 4.948286
C 8.584968 3.109067 5.714720
C 7.940250 2.363853 5.759139
C 0.096675 3.495435 4.844298
C 0.540929 4.398322 4.751581
C 0.459103 4.790686 5.650342
C 0.010513 4.087563 5.742778
C 1.052588 3.472548 4.918756
C 1.515093 4.360536 4.994044
C 1.461759 5.022587 5.680172
C 1.142747 4.038210 5.691574
C 1.938916 3.448059 4.983093
C 2.561450 4.317816 4.778433
C 2.415483 4.930087 5.798750
C 2.011170 4.145611 5.678847
C 2.961463 3.559335 4.932427
C 3.397960 4.288109 4.886601
C 3.560923 4.950662 5.725903
C 2.998768 4.007712 5.643918
C 4.047060 3.537988 4.924247
C 4.519596 4.378546 4.830792
C 4.622923 4.943223 5.718925
C 4.051573 4.050941 5.863320
C 5.070758 3.518601 4.873627
C 5.616607 4.282743 4.884087
C 5.399074 4.966039 5.731828
C 4.981823 4.048355 5.711763
C 5.938192 3.422349 4.988295
C 6.597943 4.226238 4.936539
C 6.443131 4.912731 5.627446
C 5.988709 4.095955 5.615385
C 7.075128 3.456015 4.806169
C 7.445975 4.356018 4.808775
C 7.445610 4.791117 5.704311
C 7.034759 3.999817 5.679101
C 8.120199 3.401235 4.815607
C 8.502640 4.454929 5.017567
C 8.515798 4.962681 5.591650
C 8.077834 3.987504 5.745815
C 0.169965 5.145988 4.853784
C 0.587962 6.045154 4.866500
C 0.588927 6.678398 5.676196
C 0.052965 5.639460 5.835263
C 1.001593 5.215386 5.008722
C 1.528985 6.004560 4.925810
C 1.508945 6.675445 5.691549
C 0.981512 5.805149 5.806048
C 1.957581 5.252903 4.765303
C 2.601703 6.102184 4.784787
C 2.486082 6.671703 5.645778
C 1.970564 5.847818 5.619475
C 3.114481 5.261381 4.887667
C 3.453847 5.974467 4.841681
C 3.426048 6.636698 5.578876
C 3.054816 5.825315 5.636177
C 4.000640 5.210017 5.008957
C 4.492851 6.079264 4.993935
C 4.470991 6.658099 5.880053
C 4.016940 5.858938 5.774826
C 5.127291 5.181357 4.911758
C 5.575863 6.114506 4.981391
C 5.539573 6.692163 5.596511
C 4.934705 5.756055 5.654709
C 5.861133 5.166699 4.899401
C 6.469256 6.103900 4.829754
C 6.512966 6.635273 5.757209
C 5.948310 5.644953 5.811330
C 6.899850 5.116216 4.917377
C 7.425280 6.150198 4.844191
C 7.537245 6.531728 5.666813
C 6.989090 5.716513 5.661460
C 8.092684 5.167311 4.969897
C 8.468978 5.929577 4.926501
C 8.494421 6.708710 5.746436
C 8.055145 5.905525 5.677611
C 0.032366 6.944344 4.933156
C 0.582160 7.897457 4.993381
C 0.523393 8.430738 5.774487
C 0.055279 7.471177 5.906919
C 1.074191 6.934286 4.996222
C 1.474168 7.714884 4.871403
C 1.462118 8.401344 5.773460
C 0.968288 7.413905 5.732086
C 1.958242 6.835073 4.777930
C 2.472012 7.769267 4.793660
C 2.414790 8.331056 5.669678
C 2.094647 7.470231 5.749967
C 3.057739 6.965664 4.872981
C 3.458300 7.843286 4.854588
C 3.490280 8.388870 5.776166
C 2.904579 7.516605 5.670785
C 3.995253 6.896465 4.816083
C 4.400065 7.653593 4.858039
C 4.441831 8.413124 5.673951
C 4.066750 7.618196 5.718602
C 4.977915 6.997272 4.979516
C 5.501622 7.692457 4.986537
C 5.566009 8.437074 5.626187
C 5.088491 7.416257 5.745904
C 6.101228 6.807368 4.904968
C 6.398018 7.691418 5.034412
C 6.487242 8.452562 5.702989
C 5.888217 7.453468 5.874844
C 7.102931 6.981031 4.987784
C 7.359499 7.718191 4.854561
C 7.541139 8.467920 5.747041
C 7.141617 7.467729 5.638882
C 8.017642 6.897825 4.837352
C 8.475604 7.711189 4.855561
C 8.437842 8.350643 5.755394
C 8.082343 7.619349 5.803607
C 0.102165 0.006412 6.631206
C 0.483000 0.932527 6.420791
C 0.623572 1.450935 7.330725
C 0.068026 0.611400 7.490194
C 1.106332 0.066935 6.657329
C 1.382645 0.838017 6.597950
C 1.494438 1.349730 7.369882
C 0.902285 0.442719 7.330215
C 1.875127 0.058791 6.467201
C 2.521791 0.766420 6.460930
C 2.611279 1.396296 7.315016
C 2.096652 0.533875 7.288286
C 3.073015 0.008348 6.485855
C 3.472305 0.847156 6.358866
C 3.634901 1.440338 7.277478
C 3.106187 0.502185 7.360797
C 3.999178 0.019039 6.550513
C 4.458266 0.969120 6.504361
C 4.622131 1.382536 7.268376
C 4.122970 0.578584 7.371304
C 4.937707 0.066524 6.691721
C 5.591960 0.774413 6.560562
C 5.510619 1.453661 7.402640
C 5.073516 0.561078 7.232588
C 6.070377 0.069768 6.426934
C 6.443332 0.744638 6.535885
C 6.474351 1.371873 7.214715
C 5.963662 0.455329 7.294032
C 6.974495 0.008160 6.600239
C 7.659671 0.807952 6.484006
C 7.666744 1.493485 7.300062
C 7.160689 0.604334 7.456009
C 7.915031 0.027715 6.578128
C 8.433094 1.003690 6.534045
C 8.416725 1.517975 7.384006
C 7.946097 0.559036 7.519247
C 0.018712 1.739920 6.655885
C 0.521921 2.620429 6.515300
C 0.507124 3.113871 7.297004
C 0.002929 2.210522 7.290274
C 1.032208 1.832687 6.501292
C 1.532710 2.456492 6.579540
C 1.521113 3.286609 7.310151
C 1.090313 2.263134 7.347049
C 1.989430 1.675991 6.629665
C 2.592057 2.632825 6.568619
C 2.432770 3.240048 7.430311
C 1.942768 2.442724 7.341334
C 3.069791 1.655380 6.614755
C 3.490083 2.559474 6.593552
C 3.375949 3.189696 7.383867
C 2.999259 2.376931 7.286448
C 3.982368 1.712185 6.481553
C 4.408616 2.646591 6.466913
C 4.447544 3.184987 7.412175
C 3.963695 2.404620 7.278985
C 4.978908 1.759200 6.534867
C 5.440478 2.436568 6.462385
C 5.591357 3.093337 7.401883
C 5.015643 2.384518 7.234187
C 6.042680 1.756402 6.669322
C 6.417349 2.502704 6.652634
C 6.481804 3.071745 7.231157
C 6.056205 2.454128 7.409298
C 7.085474 1.698877 6.613421
C 7.392135 2.538371 6.522903
C 7.541834 3.212782 7.307245
C 6.882927 2.275601 7.298807
C 8.145035 1.655716 6.528751
C 8.643434 2.571957 6.541038
C 8.341673 3.144104 7.406805
C 8.056239 2.192658 7.458091
C 0.008940 3.574063 6.629617
C 0.454593 4.309068 6.434982
C 0.602040 4.957779 7.442036
C 0.135862 4.158946 7.446946
C 0.997039 3.553974 6.484560
C 1.497360 4.256544 6.470882
C 1.637693 4.909410 7.489416
C 0.921365 3.965035 7.350986
C 2.013191 3.574802 6.580660
C 2.426901 4.338278 6.538513
C 2.533423 4.874100 7.267236
C 1.908124 4.163564 7.333272
C 3.011869 3.518913 6.580495
C 3.548663 4.297276 6.441429
C 3.552428 4.958499 7.303755
C 3.053743 3.956773 7.383254
C 3.988276 3.491805 6.389125
C 4.626717 4.323263 6.654111
C 4.381884 4.951648 7.366386
C 4.072592 4.121758 7.441344
C 5.004175 3.398637 6.614926
C 5.513489 4.371531 6.537498
C 5.548719 4.998307 7.325181
C 5.015885 3.879805 7.379559
C 6.060992 3.547058 6.640666
C 6.413917 4.372454 6.502117
C 6.566239 4.965198 7.370580
C 5.977380 3.966945 7.460171
C 6.961936 3.477522 6.557063
C 7.591473 4.234792 6.552224
C 7.436233 5.106414 7.359232
C 7.009013 3.947862 7.230933
C 7.930002 3.395688 6.465378
C 8.542687 4.398356 6.494400
C 8.423519 4.956668 7.348726
C 8.113924 4.027976 7.259848
C 0.132491 5.271294 6.434270
C 0.477881 5.979951 6.442210
C 0.616373 6.637089 7.423145
C 0.019815 5.781219 7.240599
C 0.908288 5.163230 6.406898
C 1.543204 6.143607 6.636563
C 1.622874 6.557878 7.368655
C 1.050550 5.849063 7.302961
C 1.965222 5.283238 6.592443
C 2.526937 6.020843 6.498167
C 2.540577 6.473880 7.356832
C 2.070516 5.760576 7.251790
C 2.989952 5.078787 6.462685
C 3.477648 6.101074 6.544022
C 3.598502 6.648109 7.341394
C 3.035707 5.824948 7.224992
C 3.989907 5.239316 6.638348
C 4.373282 6.143083 6.518843
C 4.411346 6.665911 7.252344
C 3.914071 5.699311 7.256907
C 5.113845 5.143283 6.486682
C 5.442070 6.149867 6.456245
C 5.462936 6.604085 7.487893
C 5.092887 5.732613 7.282112
C 6.041791 5.327965 6.538826
C 6.471234 6.039912 6.645019
C 6.484930 6.576380 7.441600
C 5.934453 5.773229 7.338205
C 6.945898 5.209032 6.417639
C 7.434918 5.949863 6.569839
C 7.383141 6.680083 7.356913
C 6.957683 5.927811 7.313467
C 7.966916 5.187684 6.449394
C 8.455095 5.902017 6.579056
C 8.622090 6.656429 7.402161
C 7.915657 5.717284 7.275544
C 0.061370 6.772990 6.586218
C 0.525755 7.723766 6.446182
C 0.459406 8.313226 7.320098
C 0.002904 7.373082 7.360770
C 1.118551 6.847053 6.576542
C 1.471443 7.838243 6.544311
C 1.605810 8.433458 7.403287
C 1.035170 7.571534 7.202062
C 1.954239 6.911413 6.425516
C 2.371311 7.761175 6.427080
C 2.515548 8.431743 7.415344
C 1.885172 7.468038 7.220618
C 3.056781 6.952472 6.511193
C 3.565420 7.619542 6.563197
C 3.387242 8.398097 7.407024
C 3.061368 7.453115 7.279461
C 3.964689 6.955144 6.510873
C 4.451226 7.821108 6.510825
C 4.532867 8.317904 7.377824
C 3.871570 7.504592 7.334431
C 4.838540 6.939709 6.513040
C 5.570500 7.709741 6.679476
C 5.387945 8.426117 7.397758
C 5.016702 7.557700 7.404659
C 5.971914 7.065092 6.648317
C 6.508913 7.901555 6.596409
C 6.424893 8.293065 7.396820
C 6.092004 7.579556 7.293765
C 7.048237 6.908096 6.628163
C 7.368727 7.875375 6.524029
C 7.521123 8.292985 7.311223
C 6.953935 7.648904 7.393672
C 7.921538 6.913278 6.449375
C 8.450160 7.957357 6.471736
C 8.398001 8.345025 7.384271
C 8.071889 7.494086 7.424235
C 0.046941 0.064272 7.933664
C 0.499149 0.927703 8.108949
C 0.528363 1.358949 8.915113
C 0.037313 0.599600 8.853123
C 1.078275 0.155157 8.078207
C 1.486624 0.905202 8.069611
C 1.573367 1.565859 8.948514
C 1.090835 0.620271 9.095801
C 1.886855 0.015950 8.189210
C 2.422445 0.835561 8.058173
C 2.580876 1.373284 9.014706
C 1.948833 0.702702 9.000421
C 2.995336 0.089336 8.134089
C 3.562479 0.893570 8.235863
C 3.362421 1.462480 8.999437
C 3.051242 0.650269 8.871682
C 3.998615 0.005366 8.077891
C 4.637058 0.786425 8.038962
C 4.351177 1.384629 9.017580
C 4.032415 0.576302 9.133485
C 5.095910 0.075758 7.980545
C 5.492834 0.916083 8.315838
C 5.406300 1.512784 9.017828
C 4.972338 0.568154 8.978475
C 6.006671 0.028888 8.093598
C 6.491639 0.851686 7.997415
C 6.532011 1.391690 8.915051
C 5.948615 0.613698 9.092693
C 7.067980 0.006237 8.057979
C 7.521732 0.865455 8.303064
C 7.520451 1.562818 8.903632
C 7.083095 0.696615 8.990185
C 8.086815 0.115254 8.154870
C 8.548685 0.960561 8.216808
C 8.449935 1.402834 9.091735
C 8.118040 0.560579 9.083668
C 0.171231 1.835736 8.133413
C 0.472328 2.645295 8.298160
C 0.429029 3.246833 8.918553
C 0.172770 2.246442 8.934474
C 0.899038 1.627479 8.144867
C 1.545270 2.647787 8.318476
C 1.477077 3.190772 9.101686
C 1.095399 2.341389 9.074480
C 2.003689 1.734813 8.099919
C 2.501474 2.695358 8.259946
C 2.490197 3.150820 8.817199
C 1.902532 2.340631 8.901521
C 2.927178 1.746261 8.200946
C 3.451847 2.483554 8.225912
C 3.365032 3.176644 9.079466
C 3.057797 2.438635 8.969908
C 3.904290 1.792304 8.286325
C 4.438419 2.589382 8.260488
C 4.479898 3.217816 9.084958
C 3.890677 2.334908 9.046534
C 5.045580 1.612406 8.195888
C 5.502265 2.591307 8.283007
C 5.520183 3.219833 8.903930
C 4.972635 2.282558 9.042264
C 5.920717 1.763142 8.274845
C 6.531133 2.471498 8.218819
C 6.389781 3.167740 8.937311
C 6.100896 2.280309 9.013333
C 7.096050 1.643801 8.134593
C 7.450285 2.654698 8.240628
C 7.530209 3.296067 8.987053
C 6.911161 2.296570 9.085637
C 7.964189 1.592577 8.270002
C 8.522498 2.500875 8.186577
C 8.519296 3.270131 8.997939
C 8.068213 2.401904 9.084854
C 0.043890 3.485544 8.243693
C 0.538059 4.335535 7.987322
C 0.456566 4.949079 9.069587
C 0.016092 4.155140 9.066541
C 1.025735 3.443619 8.233079
C 1.598373 4.242408 8.158181
C 1.581659 4.861980 8.876023
C 0.934214 4.018307 8.964293
C 1.903835 3.385365 8.213963
C 2.609682 4.387584 8.187352
C 2.383515 4.941280 9.052838
C 2.067333 4.136421 8.986441
C 3.091526 3.472146 8.107656
C 3.433766 4.323794 8.236982
C 3.562785 4.962546 9.012434
C 2.973142 3.958850 9.016669
C 4.126128 3.518837 8.186474
C 4.547403 4.350535 8.055924
C 4.551802 4.992466 8.910363
C 3.956305 4.108004 8.948912
C 4.938679 3.460606 8.257403
C 5.418664 4.310200 8.112201
C 5.495502 5.045169 9.035505
C 5.034700 4.069469 9.033771
C 6.007802 3.432458 8.179061
C 6.513339 4.414997 8.251350
C 6.628921 4.936923 8.905045
C 5.941959 4.015202 8.890623
C 7.010209 3.475682 8.087968
C 7.479747 4.235883 8.118448
C 7.508887 5.003432 8.855274
C 7.011182 3.927991 8.951534
C 7.914210 3.542924 8.125146
C 8.511382 4.406922 8.187085
C 8.411942 4.946200 8.972464
C 7.986542 4.008988 8.988001
C 0.021979 5.225335 8.286428
C 0.645406 6.139967 8.164681
C 0.392840 6.486663 8.982603
C 0.149475 5.899208 9.002429
C 1.005103 5.120192 8.050024
C 1.549915 6.085861 8.180621
C 1.377510 6.622020 8.919989
C 1.082244 5.789103 8.879148
C 2.085788 5.147257 8.147144
C 2.406559 6.087422 8.098579
C 2.444909 6.620426 8.912004
C 1.902933 5.809238 8.908943
C 3.082716 5.189251 8.079579
C 3.383063 6.014141 8.119601
C 3.473836 6.617744 9.014887
C 3.059030 5.693593 9.000993
C 3.973831 5.140942 8.053254
C 4.470929 6.050096 8.116204
C 4.609017 6.637354 8.998668
C 3.999656 5.591489 9.016030
C 5.008511 5.223631 8.081869
C 5.467966 5.975961 8.162360
C 5.363397 6.734847 8.924029
C 5.028401 5.665245 9.051392
C 5.951880 5.089431 8.234880
C 6.471547 6.197672 8.208425
C 6.621227 6.665221 9.078371
C 6.033949 5.876757 9.071217
C 6.995466 5.239869 8.302791
C 7.517829 5.932225 8.238806
C 7.450312 6.670075 8.992687
C 7.076153 5.790114 9.047825
C 7.993661 5.121595 8.076103
C 8.614645 5.982078 8.202622
C 8.397728 6.607358 8.955613
C 7.926239 5.741906 8.974965
C 0.011653 6.991307 8.049575
C 0.514553 7.722852 8.115285
C 0.525017 8.366688 8.902598
C 0.072488 7.437355 9.099467
C 0.979093 6.889778 8.121692
C 1.473339 7.776234 8.042034
C 1.501070 8.363440 9.006902
C 1.052015 7.565943 8.871967
C 1.876678 6.851545 8.104162
C 2.528274 7.935106 8.117516
C 2.580361 8.323875 8.887056
C 1.907286 7.475021 8.956578
C 3.181589 6.879292 8.101062
C 3.462141 7.930815 8.189834
C 3.433211 8.437247 8.941435
C 3.025306 7.602415 9.007386
C 4.046982 6.811003 8.264960
C 4.546953 7.745603 8.056219
C 4.402219 8.413049 8.911757
C 3.898725 7.528580 8.886411
C 5.109009 6.926124 8.160109
C 5.423159 7.703983 8.303619
C 5.405741 8.386208 8.935783
C 4.938121 7.520728 8.948909
C 5.969182 6.953905 8.192604
C 6.673970 7.765181 8.214444
C 6.296667 8.357451 9.004823
C 6.115263 7.492619 9.094010
C 6.986820 6.943834 8.208801
C 7.501236 7.868828 8.235974
C 7.606151 8.413796 9.107572
C 7.040374 7.459225 8.876210
C 7.951895 6.817447 8.212260
C 8.605600 7.804308 8.266063
C 8.504314 8.271426 9.085539
C 7.954223 7.645813 9.122721
C 0.074667 0.097830 0.699583
C 0.551121 0.921436 0.632847
C 0.591645 1.494936 1.366008
C 0.007310 0.611597 1.539223
C 1.025267 0.163784 0.462551
C 1.513684 0.823041 0.637792
C 1.501999 1.537383 1.561754
C 0.899525 0.686078 1.502664
C 2.016713 0.159188 0.516007
C 2.567064 0.800947 0.668587
C 2.436178 1.429522 1.402131
C 2.029137 0.693203 1.423761
C 2.927315 0.017423 0.621365
C 3.548210 0.793243 0.591674
C 3.610529 1.499798 1.414472
C 3.050363 0.584849 1.551828
C 4.029583 0.147473 0.543561
C 4.450599 0.777578 0.564188
C 4.403252 1.455232 1.477746
C 3.884448 0.600621 1.493286
C 5.033095 0.020483 0.702246
C 5.600434 0.891864 0.668385
C 5.510740 1.463532 1.314925
C 5.055059 0.573340 1.341423
C 5.973927 0.051220 0.728379
C 6.563375 0.952159 0.703097
C 6.326883 1.472207 1.461338
C 5.912161 0.461974 1.411951
C 7.035129 0.019681 0.788759
C 7.613935 0.794318 0.694159
C 7.373173 1.408703 1.412601
C 7.036683 0.672987 1.339155
C 7.829333 0.078091 0.709720
C 8.519964 0.905400 0.589933
C 8.437043 1.438417 1.537468
C 7.907680 0.568460 1.313107
C 0.042576 1.829538 0.590536
C 0.496492 2.730159 0.530105
C 0.365110 3.105962 1.286644
C 0.182288 2.416600 1.435191
C 0.936975 1.703203 0.474115
C 1.592211 2.651844 0.608609
C 1.431490 3.101399 1.490077
C 0.900233 2.210882 1.385960
C 1.943200 1.725675 0.579031
C 2.500036 2.516556 0.574221
C 2.427755 3.189049 1.362542
C 1.943836 2.164332 1.361169
C 3.100745 1.811603 0.547128
C 3.503458 2.583332 0.609961
C 3.581262 3.243333 1.458961
C 2.925038 2.396130 1.390400
C 3.911247 1.850550 0.656404
C 4.616025 2.584578 0.562163
C 4.469330 3.149384 1.457341
C 3.977603 2.318622 1.410388
C 5.078951 1.664800 0.663093
C 5.406068 2.562935 0.687139
C 5.558852 3.271023 1.466285
C 4.896639 2.352102 1.431884
C 6.006146 1.652407 0.538384
C 6.393012 2.613951 0.558405
C 6.540538 3.216346 1.540139
C 6.086937 2.407435 1.361931
C 7.007009 1.735870 0.737688
C 7.585970 2.658409 0.659235
C 7.338454 3.109696 1.398063
C 6.903445 2.183364 1.418679
C 8.032630 1.812793 0.641365
C 8.537838 2.734520 0.611056
C 8.379518 3.157829 1.414736
C 8.041442 2.332336 1.354334
C 0.124321 3.514692 0.545339
C 0.525472 4.363444 0.742641
C 0.394428 4.909419 1.593062
C 0.126448 4.002153 1.607499
C 0.953323 3.524043 0.717833
C 1.477273 4.402449 0.551064
C 1.473348 4.796598 1.504916
C 1.042523 3.995091 1.518060
C 1.819969 3.455734 0.645164
C 2.380978 4.372802 0.663255
C 2.408929 4.921330 1.428120
C 1.962398 4.068223 1.520615
C 2.963317 3.390216 0.591960
C 3.431783 4.346821 0.647772
C 3.524243 4.798587 1.396735
C 2.925446 4.071876 1.515634
C 4.053794 3.495854 0.510070
C 4.396982 4.372502 0.565744
C 4.460500 5.006703 1.408304
C 4.095713 3.994436 1.413429
C 5.025381 3.386337 0.746149
C 5.473157 4.435531 0.644736
C 5.513239 4.985142 1.404436
C 4.884584 4.115306 1.500866
C 5.932633 3.518253 0.626815
C 6.570981 4.327601 0.556873
C 6.556655 4.802282 1.352451
C 5.999897 4.065828 1.362646
C 6.989916 3.387135 0.656238
C 7.471574 4.381111 0.580018
C 7.556876 4.898494 1.406924
C 6.979849 4.112678 1.397897
C 7.892976 3.455349 0.628815
C 8.466525 4.224335 0.638106
C 8.489026 4.899499 1.333941
C 8.144333 4.048887 1.507245
C 0.072212 5.206308 0.620537
C 0.440762 5.996372 0.548409
C 0.485830 6.807749 1.463301
C 0.050536 5.647700 1.397152
C 0.957086 5.155716 0.488876
C 1.571127 5.950868 0.616232
C 1.386083 6.561728 1.468741
C 0.959856 5.717451 1.440703
C 2.115338 5.166108 0.602507
C 2.491993 6.112509 0.532022
C 2.393839 6.566937 1.511154
C 1.903949 5.757528 1.411751
C 3.025832 5.224239 0.586773
C 3.500750 6.172532 0.693999
C 3.498723 6.739957 1.369796
C 3.087166 5.901057 1.466447
C 4.069037 5.247422 0.451076
C 4.445293 6.078509 0.483758
C 4.538315 6.544408 1.401657
C 4.119535 5.679055 1.477726
C 4.984664 5.000257 0.600033
C 5.437982 6.101983 0.527081
C 5.595792 6.658590 1.442150
C 4.916506 5.912065 1.370653
C 5.989049 5.263436 0.571429
C 6.411067 6.025505 0.602086
C 6.543826 6.694145 1.423094
C 6.110297 5.833758 1.438512
C 7.058390 5.194139 0.555989
C 7.461894 6.151188 0.518567
C 7.435775 6.607545 1.433796
C 6.974131 5.829814 1.513057
C 8.027946 5.168020 0.641292
C 8.438769 6.035856 0.560677
C 8.423650 6.568871 1.360234
C 7.940018 5.753376 1.287661
C 0.054090 7.008469 0.699350
C 0.569803 7.880000 0.651569
C 0.375076 8.322434 1.378235
C 0.015498 7.473877 1.451017
C 0.901905 6.896701 0.546656
C 1.502614 7.773956 0.595155
C 1.489548 8.425349 1.577414
C 0.914564 7.401725 1.457423
C 2.119212 6.942697 0.649554
C 2.592192 7.771156 0.725673
C 2.530659 8.431734 1.363107
C 1.944023 7.633590 1.365009
C 2.943291 7.002579 0.565605
C 3.530643 7.794649 0.737995
C 3.382763 8.395109 1.506985
C 2.944637 7.629268 1.515402
C 3.967712 7.008080 0.639841
C 4.585620 7.659089 0.658505
C 4.469702 8.233851 1.512502
C 3.930478 7.440405 1.423751
C 5.008532 7.043173 0.620973
C 5.523273 7.705255 0.636773
C 5.440925 8.349959 1.390276
C 5.016314 7.457589 1.449108
C 6.034409 7.051906 0.620812
C 6.443312 7.881403 0.557488
C 6.456589 8.471813 1.452437
C 5.926956 7.550622 1.513734
C 7.019129 6.878907 0.634675
C 7.534226 7.690211 0.596931
C 7.511973 8.382425 1.350428
C 7.011460 7.479676 1.389643
C 8.151425 6.986163 0.557318
C 8.437561 7.820091 0.675665
C 8.367906 8.369535 1.388185
C 8.123298 7.436659 1.331459
C 0.133935 0.122575 2.233717
C 0.453631 0.894519 2.318835
C 0.475096 1.353008 3.040728
C 0.042430 0.527500 3.280253
C 0.874907 0.022129 2.297064
C 1.488882 1.019380 2.255780
C 1.483497 1.497905 3.214277
C 0.972612 0.568957 2.935791
C 1.909997 0.038836 2.303555
C 2.454119 0.863164 2.274664
C 2.553229 1.404338 3.021303
C 1.887582 0.479848 3.015957
C 3.041653 0.081536 2.328592
C 3.438043 0.936618 2.234048
C 3.403384 1.399480 3.168087
C 2.925829 0.502146 3.023969
C 3.819863 0.002898 2.290899
C 4.547540 1.058018 2.229834
C 4.494672 1.455015 2.926846
C 3.903386 0.537338 3.049047
C 5.007091 0.003337 2.114533
C 5.386771 0.840284 2.174113
C 5.615273 1.440656 2.972821
C 4.979898 0.537126 2.961512
C 5.891075 0.021598 2.346426
C 6.458346 0.821579 2.279699
C 6.599235 1.421615 3.085933
C 6.018679 0.596503 3.137838
C 7.050332 0.067557 2.132935
C 7.439416 0.880705 2.231891
C 7.480492 1.478844 2.918725
C 6.999675 0.692059 3.058713
C 8.101682 0.041971 2.078892
C 8.467284 0.920855 2.318077
C 8.541463 1.536002 3.200275
C 7.996693 0.475665 3.101314
C 0.002196 1.807254 2.169868
C 0.440074 2.626236 2.275702
C 0.592708 3.120465 3.124583
C 0.152211 2.347635 3.179592
C 0.935933 1.795069 2.183412
C 1.386007 2.563168 2.286635
C 1.484947 3.138903 2.975125
C 1.166238 2.301556 3.054583
C 2.096121 1.763820 2.302024
C 2.516784 2.690112 2.326759
C 2.568582 3.052658 3.103537
C 2.094585 2.292209 3.068777
C 3.026045 1.757923 2.223473
C 3.418422 2.597298 2.249209
C 3.461692 3.095727 3.086693
C 2.958470 2.342755 3.107660
C 3.983541 1.630361 2.322539
C 4.622314 2.643189 2.298472
C 4.569503 3.167534 3.157161
C 3.934509 2.247659 2.997969
C 5.032523 1.595967 2.223698
C 5.384630 2.591242 2.194602
C 5.602000 3.051583 2.997503
C 4.831216 2.393057 3.011767
C 5.951248 1.832805 2.254357
C 6.448883 2.578741 2.294495
C 6.370642 3.174094 2.967201
C 6.077875 2.220658 3.119130
C 6.940563 1.743391 2.270590
C 7.542674 2.692979 2.361681
C 7.467351 3.066105 3.140699
C 7.078741 2.272324 3.190906
C 8.044353 1.790238 2.225536
C 8.531808 2.508847 2.261215
C 8.576198 3.154134 3.001855
C 7.873815 2.311116 3.146148
C 0.117995 3.476603 2.228042
C 0.615100 4.264744 2.145662
C 0.378735 4.888892 2.959848
C 0.083881 4.089872 3.217541
C 0.954197 3.513635 2.283106
C 1.464555 4.244846 2.327183
C 1.466911 4.883993 2.977536
C 1.060874 4.052503 3.054976
C 1.913916 3.483996 2.304588
C 2.417446 4.284591 2.211247
C 2.530511 4.919596 3.100120
C 1.992089 3.974190 3.017776
C 3.010755 3.575971 2.214259
C 3.640936 4.220415 2.265954
C 3.451140 4.815146 3.075581
C 3.000738 4.050400 3.023917
C 3.979679 3.476693 2.155747
C 4.458192 4.381270 2.300776
C 4.387209 4.905881 2.938194
C 4.099091 4.064199 3.134161
C 5.094780 3.468299 2.285276
C 5.463045 4.324755 2.204472
C 5.646117 4.903530 3.071812
C 4.955994 3.976572 3.044349
C 6.029107 3.428586 2.118218
C 6.377719 4.329174 2.273978
C 6.459072 4.860513 3.166249
C 6.027758 3.968245 3.131289
C 6.919295 3.491612 2.194855
C 7.506740 4.205103 2.300079
C 7.431256 4.901003 2.902844
C 6.871256 4.021900 3.101113
C 7.890015 3.487308 2.191930
C 8.418749 4.368386 2.158424
C 8.590315 4.963331 3.137262
C 7.993010 4.107214 3.034173
C 0.034300 5.283879 2.218011
C 0.506385 6.157794 2.302754
C 0.453120 6.662599 3.076481
C 0.026954 5.681156 3.051001
C 0.987766 5.256811 2.144102
C 1.538718 6.137448 2.384965
C 1.617227 6.588368 3.079834
C 0.916255 5.757174 3.039799
C 2.013617 5.229591 2.065739
C 2.453757 6.171473 2.331453
C 2.566260 6.686361 2.923521
C 1.930474 5.651219 3.111095
C 2.925751 5.108014 2.409135
C 3.502380 6.070331 2.193060
C 3.449910 6.671677 3.000539
C 2.979622 5.661423 2.993926
C 4.073995 5.115685 2.231122
C 4.567481 6.048376 2.198406
C 4.453326 6.584864 3.035711
C 4.137882 5.887046 3.030171
C 5.054009 5.236283 2.136612
C 5.329273 6.031911 2.308126
C 5.577059 6.667111 3.061601
C 4.917662 5.799828 3.023543
C 5.887127 5.189618 2.223397
C 6.635074 6.089659 2.253610
C 6.510587 6.583147 3.047092
C 5.898095 5.829487 3.057606
C 7.066124 5.194151 2.220937
C 7.479043 6.064632 2.111810
C 7.499449 6.598877 3.190645
C 7.030231 5.745597 2.925219
C 8.068202 5.092606 2.144298
C 8.526192 6.059495 2.177888
C 8.370976 6.590298 3.081878
C 7.966144 5.790781 2.919116
C 0.102410 6.826686 2.159660
C 0.474893 7.889284 2.394851
C 0.510318 8.354648 3.199602
C 0.089328 7.480039 3.124170
C 0.914311 6.944967 2.172913
C 1.392028 7.692306 2.238141
C 1.444859 8.507693 3.053215
C 0.990624 7.582785 3.060616
C 1.954572 6.859338 2.274306
C 2.460889 7.725439 2.132732
C 2.593915 8.437587 3.027798
C 1.962593 7.441758 2.944277
C 2.988282 6.823271 2.334188
C 3.582099 7.773057 2.093999
C 3.485962 8.483366 3.037755
C 2.955603 7.495845 3.043211
C 4.044800 7.009063 2.315781
C 4.591585 7.847175 2.230816
C 4.474229 8.248339 3.029884
C 3.973153 7.463080 2.915956
C 4.941774 6.968691 2.199342
C 5.334463 7.815599 2.206139
C 5.621619 8.397221 3.011231
C 5.055762 7.607657 2.939201
C 6.021245 6.934117 2.301525
C 6.549007 7.837767 2.406858
C 6.422148 8.346007 3.050613
C 6.107274 7.596505 3.056647
C 6.942910 6.935327 2.220324
C 7.459264 7.840259 2.205660
C 7.665477 8.337183 3.090956
C 6.851679 7.474053 3.047422
C 7.997392 6.976548 2.342428
C 8.470944 7.862309 2.178955
C 8.431141 8.286660 3.110394
C 8.127271 7.562673 3.018153
C 0.034083 0.006809 3.792111
C 0.513259 1.016571 3.931845
C 0.474435 1.444840 4.718558
C 0.046627 0.481340 4.849359
C 0.902172 0.045347 3.769278
C 1.497149 0.762352 3.832348
C 1.420625 1.529801 4.828136
C 0.900231 0.617366 4.719197
C 1.951971 0.005081 3.879507
C 2.457677 0.834485 4.028262
C 2.561209 1.432631 4.554702
C 1.980205 0.573653 4.554941
C 3.084657 0.012482 3.992074
C 3.386040 0.863716 3.861249
C 3.469504 1.401571 4.639338
C 2.897456 0.626619 4.653125
C 3.967629 0.098391 3.776804
C 4.470553 0.980248 3.900377
C 4.567908 1.331418 4.661707
C 4.029878 0.643920 4.619148
C 4.983165 0.007283 3.788871
C 5.586942 0.855729 3.854256
C 5.367469 1.514349 4.793773
C 4.968611 0.623762 4.838651
C 6.147803 0.009833 3.763591
C 6.420010 0.786997 3.890168
C 6.611492 1.457489 4.722391
C 5.969897 0.519195 4.806478
C 7.131008 0.027041 3.808577
C 7.534732 0.966289 3.780452
C 7.633177 1.543076 4.696981
C 7.096889 0.627900 4.670564
C 8.091092 0.170275 3.829278
C 8.524754 0.850342 3.839158
C 8.399054 1.362318 4.654881
C 7.970317 0.608245 4.594375
C 0.075205 1.864568 3.918529
C 0.430211 2.612591 3.893723
C 0.431998 3.172070 4.749135
C 0.084447 2.418167 4.590561
C 0.899036 1.724201 4.031614
C 1.465563 2.491759 3.749147
C 1.539150 3.072070 4.765087
C 0.986514 2.399479 4.769204
C 2.025865 1.776706 3.872453
C 2.445369 2.546213 3.979594
C 2.401946 3.257376 4.628625
C 2.021869 2.289776 4.576534
C 3.073888 1.730366 4.052021
C 3.444684 2.601766 3.949787
C 3.505542 3.259992 4.650453
C 2.957825 2.351673 4.782835
C 4.089749 1.692656 3.811537
C 4.405624 2.536350 3.982613
C 4.518595 3.117438 4.848056
C 3.954472 2.300480 4.758271
C 5.005648 1.841483 3.975154
C 5.461078 2.447206 3.830426
C 5.528002 3.105007 4.726879
C 4.944851 2.272760 4.725885
C 6.047205 1.827183 3.866952
C 6.605180 2.605342 3.858268
C 6.520166 3.314169 4.765934
C 6.098513 2.346880 4.691468
C 7.049811 1.775459 3.758734
C 7.441354 2.720545 3.944256
C 7.467906 3.205363 4.687834
C 7.042338 2.354226 4.656219
C 7.959936 1.759441 3.767155
C 8.462776 2.548842 3.887686
C 8.471424 3.091757 4.715815
C 8.024530 2.400351 4.654361
C 0.053573 3.460990 4.012547
C 0.557851 4.445358 3.907121
C 0.633309 4.938208 4.665950
C 0.102035 4.095329 4.627604
C 0.943534 3.551990 3.849422
C 1.506492 4.429497 3.878580
C 1.351028 4.889489 4.708942
C 1.059535 3.934084 4.723236
C 2.141596 3.546101 3.869434
C 2.480527 4.396294 3.792013
C 2.563092 4.900297 4.647027
C 1.949291 3.930794 4.799015
C 2.973736 3.456729 3.827438
C 3.451899 4.245305 3.863983
C 3.503675 4.890881 4.717597
C 3.078340 4.018594 4.681053
C 3.922508 3.441339 3.707253
C 4.458276 4.419669 3.798770
C 4.523114 4.955895 4.765918
C 4.087533 4.097804 4.762065
C 5.045334 3.533985 3.978335
C 5.600728 4.293111 3.881225
C 5.460677 4.999564 4.610944
C 5.005993 4.046078 4.579408
C 5.985698 3.397803 3.940584
C 6.495419 4.221987 3.910987
C 6.402028 4.868800 4.514459
C 6.069256 4.058318 4.830488
C 6.925079 3.484563 3.832364
C 7.420646 4.290100 3.935210
C 7.440192 4.951570 4.739114
C 7.104829 4.031617 4.723813
C 8.043926 3.569423 3.810424
C 8.586692 4.231126 4.023047
C 8.533665 4.874815 4.787587
C 7.980204 4.100325 4.761271
C 0.050790 5.106912 3.919529
C 0.536120 6.017411 3.961698
C 0.518711 6.801336 4.592334
C 0.016680 5.749935 4.776998
C 0.879320 5.089590 3.828037
C 1.481225 6.189576 3.825032
C 1.533096 6.625028 4.739991
C 1.026118 5.904485 4.550357
C 1.884477 5.157732 3.891166
C 2.393980 6.142274 3.887409
C 2.556891 6.707897 4.769423
C 1.977771 5.760076 4.856937
C 3.032194 5.207646 3.888927
C 3.436573 6.093149 3.980220
C 3.465612 6.541914 4.652987
C 2.982304 5.669491 4.651645
C 3.935846 5.192535 3.780857
C 4.506303 6.014180 3.960256
C 4.374113 6.570438 4.731798
C 4.064765 5.683959 4.692600
C 5.119197 5.201512 3.898175
C 5.544102 6.009911 3.817089
C 5.414312 6.564989 4.695981
C 5.078178 5.815561 4.656469
C 6.014496 5.327115 3.826843
C 6.637607 6.006980 3.834640
C 6.470811 6.743568 4.647603
C 5.971768 5.697452 4.547393
C 7.011750 5.248804 4.005988
C 7.530375 5.988327 3.969696
C 7.431898 6.649671 4.651812
C 6.933606 5.666330 4.601654
C 8.015613 5.233247 3.816478
C 8.436054 6.156586 3.953043
C 8.451576 6.728611 4.764784
C 8.081905 5.829163 4.617972
C 0.031534 6.979143 3.928764
C 0.615429 7.794482 3.816929
C 0.452012 8.310942 4.826535
C 0.015764 7.514222 4.641097
C 0.886594 6.856844 3.848880
C 1.603652 7.869796 3.855993
C 1.420506 8.304537 4.662057
C 1.058949 7.542449 4.677766
C 1.933912 6.959661 3.804068
C 2.485913 7.848970 3.804540
C 2.458525 8.259327 4.839657
C 1.965259 7.482539 4.644382
C 3.069865 6.836210 3.816265
C 3.479488 7.936910 3.824610
C 3.611170 8.312344 4.752417
C 3.051831 7.604953 4.659251
C 4.056904 6.911324 3.779877
C 4.606051 7.742060 3.838782
C 4.445298 8.401908 4.707436
C 3.883540 7.521799 4.679103
C 4.891402 6.884673 3.834944
C 5.472987 7.913598 3.892090
C 5.430441 8.382215 4.724464
C 4.994406 7.600150 4.827846
C 6.011791 6.870641 3.972654
C 6.435835 7.767784 3.852652
C 6.552381 8.393611 4.773745
C 5.930818 7.403513 4.620832
C 6.862765 6.911338 3.912661
C 7.543630 7.828282 4.041507
C 7.565844 8.329282 4.664060
C 6.985281 7.445807 4.821373
C 7.923199 7.033188 3.875939
C 8.552377 7.701942 3.791073
C 8.454445 8.361355 4.583557
C 7.962799 7.377246 4.660086
C 0.019448 0.185460 5.527231
C 0.527899 0.952739 5.499064
C 0.495310 1.548809 6.281825
C 0.008805 0.542943 6.186119
C 1.155346 0.133334 5.451766
C 1.631142 0.811938 5.471655
C 1.575203 1.539270 6.365971
C 1.054675 0.503635 6.306960
C 2.049262 0.097306 5.561155
C 2.461011 0.825212 5.557793
C 2.578374 1.497234 6.278398
C 1.993864 0.732506 6.286407
C 3.086767 0.014498 5.524606
C 3.541174 1.002940 5.553097
C 3.483124 1.465507 6.379433
C 2.959951 0.570388 6.292061
C 3.967929 0.035288 5.374921
C 4.572126 0.960492 5.641049
C 4.467254 1.445235 6.328265
C 3.920661 0.607066 6.275489
C 4.963322 0.082559 5.498608
C 5.657588 0.937518 5.481499
C 5.513609 1.582720 6.334762
C 5.036548 0.695446 6.269026
C 5.855216 0.019330 5.461740
C 6.400080 0.878229 5.555956
C 6.497709 1.319436 6.241758
C 6.042051 0.567050 6.330267
C 7.099289 0.017352 5.534630
C 7.467335 0.979788 5.571260
C 7.429515 1.361938 6.319078
C 6.933521 0.469766 6.350743
C 7.923772 0.067754 5.550758
C 8.577615 0.811435 5.481666
C 8.575516 1.496839 6.373057
C 8.133833 0.614259 6.442677
C 0.027709 1.631900 5.508097
C 0.630252 2.616719 5.493645
C 0.437781 3.202383 6.279001
C 0.044508 2.309043 6.279088
C 1.098011 1.688873 5.549186
C 1.537380 2.696816 5.565591
C 1.536854 3.231610 6.179735
C 0.981923 2.231928 6.269702
C 1.945780 1.728236 5.417363
C 2.460524 2.615179 5.612663
C 2.564339 3.196774 6.392412
C 1.924380 2.256144 6.338792
C 3.043161 1.675952 5.644060
C 3.512958 2.771766 5.461630
C 3.453127 3.060310 6.328671
C 3.114944 2.355009 6.235855
C 3.948555 1.669201 5.512059
C 4.580842 2.714783 5.549268
C 4.525887 3.251746 6.355713
C 3.854503 2.318542 6.374801
C 4.886295 1.773356 5.495439
C 5.429895 2.568668 5.647665
C 5.501649 3.109406 6.421708
C 4.929360 2.307262 6.260084
C 5.943496 1.616377 5.378786
C 6.368655 2.554804 5.460457
C 6.382213 3.110506 6.271605
C 5.923853 2.245140 6.287971
C 7.101176 1.750267 5.448947
C 7.548358 2.528024 5.555873
C 7.494177 3.125216 6.336929
C 6.957760 2.257162 6.476070
C 7.867961 1.662737 5.548635
C 8.629212 2.670565 5.449305
C 8.416426 3.201855 6.458247
C 7.879601 2.333033 6.456261
C 0.101853 3.500904 5.595414
C 0.635716 4.330107 5.567845
C 0.521574 4.764951 6.333046
C 0.032089 4.092955 6.239009
C 0.964635 3.544900 5.541100
C 1.522969 4.248142 5.475233
C 1.445334 4.986304 6.181716
C 0.922791 4.080626 6.398197
C 1.894367 3.536902 5.570218
C 2.630198 4.295385 5.534529
C 2.552713 5.028500 6.268704
C 1.952676 3.991129 6.336767
C 3.039217 3.348573 5.472726
C 3.422884 4.247169 5.536599
C 3.474645 4.988749 6.303443
C 3.012267 4.023126 6.350160
C 3.948031 3.417898 5.516879
C 4.639241 4.269037 5.439008
C 4.458081 4.986954 6.302237
C 4.073217 4.130683 6.409338
C 4.884879 3.439887 5.439115
C 5.413144 4.213182 5.486312
C 5.529124 5.010644 6.233453
C 4.931400 4.007170 6.442930
C 5.955021 3.633914 5.541066
C 6.486754 4.436815 5.523812
C 6.611179 4.875580 6.345039
C 6.086463 4.104600 6.287902
C 6.969851 3.402134 5.614233
C 7.477058 4.389337 5.419861
C 7.435423 4.942624 6.428932
C 6.886787 3.883100 6.310450
C 8.058699 3.533078 5.558320
C 8.595505 4.391496 5.536745
C 8.391587 4.926990 6.410105
C 7.996051 3.996643 6.401727
C 0.018063 5.314402 5.508294
C 0.434514 6.070165 5.591776
C 0.359678 6.683350 6.267964
C 0.032635 5.911399 6.281228
C 1.032878 5.257014 5.499487
C 1.640349 6.153162 5.523362
C 1.532267 6.585229 6.318006
C 0.860758 5.721128 6.345378
C 2.054517 5.059670 5.519560
C 2.515946 6.128041 5.648444
C 2.607637 6.593050 6.288866
C 2.017224 5.793856 6.470015
C 3.066737 5.278647 5.482229
C 3.364664 6.178971 5.491066
C 3.572767 6.523994 6.380481
C 3.070333 5.853233 6.398450
C 4.132302 5.130527 5.458851
C 4.556973 5.950267 5.446787
C 4.512917 6.574291 6.417877
C 4.060876 5.827290 6.285623
C 4.967521 5.289875 5.541492
C 5.609716 6.159089 5.488885
C 5.451353 6.707378 6.334913
C 5.062958 5.648798 6.334409
C 6.042413 5.185835 5.455174
C 6.577663 5.973719 5.592236
C 6.543617 6.546285 6.335150
C 5.841638 5.728645 6.410216
C 6.964162 5.234934 5.671024
C 7.479370 6.011275 5.598108
C 7.388798 6.654878 6.422569
C 6.973300 5.867430 6.263580
C 7.916927 5.161097 5.521124
C 8.488494 6.063955 5.529747
C 8.451857 6.520750 6.318309
C 8.103842 5.843626 6.237739
C 0.033033 7.049781 5.519200
C 0.569968 7.919564 5.611904
C 0.575107 8.316909 6.261818
C 0.021492 7.539933 6.382134
C 0.994131 6.907914 5.576437
C 1.446560 7.860742 5.637116
C 1.620150 8.470223 6.415742
C 1.036258 7.378747 6.390777
C 2.015055 7.002362 5.636899
C 2.590575 7.760433 5.432315
C 2.588323 8.306569 6.327793
C 1.928005 7.486743 6.257413
C 2.869762 6.891588 5.388817
C 3.336550 7.777212 5.491784
C 3.565451 8.271198 6.236912
C 2.963129 7.411306 6.365902
C 3.997261 6.974478 5.384510
C 4.553122 7.790642 5.431645
C 4.483225 8.427799 6.442008
C 4.013218 7.529758 6.285687
C 4.968519 6.946569 5.496408
C 5.474628 7.706184 5.638190
C 5.426662 8.378868 6.381170
C 5.013254 7.446356 6.437251
C 6.067329 6.924409 5.370977
C 6.508252 7.812798 5.499842
C 6.553981 8.307899 6.333000
C 5.917492 7.492466 6.418246
C 7.011931 6.993075 5.452843
C 7.391396 7.738215 5.383968
C 7.508266 8.369485 6.372182
C 7.094883 7.509173 6.421714
C 7.972207 7.006630 5.589746
C 8.455256 7.690353 5.541918
C 8.605677 8.362071 6.289607
C 7.887679 7.518914 6.259899
C 0.094332 0.123191 7.205074
C 0.473763 0.730108 7.172171
C 0.427075 1.522921 7.929331
C 0.018668 0.549015 8.093848
C 1.042439 0.009777 7.231668
C 1.530879 0.873387 7.019152
C 1.562643 1.564557 7.867983
C 1.016513 0.616005 7.978259
C 2.099043 0.052117 7.184984
C 2.540222 0.796907 7.160112
C 2.554797 1.545634 7.929368
C 1.969508 0.638128 7.875533
C 2.972335 0.083275 7.094569
C 3.650462 0.935646 7.168952
C 3.497648 1.353162 7.795097
C 2.985759 0.644159 8.086196
C 4.005411 0.057270 7.027873
C 4.610567 0.930172 7.077739
C 4.437407 1.444821 8.024551
C 4.068308 0.480098 7.889024
C 4.987989 0.059928 7.190601
C 5.428265 1.024603 7.146693
C 5.431846 1.401414 7.855756
C 4.982093 0.499885 8.079185
C 6.121428 0.075572 7.144325
C 6.548463 0.903679 7.177997
C 6.381703 1.495251 7.930091
C 5.908785 0.488018 8.060825
C 7.092861 0.132643 7.076227
C 7.559451 0.900246 7.069013
C 7.518353 1.498760 7.876577
C 6.952539 0.536239 7.922250
C 7.994172 0.031147 7.134148
C 8.582459 0.915961 7.166457
C 8.436306 1.521161 7.886787
C 7.987172 0.680186 7.970949
C 0.132653 1.757121 7.212562
C 0.509966 2.491039 7.041253
C 0.467075 3.183133 8.015332
C 0.018985 2.350594 7.932346
C 0.981406 1.804296 7.086658
C 1.414362 2.699125 7.134259
C 1.378657 3.183224 7.913098
C 1.049274 2.478852 7.917942
C 1.890519 1.693877 7.127330
C 2.503253 2.681179 7.275940
C 2.410859 3.067822 8.012221
C 1.934267 2.347458 7.994537
C 3.013409 1.770654 7.060012
C 3.564294 2.452396 7.067387
C 3.559832 3.161818 7.931076
C 3.144323 2.245349 7.981548
C 3.982787 1.797645 7.195821
C 4.509598 2.700928 7.167943
C 4.448333 3.191066 8.041760
C 3.941253 2.297448 7.890700
C 5.023435 1.652189 7.149344
C 5.459118 2.641825 7.200506
C 5.428195 3.187156 7.883631
C 4.880971 2.289294 7.899075
C 5.847442 1.655255 7.051447
C 6.586376 2.565029 7.101346
C 6.380232 3.174392 7.875654
C 5.870360 2.311413 7.964740
C 7.131179 1.734589 7.101574
C 7.495993 2.682516 7.112039
C 7.434569 3.277813 7.885952
C 6.999548 2.457704 7.964444
C 7.894687 1.837886 7.208573
C 8.495536 2.581382 7.170367
C 8.411879 3.240151 7.940088
C 8.081963 2.385384 8.041089
C 0.069557 3.275282 7.142953
C 0.571732 4.302859 7.160593
C 0.550895 4.843446 8.030549
C 0.103943 4.135647 7.936447
C 0.987445 3.462991 7.064272
C 1.556561 4.356525 7.003393
C 1.439547 4.797644 7.961659
C 1.068140 4.000081 7.898759
C 2.072364 3.378843 7.137602
C 2.504818 4.329322 7.011581
C 2.530187 4.848435 8.079487
C 1.922922 4.043548 7.838805
C 3.092660 3.522833 7.156009
C 3.506905 4.480989 7.149169
C 3.494026 4.955124 8.096659
C 2.943798 4.082774 7.871725
C 3.977908 3.535573 7.152577
C 4.620477 4.295261 7.128639
C 4.533488 5.059616 8.065803
C 4.047109 4.160962 7.943083
C 4.958467 3.578683 7.080628
C 5.400722 4.301104 7.142179
C 5.477997 4.835550 8.015409
C 4.952717 3.991197 7.868453
C 6.129636 3.385757 7.058644
C 6.617339 4.267601 7.227971
C 6.562231 4.972692 8.138531
C 6.040266 4.162471 7.919184
C 6.968033 3.489113 7.198488
C 7.397981 4.377250 7.184924
C 7.412537 5.044857 8.029775
C 6.919093 3.917749 7.973140
C 7.987164 3.411569 7.169698
C 8.475721 4.443642 7.146153
C 8.437753 4.809621 7.823490
C 7.951787 4.081164 7.982285
C 0.034638 5.050751 7.128293
C 0.488127 6.095079 7.139115
C 0.544428 6.637434 8.062977
C 0.009255 5.818197 7.892398
C 0.952280 5.252644 7.222098
C 1.440346 6.100709 7.220795
C 1.429875 6.705243 8.005942
C 1.129284 5.812528 7.966448
C 2.150301 5.245144 7.186703
C 2.569871 5.961787 7.085451
C 2.560477 6.618557 8.002845
C 1.988850 5.862076 7.958358
C 2.939099 5.138782 7.249660
C 3.541935 6.038776 7.130325
C 3.515124 6.504603 8.000342
C 2.986465 5.691373 7.915463
C 3.990551 5.216446 7.235469
C 4.547575 6.053065 7.146564
C 4.663839 6.626126 7.967290
C 4.054341 5.699508 7.897371
C 5.016218 5.138084 7.107419
C 5.498601 5.997994 7.208222
C 5.556992 6.726608 8.037958
C 5.059500 5.725724 7.966761
C 5.933437 5.197042 7.094773
C 6.543045 5.950533 7.127220
C 6.600525 6.569591 7.925327
C 6.055702 5.850552 7.963021
C 6.953339 5.346592 7.144888
C 7.544581 5.994900 7.183127
C 7.414358 6.572633 7.844920
C 7.092166 5.870722 7.979165
C 8.020551 5.189648 7.113768
C 8.556011 5.922734 7.047555
C 8.504766 6.743349 7.908362
C 7.971170 5.837844 7.985867
C 0.026508 6.912850 7.149361
C 0.475575 7.859806 7.172739
C 0.555915 8.459054 7.920602
C 0.100999 7.509813 8.010916
C 0.976645 6.849007 7.174476
C 1.581043 7.813313 7.235561
C 1.481704 8.520801 8.001321
C 1.061695 7.618670 8.030723
C 1.913594 6.929657 7.283461
C 2.484775 7.866648 7.213910
C 2.644480 8.471395 7.856818
C 1.974080 7.385339 7.914888
C 2.989928 6.844780 7.023908
C 3.392790 7.785695 7.026450
C 3.613952 8.282812 7.915594
C 2.890716 7.546320 7.989143
C 3.992676 6.891547 7.271540
C 4.515072 7.848817 7.279170
C 4.501174 8.407290 7.910324
C 3.976596 7.500520 8.086860
C 5.025519 6.840116 7.213110
C 5.409389 7.680888 7.176100
C 5.414969 8.236881 7.931978
C 4.877884 7.407673 7.897726
C 6.024127 6.868289 7.258935
C 6.472813 7.793968 7.069084
C 6.553209 8.429573 7.901742
C 5.907870 7.499198 7.946424
C 6.950059 7.053413 7.251379
C 7.383145 7.859686 7.248433
C 7.655639 8.369516 7.997504
C 7.128348 7.488699 7.881568
C 7.934519 6.876049 7.007751
C 8.419623 7.843896 7.214572
C 8.568369 8.345534 7.904464
C 7.910168 7.602730 8.032328
C 0.013065 0.117852 8.680558
C 0.539012 0.770782 8.791239
C 0.621081 1.366006 9.566581
C 0.147851 0.473002 9.593435
C 0.945231 0.097824 8.588240
C 1.495855 0.994571 8.707324
C 1.385426 1.437973 9.489571
C 0.902960 0.473584 9.563876
C 1.935645 0.071570 8.924625
C 2.574474 0.768220 8.846424
C 2.510162 1.454400 9.497582
C 1.899619 0.673694 9.575323
C 3.076435 0.024633 8.863320
C 3.500290 0.750084 8.833586
C 3.510625 1.349866 9.579175
C 3.028120 0.545029 9.444958
C 4.110280 0.065891 8.824502
C 4.532221 0.775424 8.715031
C 4.537456 1.490782 9.378120
C 4.099717 0.754145 9.568998
C 4.944477 0.007314 8.977541
C 5.525744 0.766263 8.775122
C 5.510720 1.318234 9.565356
C 4.920282 0.541345 9.462669
C 5.985000 0.013563 8.721868
C 6.513339 0.912359 8.815680
C 6.568744 1.316322 9.555519
C 6.085337 0.789259 9.530825
C 6.826112 0.036594 8.836881
C 7.528016 1.005935 8.895380
C 7.570366 1.351958 9.529003
C 6.898426 0.619770 9.473949
C 7.929005 0.062139 8.734399
C 8.496288 0.748639 8.771785
C 8.618640 1.452028 9.501943
C 8.069988 0.365468 9.577503
C 0.106275 1.686749 8.875079
C 0.377920 2.617772 8.829485
C 0.477826 3.264921 9.423567
C 0.015726 2.318538 9.449072
C 1.058708 1.857953 8.890744
C 1.467421 2.531110 8.757480
C 1.597424 3.126258 9.567863
C 1.089532 2.166535 9.574473
C 1.917398 1.877602 8.899342
C 2.574263 2.585455 8.849629
C 2.592416 3.174150 9.571467
C 2.035841 2.456059 9.577063
C 3.035553 1.762920 8.875480
C 3.603568 2.663742 8.827638
C 3.595046 3.088842 9.532911
C 2.994702 2.435179 9.548222
C 4.092663 1.666486 8.751147
C 4.509286 2.589694 8.766927
C 4.440382 3.311977 9.551454
C 3.973231 2.407191 9.492726
C 4.908015 1.669010 8.788801
C 5.498996 2.748805 8.782947
C 5.622914 3.133665 9.542871
C 4.981624 2.274497 9.560529
C 6.051351 1.696851 8.690960
C 6.505819 2.648997 8.740026
C 6.426053 3.183036 9.593514
C 6.021288 2.162991 9.563763
C 7.117060 1.770951 8.687172
C 7.485024 2.642084 8.869249
C 7.393203 3.099288 9.547160
C 6.914180 2.249816 9.581436
C 8.141598 1.599052 8.790364
C 8.600749 2.639053 8.794426
C 8.345012 3.238029 9.529825
C 7.929745 2.378404 9.538928
C 0.049838 3.518529 8.735405
C 0.507215 4.294682 8.916384
C 0.404748 4.901458 9.538105
C 0.036864 4.095135 9.571416
C 1.039890 3.420173 8.847809
C 1.662507 4.303680 8.742305
C 1.541567 4.970765 9.505149
C 0.929240 3.988437 9.478955
C 1.918124 3.551556 8.756819
C 2.462664 4.313788 8.795877
C 2.476077 4.966458 9.517040
C 1.933128 3.922079 9.523066
C 2.931376 3.370799 8.788288
C 3.526566 4.496524 8.719352
C 3.512304 4.992639 9.566124
C 2.853688 4.089325 9.476336
C 4.083057 3.493425 8.847985
C 4.519193 4.449167 8.694935
C 4.623033 4.957989 9.561606
C 4.176941 4.040472 9.556206
C 5.057397 3.372568 8.777926
C 5.490316 4.309974 8.599884
C 5.436300 4.928861 9.559915
C 5.196832 4.172455 9.552348
C 5.917690 3.394509 8.716990
C 6.390038 4.311992 8.721900
C 6.396243 4.994396 9.562055
C 6.101683 4.044797 9.495914
C 7.103865 3.477760 8.749406
C 7.590152 4.270972 8.774123
C 7.525115 4.711347 9.526402
C 6.972982 4.054295 9.428114
C 8.036203 3.436149 8.877275
C 8.431561 4.241647 8.744507
C 8.529111 4.947925 9.589505
C 7.873613 4.039376 9.559029
C 0.082735 5.192212 8.903782
C 0.430356 6.032520 8.643586
C 0.537175 6.537554 9.460218
C 0.020511 5.680845 9.405669
C 1.015044 5.165222 8.617812
C 1.582765 6.119587 8.896387
C 1.567402 6.687237 9.506712
C 1.021396 5.846387 9.485987
C 2.027703 5.158750 8.822991
C 2.530091 5.943290 8.859021
C 2.461282 6.506278 9.543326
C 2.156123 5.778917 9.565271
C 2.957057 5.232220 8.811102
C 3.558909 5.963743 8.809621
C 3.525070 6.623185 9.551376
C 2.824412 5.715154 9.531382
C 4.005167 5.069084 8.658455
C 4.469248 6.155287 8.676353
C 4.436708 6.516221 9.552980
C 3.890592 5.810344 9.550173
C 5.039047 5.124990 8.761053
C 5.407374 6.108154 8.637147
C 5.590265 6.611494 9.434844
C 4.923402 5.837430 9.543992
C 5.994273 5.113040 8.870503
C 6.441549 6.095416 8.838094
C 6.384497 6.809014 9.447440
C 6.095876 5.734424 9.514154
C 6.943760 5.284196 8.768178
C 7.597542 6.038136 8.804149
C 7.630046 6.662422 9.585683
C 6.931508 5.694264 9.477771
C 7.900795 5.217074 8.669994
C 8.456719 5.977781 8.730264
C 8.588715 6.614954 9.532225
C 7.966403 5.927210 9.522238
C 0.051146 6.891340 8.653560
C 0.542564 7.821178 8.852048
C 0.435544 8.337566 9.571741
C 0.050391 7.701446 9.500810
C 0.867124 6.883602 8.820040
C 1.448221 7.863488 8.808993
C 1.549570 8.418012 9.556364
C 1.056577 7.398387 9.531732
C 1.894763 6.926396 8.902267
C 2.574503 7.875613 8.878425
C 2.632081 8.499995 9.577508
C 1.919809 7.525878 9.455588
C 2.997651 6.936924 8.758044
C 3.635795 7.908950 8.814399
C 3.433563 8.378992 9.461026
C 3.015411 7.529216 9.478987
C 3.870806 6.962990 8.735847
C 4.497280 7.916215 8.699276
C 4.386368 8.379138 9.590456
C 4.087228 7.406920 9.584557
C 4.855842 6.908699 8.745833
C 5.542481 7.669540 8.778207
C 5.483163 8.280357 9.521039
C 5.052885 7.493833 9.406661
C 6.134759 6.926217 8.701909
C 6.471061 7.677722 8.766758
C 6.534704 8.212104 9.537384
C 6.052558 7.614594 9.576551
C 7.103799 6.889529 8.766071
C 7.403800 7.792222 8.679871
C 7.424294 8.358157 9.585865
C 7.167975 7.525185 9.444722
C 7.958310 6.891558 8.687505
C 8.569932 7.806128 8.797857
C 8.499854 8.317065 9.568899
C 8.067052 7.490703 9.588272
2160
Frame 7/10
C 0.002572 0.060533 0.191711
C 0.590549 0.982778 0.028928
C 0.543705 1.430169 0.777160
C 0.027875 0.558607 0.701577
C 0.753181 0.211512 0.070533
C 1.484954 0.998329 0.136673
C 1.517371 1.510423 0.740894
C 0.955952 0.432747 0.775334
C 2.173270 0.015012 0.115785
C 2.485358 0.989685 0.201606
C 2.341913 1.383039 0.888877
C 2.097597 0.680364 0.805262
C 2.818516 0.003209 0.110218
C 3.511580 0.881413 0.116670
C 3.482716 1.481468 0.727480
C 2.961514 0.582554 0.829207
C 4.136249 0.129471 0.017518
C 4.478251 0.858936 0.047013
C 4.507325 1.319698 0.698979
C 3.916117 0.623696 0.962994
C 5.200027 0.133329 0.018931
C 5.475455 0.692835 0.088381
C 5.315885 1.225006 0.789445
C 4.951597 0.461597 0.907734
C 5.801705 0.094702 0.144949
C 6.634771 0.798497 0.016833
C 6.396009 1.453416 0.716086
C 5.990592 0.634201 0.932505
C 7.170455 0.026537 0.080560
C 7.584910 0.808396 0.127412
C 7.374754 1.472569 0.798243
C 6.870604 0.558345 0.687242
C 8.149085 0.008920 0.047057
C 8.462543 0.916010 0.019905
C 8.348587 1.470203 0.763701
C 8.063089 0.759519 0.876753
C 0.003345 1.634351 0.214874
C 0.604483 2.533143 0.060753
C 0.362716 3.162052 0.662818
C 0.110515 2.304316 0.719240
C 1.123778 1.853861 0.094745
C 1.667366 2.671142 0.161225
C 1.478460 3.118372 0.843897
C 1.065378 2.197751 0.981037
C 2.076949 1.817045 0.004674
C 2.559801 2.688433 0.035564
C 2.503607 3.214223 0.871755
C 1.855371 2.323716 0.887391
C 2.940563 1.661777 0.010840
C 3.578487 2.800656 0.086073
C 3.567209 3.142460 0.650151
C 3.127847 2.385824 0.977810
C 3.923992 1.684497 0.141665
C 4.399800 2.606796 0.080642
C 4.637748 3.051932 0.749535
C 3.960322 2.383347 0.789410
C 4.945964 1.484528 0.072687
C 5.561290 2.596783 0.012629
C 5.585498 3.188122 0.970298
C 4.989785 2.298572 0.747485
C 5.962437 1.656028 0.062338
C 6.508109 2.583127 0.127958
C 6.516821 3.068295 0.880581
C 6.208216 2.331055 0.802763
C 7.089017 1.890570 0.021144
C 7.330140 2.517134 0.028864
C 7.428875 3.151937 0.834258
C 7.049614 2.210065 0.754765
C 8.088598 1.876567 0.085505
C 8.305889 2.484005 0.062893
C 8.481304 3.173296 0.922298
C 7.786734 2.289719 0.901337
C 0.040220 3.304067 0.026349
C 0.544504 4.289937 0.119386
C 0.383169 4.931930 0.842175
C 0.012793 3.956143 0.995351
C 0.897476 3.446373 0.192569
C 1.357983 4.305078 0.010117
C 1.583892 4.818085 0.772782
C 0.935634 4.003955 0.716883
C 2.064537 3.603983 0.077518
C 2.392737 4.238872 0.038904
C 2.481462 4.805043 0.907110
C 2.083692 4.126172 0.939540
C 2.836752 3.558208 0.105133
C 3.395123 4.269482 0.016432
C 3.640838 4.957896 0.765707
C 3.005894 4.109361 0.767396
C 3.829798 3.387515 0.162804
C 4.613509 4.300571 0.047580
C 4.394749 4.857903 0.713426
C 4.171335 4.017618 0.764987
C 5.056918 3.523596 0.012439
C 5.377244 4.355608 0.103255
C 5.594567 4.876429 0.699012
C 4.812691 4.190404 0.882779
C 6.054303 3.383709 0.056603
C 6.674598 4.328342 0.006162
C 6.419133 4.918198 0.695239
C 6.023295 3.897853 0.923776
C 7.063153 3.343523 0.102153
C 7.467393 4.227771 0.045286
C 7.437335 4.929826 0.800002
C 6.923106 3.884599 0.813429
C 7.943491 3.376559 0.055673
C 8.481842 4.385360 0.117434
C 8.602254 4.976958 0.891510
C 7.923723 4.166413 0.733010
C 0.075622 5.083153 0.083456
C 0.482676 5.849893 0.070999
C 0.445110 6.797611 0.789077
C 0.035700 5.649706 0.906496
C 1.101212 5.093748 0.065455
C 1.470392 5.983773 0.052258
C 1.588821 6.747048 0.783871
C 0.905715 5.711569 0.783625
C 1.941273 5.318776 0.015384
C 2.584896 6.266682 0.007388
C 2.542932 6.694102 0.763485
C 1.991082 5.836311 0.865531
C 3.079729 5.034354 0.040477
C 3.438983 6.021049 0.108307
C 3.460277 6.737750 0.618802
C 2.935553 5.845269 0.779413
C 3.915602 5.041639 0.098254
C 4.317349 6.101241 0.015782
C 4.493725 6.689687 0.751901
C 4.091665 5.700916 0.924905
C 5.153911 5.250209 0.048042
C 5.662719 6.010915 0.177549
C 5.556171 6.679766 0.854952
C 4.966226 5.844774 0.656918
C 6.028582 5.322017 0.068698
C 6.605381 6.162684 0.110281
C 6.433929 6.838559 0.800408
C 6.025963 5.750957 0.936524
C 7.017148 5.212195 0.027984
C 7.387048 6.090014 0.015723
C 7.347348 6.606663 0.827875
C 6.933894 5.678922 0.900992
C 8.081635 5.373024 0.126991
C 8.514725 6.127948 0.028491
C 8.472708 6.549010 0.720821
C 8.054219 5.839165 0.794691
C 0.080194 6.745147 0.007578
C 0.437402 7.766648 0.115677
C 0.553604 8.407017 0.713177
C 0.124945 7.510982 0.613647
C 1.162760 6.974233 0.053243
C 1.534002 7.860727 0.133140
C 1.584309 8.277582 0.725296
C 1.075385 7.571853 0.718915
C 1.981298 6.884951 0.063756
C 2.661502 7.886238 0.068879
C 2.318004 8.483759 0.750363
C 1.893216 7.523168 0.725870
C 3.052692 6.990146 0.118260
C 3.425323 7.850431 0.011314
C 3.358909 8.463837 0.740836
C 2.927554 7.482147 0.624174
C 4.038750 7.067376 0.066701
C 4.450540 7.844813 0.116874
C 4.480934 8.426409 0.789451
C 4.035993 7.509020 1.007027
C 5.020439 7.071516 0.024804
C 5.659164 7.890729 0.094156
C 5.551877 8.356010 0.753719
C 5.095013 7.464786 0.843246
C 6.003871 7.008605 0.080743
C 6.410785 7.918539 0.094824
C 6.567598 8.301099 0.700130
C 6.044077 7.579154 0.734274
C 6.910610 6.810297 0.036132
C 7.660930 7.949643 0.081479
C 7.303644 8.397368 0.709342
C 6.927466 7.441185 0.899929
C 7.925767 7.115175 0.012581
C 8.496635 7.660382 0.127214
C 8.629307 8.331029 0.909619
C 7.909668 7.385575 0.933396
C 0.019023 0.057315 1.806670
C 0.376240 0.943401 1.503204
C 0.521443 1.323117 2.297624
C 0.071761 0.564035 2.377551
C 0.939381 0.093114 1.509290
C 1.398139 0.755689 1.491565
C 1.585369 1.471530 2.553141
C 1.128810 0.668417 2.285406
C 2.018448 0.021865 1.635575
C 2.399440 0.842534 1.779549
C 2.537696 1.336101 2.421661
C 1.933384 0.715061 2.554822
C 3.029337 0.091675 1.761567
C 3.525601 0.944991 1.729373
C 3.500616 1.533337 2.435352
C 3.139865 0.665769 2.500679
C 3.968004 0.115103 1.720228
C 4.520220 0.865261 1.757015
C 4.456550 1.520293 2.402710
C 4.171443 0.561971 2.399512
C 5.018645 0.110558 1.604508
C 5.446028 0.837436 1.654786
C 5.402494 1.473453 2.440324
C 4.853475 0.584926 2.524040
C 6.038015 0.009119 1.485361
C 6.431017 0.874618 1.556022
C 6.468110 1.301211 2.400987
C 5.991840 0.472510 2.463630
C 6.892487 0.039501 1.525021
C 7.424569 0.975547 1.515595
C 7.325988 1.411381 2.498205
C 7.061117 0.535377 2.446262
C 8.119837 0.111225 1.455574
C 8.502459 0.959778 1.786822
C 8.526234 1.523607 2.354010
C 7.924108 0.462594 2.414713
C 0.052040 1.875376 1.681154
C 0.525444 2.752448 1.490280
C 0.539754 3.153696 2.353446
C 0.019229 2.235500 2.354742
C 1.062920 1.896399 1.646516
C 1.537350 2.614087 1.776308
C 1.469903 3.086936 2.511189
C 0.899551 2.242481 2.391058
C 2.131448 1.644365 1.676883
C 2.412937 2.537978 1.569369
C 2.480541 3.126215 2.583715
C 1.901938 2.415077 2.457354
C 2.989051 1.711076 1.646690
C 3.647260 2.486822 1.651819
C 3.589906 3.196134 2.408460
C 3.096977 2.391078 2.574903
C 4.005975 1.752751 1.469872
C 4.411234 2.651331 1.511390
C 4.610965 3.117663 2.370604
C 3.939596 2.380520 2.563872
C 5.175068 1.651203 1.649038
C 5.508426 2.528521 1.456970
C 5.465562 3.025537 2.445693
C 5.033730 2.280296 2.293208
C 5.940767 1.867705 1.639140
C 6.404962 2.800998 1.625871
C 6.663985 3.111573 2.358027
C 6.115719 2.279870 2.361955
C 7.143756 1.572666 1.723815
C 7.407201 2.578112 1.701501
C 7.494203 3.158668 2.373676
C 6.999020 2.379827 2.327271
C 8.012322 1.713149 1.503370
C 8.533895 2.590844 1.614037
C 8.359516 3.113289 2.419071
C 7.881462 2.203928 2.379651
C 0.098968 3.576848 1.603610
C 0.433946 4.390802 1.832775
C 0.372536 4.875056 2.310792
C 0.028172 4.055341 2.617048
C 0.914689 3.534255 1.625389
C 1.579225 4.256043 1.439901
C 1.568808 4.829340 2.538650
C 1.167832 3.906249 2.428402
C 2.092480 3.464895 1.627383
C 2.575963 4.469246 1.520278
C 2.443251 4.967479 2.574429
C 2.004840 4.207436 2.388051
C 3.006530 3.469610 1.655334
C 3.559453 4.525778 1.724353
C 3.462029 5.011292 2.423536
C 2.918428 4.079768 2.577409
C 4.011145 3.409423 1.526333
C 4.484283 4.358724 1.655864
C 4.510155 4.947721 2.332026
C 3.894552 3.976262 2.543875
C 4.979928 3.550279 1.545620
C 5.484826 4.244316 1.699626
C 5.315959 4.920518 2.507991
C 5.169397 4.036170 2.411571
C 5.936017 3.546095 1.605015
C 6.429495 4.223860 1.565237
C 6.621495 5.008802 2.422842
C 6.184082 4.014148 2.461823
C 6.997101 3.373336 1.770444
C 7.493024 4.323894 1.517276
C 7.531989 5.046461 2.464136
C 6.936294 3.974173 2.493042
C 7.960201 3.524887 1.631850
C 8.560867 4.313484 1.689563
C 8.494989 4.831941 2.409934
C 8.079220 3.947506 2.454331
C 0.189033 5.184098 1.414949
C 0.349699 6.104931 1.593294
C 0.423207 6.713560 2.504267
C 0.030793 5.873840 2.420615
C 0.961394 5.096401 1.736537
C 1.481393 6.101435 1.800923
C 1.366133 6.711495 2.567094
C 1.027575 5.870791 2.545071
C 2.042625 5.228540 1.517210
C 2.443849 6.165223 1.755163
C 2.384591 6.643223 2.550148
C 2.074026 5.694624 2.377638
C 3.056265 5.135036 1.507867
C 3.498087 5.964144 1.719533
C 3.381326 6.673068 2.303232
C 3.051229 5.904041 2.422932
C 4.036920 5.100121 1.654343
C 4.558093 5.950195 1.751987
C 4.414578 6.758897 2.525027
C 4.036498 5.885655 2.310606
C 5.194061 5.212915 1.631495
C 5.473437 6.122724 1.653428
C 5.430284 6.590229 2.609717
C 4.922941 5.694090 2.459205
C 6.100067 5.308821 1.555686
C 6.460959 6.053424 1.848920
C 6.594211 6.581072 2.415696
C 6.105155 5.776771 2.587357
C 6.957584 5.104086 1.722816
C 7.460446 6.158116 1.524242
C 7.654005 6.616920 2.491816
C 6.955409 5.723689 2.383150
C 8.084234 5.139085 1.636454
C 8.557486 6.080787 1.562748
C 8.657713 6.697585 2.524371
C 8.121703 5.742257 2.355740
C 0.042915 6.941449 1.578251
C 0.470551 7.906089 1.497054
C 0.423119 8.424257 2.397339
C 0.045062 7.448643 2.625778
C 0.976793 6.969941 1.422008
C 1.641653 7.818958 1.807584
C 1.417872 8.410183 2.635074
C 0.972605 7.292330 2.448350
C 2.015060 7.002088 1.784793
C 2.401497 7.702676 1.559610
C 2.371770 8.498125 2.498114
C 2.121563 7.542283 2.489546
C 2.973263 6.917455 1.764188
C 3.340765 7.799076 1.512470
C 3.613146 8.456515 2.472524
C 3.022338 7.565257 2.497909
C 3.932492 6.981104 1.425391
C 4.404583 7.723136 1.503145
C 4.618468 8.404657 2.419603
C 3.973965 7.490875 2.435875
C 4.888410 7.034172 1.557066
C 5.582751 7.748219 1.773945
C 5.519493 8.553620 2.485578
C 5.034077 7.436388 2.509936
C 6.066002 6.928882 1.457961
C 6.343814 7.676723 1.582054
C 6.651784 8.365499 2.291105
C 6.120436 7.500267 2.436896
C 7.017237 6.964262 1.634180
C 7.485868 7.765392 1.752426
C 7.506862 8.441860 2.296197
C 6.938988 7.512135 2.421756
C 8.121196 6.934545 1.551796
C 8.443804 7.792156 1.610449
C 8.368305 8.221814 2.444453
C 8.005409 7.544153 2.548969
C 0.202962 0.069129 3.349636
C 0.628860 0.794370 3.230365
C 0.385626 1.551864 3.993034
C 0.045445 0.629481 4.013029
C 1.129388 0.145500 3.311581
C 1.477122 0.920080 3.359292
C 1.486767 1.460783 4.115595
C 1.068270 0.534102 4.193303
C 1.941745 0.176279 3.421291
C 2.463413 0.853417 3.195904
C 2.438331 1.310931 4.084059
C 1.902911 0.666168 4.027613
C 3.109871 0.013500 3.313508
C 3.540351 0.898038 3.465508
C 3.609877 1.565688 4.065331
C 2.985202 0.719268 4.148482
C 4.101779 0.050792 3.178374
C 4.642461 0.952698 3.333144
C 4.622117 1.449646 3.954975
C 3.985819 0.699008 4.040194
C 5.031470 0.068371 3.222197
C 5.463585 0.819078 3.363204
C 5.426173 1.563685 4.083780
C 4.961655 0.651130 3.916128
C 6.086791 0.085361 3.169574
C 6.536581 0.847457 3.239783
C 6.383783 1.592447 4.130815
C 5.966401 0.573862 3.941891
C 6.829154 0.034167 3.209543
C 7.430287 0.765378 3.148345
C 7.501961 1.313543 4.280847
C 6.982691 0.628723 4.114099
C 8.003418 0.133335 3.390481
C 8.589090 0.834769 3.374957
C 8.523966 1.403419 4.023407
C 7.852024 0.589289 4.022588
C 0.018587 1.566652 3.227005
C 0.593830 2.584020 3.308332
C 0.410847 3.156220 4.086071
C 0.108835 2.334115 3.793950
C 1.032778 1.823855 3.279575
C 1.485669 2.622931 3.059203
C 1.633989 3.162906 4.176909
C 0.998112 2.223504 4.013053
C 2.022880 1.699556 3.125141
C 2.530696 2.528955 3.173185
C 2.561744 3.219711 4.067172
C 1.892806 2.410751 4.041141
C 2.967036 1.897965 3.173093
C 3.593982 2.510016 3.339332
C 3.554005 3.193153 3.962571
C 2.990289 2.389028 4.078589
C 4.103716 1.696953 3.344164
C 4.349451 2.747166 3.202773
C 4.578851 3.193236 4.116562
C 3.921946 2.356284 4.234417
C 5.020949 1.858916 3.375701
C 5.349111 2.605229 3.397417
C 5.509317 3.082706 3.991307
C 5.037184 2.432912 4.049085
C 6.065681 1.769569 3.253675
C 6.541680 2.588305 3.289000
C 6.583624 3.166540 3.998970
C 6.186502 2.224115 4.027889
C 7.031458 1.801913 3.279372
C 7.609603 2.712091 3.371710
C 7.451468 3.305054 4.075790
C 7.148777 2.389421 4.091409
C 8.107513 1.719589 3.347211
C 8.432777 2.645320 3.428453
C 8.537392 3.310790 4.023757
C 7.908810 2.335957 4.208450
C 0.094684 3.633682 3.139076
C 0.405580 4.281853 3.116409
C 0.445400 5.107028 3.989344
C 0.158735 3.922378 4.122947
C 0.928729 3.605238 3.286626
C 1.437574 4.427302 3.202067
C 1.335609 5.068026 4.055159
C 1.032420 4.008107 4.179646
C 1.992506 3.585038 3.239590
C 2.584969 4.273976 3.141144
C 2.622324 4.861795 4.180547
C 1.909513 4.010601 4.168757
C 2.981275 3.406563 3.235406
C 3.468404 4.150447 3.144159
C 3.433069 4.985495 4.010408
C 3.093109 3.944999 3.998582
C 4.096951 3.379224 3.286234
C 4.586971 4.408609 3.290484
C 4.593909 4.775651 4.069751
C 3.828250 3.956025 4.106286
C 4.937103 3.511029 3.220826
C 5.403831 4.393558 3.402024
C 5.660260 5.036424 4.157061
C 5.012360 4.196862 4.012947
C 5.883889 3.499740 3.275840
C 6.351263 4.362574 3.447526
C 6.532755 4.769926 4.088306
C 6.052784 3.933890 4.208118
C 6.898606 3.409671 3.248890
C 7.565966 4.467728 3.190680
C 7.539511 4.838768 4.184996
C 6.841447 3.886080 4.049122
C 8.106148 3.459947 3.335791
C 8.574175 4.244595 3.377233
C 8.413321 4.923846 4.153697
C 8.141775 4.047568 3.974557
C 0.084055 5.197421 3.166771
C 0.587385 6.126327 3.194459
C 0.644840 6.502923 4.091282
C 0.020559 5.933975 4.008724
C 1.106983 5.152783 3.172516
C 1.557188 5.977368 3.289922
C 1.544063 6.649342 3.892151
C 0.904261 5.743354 4.141900
C 1.795737 5.240817 3.282683
C 2.459433 5.883442 3.229869
C 2.466105 6.606542 4.083772
C 1.933330 5.801509 4.198849
C 2.977666 5.333525 3.314408
C 3.543356 6.114780 3.250033
C 3.377761 6.676403 4.112289
C 2.945004 5.681934 4.045625
C 4.151999 5.240797 3.312042
C 4.386285 6.141441 3.348669
C 4.435759 6.618103 4.127140
C 4.063624 5.620765 4.137130
C 5.058624 5.293614 3.238713
C 5.476644 5.948332 3.289390
C 5.509251 6.496028 4.040977
C 4.988759 5.628787 4.035470
C 6.020640 5.292350 3.345386
C 6.485102 5.943835 3.329663
C 6.619116 6.555909 4.034762
C 6.101012 5.854391 4.088427
C 7.095488 5.078165 3.156580
C 7.645210 6.164324 3.267592
C 7.541375 6.588375 3.929038
C 7.049725 5.880521 4.030672
C 8.038285 5.112179 3.145336
C 8.592049 6.100245 3.359496
C 8.489873 6.623816 4.170316
C 7.938757 5.779066 4.170361
C 0.018312 6.849552 3.134909
C 0.557541 7.777409 3.164951
C 0.614787 8.251501 4.112783
C 0.193848 7.620400 4.101965
C 0.912370 6.929570 3.298605
C 1.410520 7.754454 3.163548
C 1.406958 8.335650 4.014439
C 1.214700 7.580307 4.134793
C 1.814393 6.916480 3.291003
C 2.365638 7.856556 3.339607
C 2.522338 8.346960 4.247674
C 1.978273 7.679446 4.143361
C 2.933455 6.837685 3.346982
C 3.577401 7.766876 3.283548
C 3.411154 8.390851 3.932972
C 3.029723 7.445842 4.272717
C 4.112727 6.981138 3.189964
C 4.547797 7.983086 3.346555
C 4.326298 8.303636 4.134484
C 3.890223 7.620280 4.046948
C 4.845974 6.958422 3.251167
C 5.440104 7.764555 3.129472
C 5.549159 8.290178 4.156404
C 5.006970 7.406844 4.187290
C 5.928329 6.788986 3.319169
C 6.499809 7.831729 3.260878
C 6.490236 8.476454 4.050836
C 6.067643 7.444214 4.174272
C 7.121892 6.849497 3.311191
C 7.444584 7.785156 3.210315
C 7.353007 8.418729 3.943742
C 6.975813 7.430323 4.183305
C 7.967010 6.863998 3.324349
C 8.688614 7.897381 3.296753
C 8.424694 8.339195 4.074294
C 7.842629 7.379033 4.173350
C 0.047154 0.121628 4.688331
C 0.460339 0.856710 5.019571
C 0.563264 1.472532 5.832488
C 0.127028 0.613270 5.723292
C 1.077191 0.011371 4.952371
C 1.675080 0.835362 4.862317
C 1.488836 1.335017 5.732179
C 1.040525 0.633167 5.853904
C 2.076091 0.041674 5.058136
C 2.532566 0.782236 4.975947
C 2.580718 1.327582 5.711579
C 2.097105 0.649717 5.817145
C 3.112020 0.148929 4.836624
C 3.499483 0.804410 4.998495
C 3.397111 1.413658 5.811133
C 2.994055 0.545246 5.672036
C 3.922382 0.047103 4.867579
C 4.445955 0.838335 4.992280
C 4.433039 1.619568 5.664882
C 4.115533 0.479262 5.799039
C 4.999201 0.026375 4.964013
C 5.606529 0.900113 4.860564
C 5.605961 1.523998 5.670474
C 5.157597 0.589825 5.713933
C 6.021590 0.002223 4.888551
C 6.373405 0.842617 4.771580
C 6.348362 1.468953 5.684982
C 6.061003 0.604962 5.733344
C 7.143718 0.052909 4.826426
C 7.501034 1.070664 4.919596
C 7.493522 1.539322 5.847411
C 6.936833 0.666375 5.818441
C 7.938713 0.044128 5.013404
C 8.411053 0.757441 4.932961
C 8.530352 1.517671 5.756017
C 7.872418 0.471070 5.793987
C 0.064808 1.886927 4.818023
C 0.454276 2.671156 4.959470
C 0.468240 3.021551 5.675530
C 0.061509 2.180387 5.638180
C 0.989441 1.803898 4.780368
C 1.626019 2.602042 4.862334
C 1.475750 3.259954 5.705911
C 1.093817 2.219519 5.782564
C 1.938554 1.790301 4.800401
C 2.391318 2.730497 4.850782
C 2.462713 3.258826 5.725208
C 2.135794 2.298229 5.564946
C 3.118435 1.795978 5.005335
C 3.427285 2.650860 4.972911
C 3.507668 3.253453 5.550700
C 2.834315 2.358259 5.696938
C 3.937903 1.671692 4.826354
C 4.424419 2.633259 5.015285
C 4.448230 3.197204 5.524715
C 3.856441 2.378110 5.649177
C 5.084439 1.877047 4.890129
C 5.450210 2.410258 4.905279
C 5.588801 3.223436 5.681373
C 5.010213 2.406469 5.755857
C 5.896266 1.778729 4.742542
C 6.409656 2.622024 5.020868
C 6.575589 3.118671 5.843533
C 6.108420 2.333707 5.862745
C 7.126276 1.714247 4.844476
C 7.516470 2.532237 5.046276
C 7.368683 3.158045 5.731057
C 7.079303 2.260682 5.601004
C 8.125216 1.716081 4.945112
C 8.596026 2.466346 4.958147
C 8.601961 3.095794 5.714568
C 7.928299 2.374743 5.767871
C 0.116011 3.501702 4.833362
C 0.549115 4.411960 4.722101
C 0.450924 4.767328 5.637314
C 0.012616 4.096785 5.748237
C 1.063105 3.474237 4.922711
C 1.518112 4.366617 5.013057
C 1.454110 5.045608 5.673111
C 1.171296 4.037561 5.686793
C 1.926699 3.444850 4.999916
C 2.573740 4.315353 4.754324
C 2.398580 4.934608 5.815404
C 2.013404 4.166443 5.671521
C 2.953755 3.578382 4.939116
C 3.377552 4.279704 4.884125
C 3.573107 4.959298 5.727988
C 2.998522 4.000964 5.629605
C 4.056471 3.552765 4.929300
C 4.523515 4.388229 4.817155
C 4.647507 4.950371 5.719614
C 4.061888 4.052839 5.892888
C 5.084910 3.529501 4.868557
C 5.639928 4.273265 4.881108
C 5.378889 4.977750 5.735098
C 4.978188 4.049736 5.711020
C 5.925830 3.413998 5.006157
C 6.617532 4.205460 4.944051
C 6.431758 4.913782 5.609839
C 5.986451 4.106856 5.595367
C 7.090154 3.454399 4.787607
C 7.435170 4.361196 4.790734
C 7.434732 4.767845 5.702078
C 7.041711 3.991490 5.671825
C 8.144239 3.388663 4.798932
C 8.503168 4.479889 5.041285
C 8.518957 4.973721 5.566884
C 8.093401 3.976714 5.751882
C 0.203957 5.135955 4.844744
C 0.605554 6.041749 4.860004
C 0.606713 6.686171 5.668339
C 0.063558 5.612652 5.859220
C 1.001912 5.219234 5.030671
C 1.534782 5.993036 4.931176
C 1.510734 6.682628 5.686762
C 0.977814 5.811479 5.824162
C 1.949098 5.264254 4.738568
C 2.622044 6.110184 4.761949
C 2.483299 6.678138 5.631838
C 1.964677 5.862681 5.600274
C 3.137377 5.274427 4.885404
C 3.444617 5.956924 4.830221
C 3.411258 6.636132 5.551555
C 3.065780 5.835677 5.620316
C 4.000767 5.212790 5.030952
C 4.491421 6.082681 5.012925
C 4.465190 6.661813 5.912968
C 4.020328 5.876025 5.786695
C 5.152749 5.178398 4.914314
C 5.591036 6.124972 4.997874
C 5.547487 6.702690 5.572718
C 4.921646 5.752566 5.642555
C 5.833359 5.160808 4.899485
C 6.463107 6.112243 4.815909
C 6.515559 6.634421 5.765555
C 5.937972 5.619243 5.830500
C 6.879820 5.100229 4.921057
C 7.410337 6.167801 4.833233
C 7.544695 6.510168 5.657080
C 6.986908 5.705115 5.650656
C 8.111220 5.161543 4.984081
C 8.462774 5.903057 4.932006
C 8.493305 6.722546 5.752627
C 8.066174 5.931930 5.670037
C 0.038839 6.947573 4.939991
C 0.598591 7.918102 5.012262
C 0.528072 8.442570 5.786288
C 0.066335 7.464302 5.945207
C 1.089029 6.935503 5.015670
C 1.469002 7.699014 4.865888
C 1.454542 8.407297 5.785056
C 0.961946 7.395576 5.735407
C 1.949891 6.816448 4.753720
C 2.466414 7.764274 4.772596
C 2.397748 8.322951 5.660517
C 2.113576 7.463167 5.756864
C 3.069286 6.973157 4.867781
C 3.449960 7.853097 4.845709
C 3.488336 8.392328 5.788303
C 2.885495 7.518816 5.661846
C 3.994304 6.890118 4.799504
C 4.380078 7.625466 4.849851
C 4.430197 8.421432 5.665645
C 4.080100 7.640726 5.719227
C 4.973497 7.011086 4.995623
C 5.501946 7.672102 5.004048
C 5.579211 8.450172 5.608328
C 5.106189 7.398398 5.751989
C 6.121474 6.783201 4.906165
C 6.377621 7.670855 5.061498
C 6.484690 8.468759 5.700490
C 5.865860 7.443052 5.906716
C 7.123518 6.991597 5.005544
C 7.331398 7.702983 4.845677
C 7.549366 8.487188 5.753353
C 7.169940 7.460165 5.623562
C 8.021170 6.891750 4.825026
C 8.470725 7.694581 4.846877
C 8.425411 8.346456 5.763377
C 8.098812 7.642109 5.821232
C 0.122598 0.007694 6.651054
C 0.479600 0.945827 6.398555
C 0.648287 1.452446 7.327176
C 0.081631 0.618210 7.518538
C 1.127599 0.080322 6.682401
C 1.359175 0.832416 6.611146
C 1.493325 1.331000 7.374164
C 0.882742 0.415793 7.326564
C 1.850153 0.070549 6.454247
C 2.526149 0.746499 6.446723
C 2.633535 1.386880 7.308325
C 2.115982 0.525180 7.276249
C 3.087618 0.010018 6.476632
C 3.466766 0.843382 6.324245
C 3.661882 1.439729 7.263280
C 3.127425 0.487152 7.363263
C 3.999013 0.022847 6.554222
C 4.449919 0.989739 6.498839
C 4.646558 1.370367 7.252358
C 4.147564 0.578830 7.375871
C 4.925249 0.079829 6.723671
C 5.610352 0.756091 6.566280
C 5.512742 1.455717 7.413474
C 5.088220 0.557823 7.209412
C 6.084453 0.083721 6.405926
C 6.431998 0.720361 6.536668
C 6.469221 1.357572 7.187964
C 5.956394 0.430925 7.283144
C 6.969394 0.009792 6.613893
C 7.691605 0.796338 6.474413
C 7.700093 1.503506 7.290380
C 7.192827 0.609730 7.477517
C 7.898037 0.033258 6.587359
C 8.419713 1.031223 6.534460
C 8.400070 1.532894 7.391113
C 7.935317 0.555373 7.553402
C 0.022455 1.741494 6.680669
C 0.526305 2.624898 6.511967
C 0.508549 3.101559 7.286711
C 0.003515 2.190747 7.278635
C 1.038650 1.852814 6.495157
C 1.539251 2.428175 6.589054
C 1.525336 3.308845 7.302488
C 1.108376 2.253880 7.346765
C 1.987316 1.664779 6.649204
C 2.610468 2.639774 6.575949
C 2.419324 3.252971 7.446680
C 1.931322 2.469389 7.339907
C 3.083749 1.640046 6.631312
C 3.488100 2.551752 6.605869
C 3.351139 3.192550 7.390947
C 2.999110 2.390438 7.274044
C 3.978841 1.708212 6.471469
C 4.390339 2.656294 6.453902
C 4.437053 3.186898 7.424916
C 3.956434 2.423664 7.265088
C 4.974690 1.764630 6.535447
C 5.428573 2.404266 6.448468
C 5.609629 3.076918 7.412566
C 5.018772 2.399541 7.211331
C 6.051216 1.761272 6.696793
C 6.400818 2.483629 6.676766
C 6.478165 3.051008 7.207694
C 6.067446 2.483073 7.421464
C 7.102569 1.692243 6.629711
C 7.370561 2.526429 6.521089
C 7.550201 3.220253 7.299000
C 6.859512 2.268841 7.288874
C 8.174042 1.640449 6.528108
C 8.672120 2.566733 6.542852
C 8.310008 3.137839 7.418472
C 8.067487 2.169310 7.480016
C 0.010728 3.596055 6.649147
C 0.445512 4.304855 6.415584
C 0.622448 4.967839 7.460749
C 0.163034 4.182445 7.466642
C 0.996447 3.571949 6.475078
C 1.496832 4.241827 6.458665
C 1.665232 4.909796 7.517605
C 0.905638 3.949752 7.351489
C 2.015830 3.596943 6.590398
C 2.412281 4.339907 6.539821
C 2.540108 4.867424 7.250990
C 1.889748 4.187987 7.330232
C 3.014243 3.529876 6.590200
C 3.558396 4.290705 6.423321
C 3.562914 4.968703 7.294812
C 3.064491 3.939837 7.390210
C 3.985931 3.497346 6.360556
C 4.652061 4.321889 6.678539
C 4.358260 4.960482 7.369969
C 4.087111 4.137819 7.459919
C 5.005010 3.385544 6.631517
C 5.516187 4.379811 6.538603
C 5.558463 5.016472 7.320523
C 5.019063 3.847476 7.385777
C 6.073190 3.563649 6.662406
C 6.396700 4.380919 6.496146
C 6.579487 4.976742 7.375002
C 5.972856 3.952044 7.482511
C 6.954323 3.480206 6.562082
C 7.609767 4.215724 6.556275
C 7.423479 5.146200 7.361384
C 7.010815 3.929144 7.207425
C 7.916002 3.382005 6.452059
C 8.551224 4.412001 6.486886
C 8.408223 4.966505 7.348777
C 8.136709 4.025281 7.242123
C 0.158989 5.286323 6.414730
C 0.473457 5.963505 6.424258
C 0.639647 6.636601 7.438080
C 0.023778 5.782763 7.219025
C 0.889945 5.156646 6.381883
C 1.551844 6.159893 6.657482
C 1.647448 6.541548 7.372692
C 1.060660 5.864176 7.293859
C 1.958267 5.300656 6.604538
C 2.532324 6.012576 6.491406
C 2.548692 6.440750 7.358504
C 2.084619 5.757992 7.232454
C 2.987942 5.055314 6.448828
C 3.473177 6.108853 6.546432
C 3.618202 6.649825 7.339979
C 3.042849 5.835238 7.200297
C 3.987888 5.247949 6.659624
C 4.347938 6.159263 6.516217
C 4.393615 6.671187 7.233118
C 3.896885 5.684473 7.238594
C 5.136614 5.132710 6.477625
C 5.430484 6.167405 6.441100
C 5.455523 6.596996 7.515778
C 5.111464 5.724436 7.268840
C 6.050149 5.354328 6.540198
C 6.465480 6.035459 6.667628
C 6.481916 6.563750 7.460226
C 5.921343 5.773175 7.336152
C 6.935078 5.211608 6.394773
C 7.421901 5.927399 6.577413
C 7.359770 6.688194 7.358602
C 6.949220 5.958673 7.306467
C 7.960299 5.185991 6.432879
C 8.446113 5.869985 6.588473
C 8.646508 6.659809 7.412899
C 7.898788 5.706041 7.260959
C 0.073644 6.741948 6.597068
C 0.530905 7.709673 6.429025
C 0.451287 8.301555 7.314424
C 0.003485 7.346588 7.363230
C 1.142261 6.830824 6.585457
C 1.465732 7.847046 6.546779
C 1.626972 8.445834 7.414250
C 1.042204 7.584731 7.172780
C 1.945087 6.908056 6.404225
C 2.345573 7.754564 6.406102
C 2.518657 8.443776 7.428719
C 1.862207 7.460536 7.195048
C 3.068137 6.957327 6.507037
C 3.578504 7.584604 6.569443
C 3.364691 8.403400 7.418734
C 3.073642 7.442628 7.265659
C 3.957627 6.960532 6.506654
C 4.441471 7.826484 6.506596
C 4.539440 8.307169 7.383695
C 3.845884 7.504400 7.331623
C 4.806248 6.942011 6.509254
C 5.584599 7.692843 6.708977
C 5.365533 8.437025 7.407615
C 5.020042 7.568130 7.415897
C 5.966296 7.092470 6.671587
C 6.510695 7.923020 6.609297
C 6.409871 8.277363 7.406490
C 6.110405 7.594357 7.282823
C 7.057885 6.904075 6.647402
C 7.342472 7.891603 6.522441
C 7.525348 8.277266 7.303774
C 6.944722 7.677575 7.402712
C 7.905846 6.910294 6.432856
C 8.440192 7.989983 6.459690
C 8.377601 8.339714 7.391432
C 8.086267 7.491793 7.439389
C 0.056330 0.077126 7.887403
C 0.498978 0.940038 8.097744
C 0.534036 1.342063 8.901844
C 0.044775 0.604050 8.827455
C 1.093930 0.186189 8.060855
C 1.483949 0.913037 8.050540
C 1.588041 1.590354 8.941924
C 1.109002 0.628855 9.118669
C 1.864226 0.019140 8.194058
C 2.406934 0.829468 8.036813
C 2.597051 1.359265 9.021356
C 1.938599 0.727772 9.004213
C 2.994403 0.107203 8.127913
C 3.574974 0.899079 8.250041
C 3.334905 1.466300 9.003032
C 3.061490 0.664853 8.849726
C 3.998338 0.006440 8.060475
C 4.664470 0.770505 8.013761
C 4.321413 1.372879 9.024804
C 4.038898 0.576093 9.163891
C 5.115091 0.090909 7.943661
C 5.491401 0.926094 8.346012
C 5.387560 1.526665 9.025102
C 4.966805 0.566314 8.977878
C 6.008005 0.034665 8.079324
C 6.489966 0.848818 7.963904
C 6.538413 1.381352 8.901769
C 5.938338 0.620967 9.114940
C 7.081576 0.007484 8.036581
C 7.526078 0.865342 8.330683
C 7.524541 1.586705 8.888066
C 7.099714 0.720468 8.991929
C 8.104178 0.138305 8.152850
C 8.558422 0.979468 8.227176
C 8.439922 1.394725 9.113790
C 8.141648 0.557225 9.104109
C 0.205477 1.856473 8.127101
C 0.466794 2.654738 8.324798
C 0.414835 3.261113 8.905972
C 0.207324 2.233850 8.925076
C 0.878845 1.606565 8.140847
C 1.554324 2.657729 8.349177
C 1.472493 3.193840 9.125731
C 1.114479 2.347787 9.093084
C 2.004427 1.735366 8.086909
C 2.501769 2.714813 8.278942
C 2.488237 3.145898 8.784347
C 1.883038 2.346877 8.885533
C 2.912613 1.749103 8.208142
C 3.442217 2.460649 8.238100
C 3.338038 3.176887 9.099067
C 3.069357 2.464482 8.967598
C 3.885148 1.804354 8.310596
C 4.426102 2.587642 8.279592
C 4.475877 3.226293 9.105658
C 3.868812 2.340009 9.059549
C 5.054696 1.588477 8.202072
C 5.502718 2.589952 8.306614
C 5.524220 3.228713 8.888424
C 4.967162 2.277190 9.054424
C 5.904860 1.769360 8.296820
C 6.537360 2.446182 8.229589
C 6.367737 3.166202 8.928481
C 6.121075 2.274491 9.019708
C 7.115260 1.626151 8.128518
C 7.440342 2.666021 8.255760
C 7.536251 3.320195 8.988172
C 6.893393 2.294005 9.106473
C 7.957027 1.564682 8.291008
C 8.526997 2.481434 8.190898
C 8.523155 3.289071 9.001235
C 8.081856 2.420405 9.105532
C 0.052668 3.489833 8.259438
C 0.545671 4.336616 7.951793
C 0.447879 4.957399 9.087213
C 0.019310 4.177878 9.083557
C 1.030882 3.439523 8.246700
C 1.618048 4.224864 8.156823
C 1.597991 4.852880 8.854936
C 0.921057 4.013679 8.960860
C 1.884602 3.369618 8.223762
C 2.631618 4.399075 8.191828
C 2.360218 4.948040 9.067113
C 2.080799 4.155416 8.987438
C 3.109832 3.473755 8.096193
C 3.420520 4.322526 8.251384
C 3.575342 4.973560 9.018628
C 2.967770 3.942329 9.023711
C 4.151354 3.529784 8.190775
C 4.556884 4.354616 8.034115
C 4.562162 5.009463 8.896144
C 3.947566 4.121315 8.942403
C 4.926415 3.459907 8.275889
C 5.402396 4.306214 8.101648
C 5.494603 5.072707 9.046313
C 5.041640 4.075073 9.044233
C 6.009363 3.426129 8.181879
C 6.516007 4.431971 8.268626
C 6.654705 4.942812 8.889762
C 5.930351 4.009952 8.872456
C 7.012250 3.477998 8.072568
C 7.475697 4.217033 8.109143
C 7.510665 5.022622 8.830036
C 7.013418 3.905299 8.945548
C 7.897051 3.558688 8.117181
C 8.513658 4.422281 8.191508
C 8.394330 4.953944 8.970665
C 7.983850 4.002495 8.989309
C 0.026374 5.231172 8.310719
C 0.674487 6.155524 8.164624
C 0.371408 6.456089 8.982832
C 0.179370 5.924350 9.006623
C 1.006123 5.105000 8.027035
C 1.559898 6.090597 8.183752
C 1.353012 6.618518 8.907694
C 1.098692 5.792224 8.858685
C 2.102946 5.137478 8.143579
C 2.387871 6.092470 8.085300
C 2.433890 6.616606 8.898113
C 1.883520 5.816386 8.894440
C 3.099259 5.187871 8.062501
C 3.359676 6.004533 8.110527
C 3.468603 6.613387 9.021572
C 3.070837 5.677612 9.004899
C 3.968597 5.129900 8.030911
C 4.465114 6.047679 8.106451
C 4.630821 6.636918 9.002110
C 3.999587 5.555087 9.022944
C 5.010213 5.229127 8.065248
C 5.461559 5.958717 8.161839
C 5.336076 6.753911 8.912542
C 5.034081 5.643594 9.065379
C 5.942256 5.068087 8.248862
C 6.465857 6.224770 8.217116
C 6.645472 6.670359 9.097753
C 6.040739 5.897408 9.089169
C 6.994559 5.248612 8.330355
C 7.521395 5.906234 8.253573
C 7.440374 6.676184 8.994932
C 7.091384 5.793437 9.061099
C 7.992394 5.106684 8.058330
C 8.637574 5.966058 8.210152
C 8.377274 6.600924 8.950444
C 7.911486 5.735587 8.973666
C 0.013983 7.003929 8.026496
C 0.517463 7.708576 8.105348
C 0.530020 8.365710 8.886826
C 0.086986 7.423716 9.123068
C 0.974911 6.882093 8.113036
C 1.468007 7.772635 8.017446
C 1.501284 8.361812 9.011990
C 1.062418 7.578022 8.850068
C 1.852014 6.836214 8.092000
C 2.533929 7.963282 8.108025
C 2.596434 8.314334 8.868175
C 1.888743 7.468915 8.951602
C 3.217907 6.869511 8.088280
C 3.454569 7.958132 8.194807
C 3.419853 8.450381 8.933430
C 3.030367 7.621787 9.012572
C 4.056379 6.787564 8.284958
C 4.556344 7.735878 8.034469
C 4.382662 8.421342 8.897816
C 3.878470 7.533186 8.867401
C 5.130811 6.925709 8.159136
C 5.407791 7.685934 8.331349
C 5.386889 8.389133 8.926647
C 4.925745 7.523764 8.942398
C 5.963019 6.959046 8.198130
C 6.708763 7.759371 8.224338
C 6.256001 8.354625 9.009495
C 6.138315 7.490032 9.116521
C 6.984184 6.946961 8.217568
C 7.501483 7.883748 8.250175
C 7.627381 8.422240 9.132794
C 7.048448 7.449961 8.855160
C 7.942274 6.795296 8.221718
C 8.626719 7.806323 8.286281
C 8.505177 8.251396 9.106355
C 7.945068 7.673866 9.150974
C 0.089601 0.117396 0.717025
C 0.561345 0.932518 0.636943
C 0.609974 1.505248 1.353436
C 0.008772 0.618446 1.561294
C 1.030320 0.196540 0.432587
C 1.516421 0.814444 0.642876
C 1.502399 1.556184 1.588330
C 0.879430 0.707824 1.517423
C 2.020056 0.191026 0.496734
C 2.580477 0.787931 0.679830
C 2.423413 1.426750 1.396783
C 2.034964 0.716374 1.422739
C 2.912778 0.020907 0.623163
C 3.557852 0.778686 0.587534
C 3.632635 1.511082 1.411593
C 3.060436 0.586348 1.576419
C 4.035499 0.176968 0.529799
C 4.440719 0.759889 0.554551
C 4.383902 1.457603 1.487521
C 3.861338 0.605275 1.506170
C 5.039714 0.024579 0.720221
C 5.620521 0.897032 0.679587
C 5.512888 1.467563 1.292136
C 5.066071 0.572538 1.323933
C 5.968712 0.061464 0.751580
C 6.576050 0.969385 0.721242
C 6.292259 1.477972 1.467832
C 5.894593 0.438899 1.408568
C 7.042155 0.023617 0.824036
C 7.636722 0.779977 0.710516
C 7.347807 1.401768 1.409347
C 7.044020 0.692115 1.321212
C 7.795199 0.093709 0.729190
C 8.523957 0.913275 0.585445
C 8.424452 1.437424 1.559188
C 7.889216 0.566682 1.289954
C 0.051091 1.849035 0.586169
C 0.495790 2.756575 0.513652
C 0.338133 3.092068 1.258199
C 0.218745 2.438039 1.436455
C 0.924370 1.697434 0.446464
C 1.610653 2.662596 0.607856
C 1.417787 3.086592 1.502318
C 0.880279 2.191178 1.377378
C 1.931840 1.724400 0.572362
C 2.500043 2.500251 0.566590
C 2.413306 3.191773 1.349276
C 1.932604 2.135319 1.347629
C 3.120895 1.827513 0.534079
C 3.504150 2.580382 0.609479
C 3.597515 3.256914 1.464979
C 2.910046 2.413476 1.382705
C 3.893497 1.874250 0.665210
C 4.639230 2.581877 0.552122
C 4.463196 3.144175 1.463036
C 3.973124 2.320466 1.406692
C 5.094741 1.651350 0.673237
C 5.387282 2.555906 0.702093
C 5.570622 3.290141 1.473768
C 4.875967 2.360642 1.432486
C 6.007375 1.636479 0.523586
C 6.371615 2.617126 0.547612
C 6.548646 3.224529 1.562393
C 6.104324 2.427042 1.348543
C 7.008410 1.736633 0.762751
C 7.603163 2.670475 0.668607
C 7.306144 3.096549 1.391901
C 6.884134 2.158156 1.416641
C 8.039156 1.828942 0.647163
C 8.545406 2.761808 0.610792
C 8.355422 3.154308 1.411909
C 8.049731 2.336923 1.339427
C 0.149185 3.524811 0.531933
C 0.530566 4.370107 0.768695
C 0.373314 4.909807 1.625900
C 0.151737 3.994294 1.643225
C 0.943988 3.536032 0.738925
C 1.472728 4.416913 0.538802
C 1.468017 4.774422 1.520125
C 1.051027 3.985819 1.535898
C 1.783963 3.454061 0.651723
C 2.357173 4.381337 0.673432
C 2.390715 4.924100 1.427970
C 1.954878 4.073578 1.538964
C 2.955981 3.375439 0.587877
C 3.418140 4.350160 0.654852
C 3.529092 4.776809 1.390308
C 2.910536 4.077961 1.532987
C 4.064553 3.502204 0.489610
C 4.376379 4.380976 0.556418
C 4.452600 5.026547 1.404191
C 4.114855 3.985033 1.410341
C 5.030458 3.370784 0.772904
C 5.467789 4.456611 0.651209
C 5.515887 5.000674 1.399550
C 4.861500 4.130077 1.515265
C 5.919159 3.529083 0.629704
C 6.585177 4.327095 0.545773
C 6.567986 4.781243 1.337168
C 5.999876 4.070704 1.349401
C 6.987899 3.371742 0.665011
C 7.465889 4.391307 0.573547
C 7.568252 4.896697 1.402534
C 6.975818 4.126924 1.391703
C 7.871571 3.453599 0.632104
C 8.459830 4.203175 0.643252
C 8.486831 4.897902 1.314955
C 8.173200 4.050374 1.522920
C 0.086654 5.208340 0.622170
C 0.428915 5.983210 0.535616
C 0.482996 6.841393 1.470187
C 0.060643 5.622540 1.390809
C 0.948503 5.147629 0.464177
C 1.585352 5.928606 0.617004
C 1.363300 6.546168 1.476715
C 0.951827 5.706241 1.443069
C 2.138406 5.160100 0.600535
C 2.490391 6.122574 0.515952
C 2.372607 6.552419 1.527610
C 1.884739 5.754333 1.408328
C 3.030998 5.229857 0.581653
C 3.500900 6.194603 0.710324
C 3.498467 6.760043 1.357982
C 3.104599 5.926569 1.473962
C 4.082844 5.257676 0.418817
C 4.434351 6.081775 0.458036
C 4.545978 6.525383 1.396214
C 4.143442 5.660166 1.487497
C 4.981597 4.961078 0.597566
C 5.425578 6.109943 0.510023
C 5.614950 6.662402 1.444806
C 4.899808 5.939778 1.359010
C 5.986859 5.276893 0.563241
C 6.393281 6.018170 0.600029
C 6.552591 6.705068 1.421939
C 6.132356 5.845809 1.440441
C 7.070068 5.193737 0.544712
C 7.454273 6.168990 0.499806
C 7.422930 6.601148 1.434782
C 6.968957 5.841077 1.529894
C 8.033536 5.162394 0.647077
C 8.426522 6.030592 0.550338
C 8.408380 6.554740 1.346507
C 7.928021 5.749351 1.259419
C 0.064908 7.024523 0.716746
C 0.583764 7.897154 0.659408
C 0.350092 8.312604 1.368107
C 0.018598 7.467543 1.455447
C 0.882287 6.890401 0.533513
C 1.503137 7.769901 0.591711
C 1.487457 8.436103 1.607123
C 0.897477 7.380960 1.463133
C 2.143055 6.945597 0.656991
C 2.610631 7.766541 0.748333
C 2.536790 8.443765 1.349955
C 1.932828 7.659198 1.352236
C 2.931949 7.017454 0.556252
C 3.536771 7.794733 0.763120
C 3.359316 8.399815 1.522608
C 2.933564 7.654012 1.532709
C 3.961255 7.024056 0.645335
C 4.602744 7.632060 0.667732
C 4.463642 8.206306 1.529228
C 3.916573 7.427375 1.422727
C 5.010239 7.066168 0.622693
C 5.527927 7.687460 0.641653
C 5.429110 8.345635 1.382557
C 5.019577 7.447997 1.453156
C 6.041290 7.076647 0.622500
C 6.431975 7.898837 0.546511
C 6.447907 8.491860 1.457150
C 5.912347 7.559636 1.530707
C 7.022954 6.869048 0.639135
C 7.541071 7.669407 0.593842
C 7.514368 8.384593 1.334739
C 7.013752 7.474501 1.381798
C 8.181709 6.997755 0.546308
C 8.425074 7.825264 0.688324
C 8.341487 8.369126 1.380048
C 8.147957 7.422881 1.311976
C 0.160722 0.147090 2.231386
C 0.444358 0.900218 2.333528
C 0.470115 1.334933 3.036502
C 0.050916 0.517530 3.323931
C 0.849889 0.026555 2.307403
C 1.486658 1.050051 2.257862
C 1.480196 1.508810 3.244760
C 0.967135 0.567278 2.910577
C 1.891996 0.046604 2.315192
C 2.444943 0.862592 2.280523
C 2.563875 1.396530 3.013192
C 1.865098 0.460347 3.006776
C 3.049984 0.097843 2.345236
C 3.425651 0.950737 2.231784
C 3.384061 1.390700 3.189332
C 2.910995 0.487105 3.016391
C 3.783836 0.003477 2.300004
C 4.557048 1.096417 2.226727
C 4.493607 1.457342 2.899843
C 3.884064 0.529336 3.046484
C 5.008509 0.004004 2.088365
C 5.364125 0.835136 2.159861
C 5.638327 1.440111 2.955013
C 4.975878 0.529081 2.941442
C 5.869290 0.025918 2.366637
C 6.450016 0.812689 2.286565
C 6.619082 1.417263 3.090747
C 6.022414 0.600334 3.153034
C 7.060398 0.081069 2.110448
C 7.427299 0.883641 2.229195
C 7.476590 1.485937 2.890098
C 6.999610 0.715000 3.058083
C 8.122018 0.050366 2.045596
C 8.460741 0.931821 2.332619
C 8.549756 1.554527 3.227958
C 7.996032 0.455328 3.109204
C 0.002635 1.822295 2.154767
C 0.428089 2.631867 2.281768
C 0.611250 3.109472 3.137128
C 0.182654 2.355282 3.203139
C 0.923120 1.807673 2.171021
C 1.363209 2.556185 2.294888
C 1.481936 3.131598 2.957778
C 1.199485 2.299987 3.053128
C 2.115345 1.770174 2.313355
C 2.520141 2.708519 2.343036
C 2.582298 3.028104 3.111873
C 2.113502 2.288770 3.070161
C 3.031254 1.763098 2.219094
C 3.402106 2.597141 2.249977
C 3.454031 3.079786 3.091660
C 2.950164 2.349426 3.116819
C 3.980249 1.610024 2.337973
C 4.646777 2.652211 2.309093
C 4.583404 3.165955 3.176221
C 3.921411 2.235311 2.985191
C 5.039027 1.568751 2.219364
C 5.361556 2.589874 2.184448
C 5.622400 3.026814 2.984631
C 4.797460 2.409788 3.001749
C 5.941498 1.852956 2.256155
C 6.438660 2.574873 2.304320
C 6.344771 3.173827 2.948269
C 6.093451 2.202909 3.130584
C 6.928676 1.745660 2.275634
C 7.551209 2.711959 2.384943
C 7.460821 3.044240 3.156467
C 7.094489 2.264909 3.216716
C 8.053224 1.801875 2.221570
C 8.538169 2.491000 2.264384
C 8.591438 3.149875 2.989854
C 7.848578 2.311459 3.163006
C 0.141594 3.479104 2.224577
C 0.638120 4.251667 2.125720
C 0.354482 4.885174 2.939445
C 0.100657 4.099556 3.248678
C 0.945036 3.523542 2.290653
C 1.457466 4.227789 2.343546
C 1.460293 4.879296 2.960672
C 1.073049 4.054713 3.053600
C 1.896700 3.487975 2.316432
C 2.400935 4.275484 2.204422
C 2.536614 4.922019 3.107772
C 1.990506 3.960738 3.008959
C 3.012906 3.598345 2.208037
C 3.669123 4.198472 2.270071
C 3.441368 4.796679 3.078325
C 3.000886 4.052190 3.016329
C 3.975615 3.479211 2.137822
C 4.449830 4.391498 2.311857
C 4.364651 4.905562 2.913460
C 4.118909 4.068749 3.148621
C 5.113736 3.469139 2.293257
C 5.455654 4.323680 2.196293
C 5.675340 4.902740 3.073803
C 4.947193 3.963597 3.040847
C 6.034928 3.421483 2.092788
C 6.353263 4.328983 2.279699
C 6.450887 4.851119 3.187127
C 6.033310 3.953604 3.145175
C 6.903154 3.497114 2.184752
C 7.508088 4.180097 2.311021
C 7.417507 4.899707 2.871041
C 6.845507 4.017990 3.108963
C 7.868018 3.491950 2.181242
C 8.402499 4.376037 2.141035
C 8.608378 4.974501 3.152343
C 7.991612 4.120367 3.028635
C 0.041160 5.301425 2.212539
C 0.507662 6.176916 2.314231
C 0.443744 6.667212 3.079406
C 0.032344 5.662687 3.048829
C 0.985319 5.268943 2.123848
C 1.546462 6.152501 2.412884
C 1.640672 6.578136 3.083429
C 0.899506 5.753909 3.035387
C 2.016341 5.236280 2.029812
C 2.444509 6.193331 2.348669
C 2.579512 6.695727 2.895854
C 1.916569 5.626763 3.120942
C 2.910901 5.090387 2.441888
C 3.502856 6.071961 2.182598
C 3.439892 6.678106 2.988275
C 2.975546 5.639008 2.980339
C 4.088795 5.099592 2.228272
C 4.580977 6.045615 2.189013
C 4.443991 6.573931 3.030481
C 4.165458 5.909755 3.023833
C 5.064811 5.244309 2.114860
C 5.295127 6.025857 2.320678
C 5.592471 6.672628 3.061549
C 4.901194 5.805093 3.015880
C 5.864553 5.188312 2.219002
C 6.662089 6.095155 2.255258
C 6.512704 6.571870 3.044138
C 5.877714 5.840684 3.056756
C 7.079349 5.193751 2.216051
C 7.474852 6.065123 2.085098
C 7.499339 6.590747 3.216401
C 7.036277 5.740017 2.897890
C 8.081842 5.071897 2.124084
C 8.531430 6.058958 2.164391
C 8.345171 6.580452 3.085882
C 7.959373 5.794237 2.890567
C 0.122893 6.806383 2.142518
C 0.469871 7.908294 2.424747
C 0.512382 8.351261 3.227150
C 0.107194 7.474937 3.136632
C 0.897173 6.948320 2.158422
C 1.370433 7.671921 2.236696
C 1.433831 8.534916 3.051487
C 0.988749 7.598232 3.060368
C 1.945486 6.845565 2.280093
C 2.453066 7.711681 2.110204
C 2.612698 8.450788 3.020986
C 1.955111 7.429000 2.920760
C 2.985938 6.802286 2.351951
C 3.598519 7.768822 2.063725
C 3.483154 8.505723 3.032933
C 2.946723 7.493904 3.039481
C 4.053760 7.025235 2.329863
C 4.609902 7.857764 2.227906
C 4.469074 8.223690 3.023489
C 3.967784 7.454586 2.886775
C 4.930129 6.976790 2.190137
C 5.301356 7.819873 2.198292
C 5.645943 8.402350 3.001105
C 5.066915 7.628078 2.914669
C 6.025495 6.935300 2.312756
C 6.558808 7.846475 2.439155
C 6.406577 8.340893 3.048364
C 6.128728 7.614696 3.055604
C 6.931492 6.936753 2.215315
C 7.451116 7.849464 2.197718
C 7.698572 8.330304 3.096775
C 6.822014 7.467754 3.044534
C 7.996870 6.986217 2.361840
C 8.465133 7.875925 2.165671
C 8.417369 8.269676 3.120101
C 8.152726 7.574097 3.009411
C 0.040899 0.008170 3.774861
C 0.515911 1.046681 3.942542
C 0.469323 1.445132 4.723298
C 0.055952 0.462138 4.880259
C 0.882607 0.054417 3.747461
C 1.496579 0.741617 3.823146
C 1.404750 1.547086 4.854792
C 0.880278 0.625370 4.724064
C 1.942365 0.006097 3.879736
C 2.449212 0.828177 4.058242
C 2.573451 1.430481 4.526670
C 1.976246 0.572914 4.526957
C 3.101589 0.014979 4.014817
C 3.363248 0.863255 3.857827
C 3.463404 1.393209 4.628234
C 2.876947 0.636473 4.644778
C 3.961155 0.118069 3.756493
C 4.464664 1.003093 3.904780
C 4.581490 1.309025 4.655076
C 4.035853 0.657234 4.604006
C 4.979798 0.008740 3.770973
C 5.604330 0.853670 3.849435
C 5.340962 1.528543 4.813555
C 4.962333 0.633045 4.867409
C 6.177364 0.011799 3.740637
C 6.404012 0.771192 3.892530
C 6.633790 1.460310 4.727897
C 5.963877 0.507564 4.828802
C 7.157210 0.032449 3.794621
C 7.541679 0.986341 3.760871
C 7.659813 1.563015 4.697405
C 7.116267 0.638010 4.665705
C 8.109311 0.204330 3.819462
C 8.529705 0.847205 3.831318
C 8.378865 1.346106 4.646885
C 7.964380 0.614424 4.574278
C 0.090246 1.891072 3.926562
C 0.416253 2.615493 3.896796
C 0.418398 3.171398 4.759989
C 0.101337 2.439921 4.569701
C 0.878843 1.722631 4.062265
C 1.458676 2.470494 3.723305
C 1.546980 3.051398 4.779132
C 0.983817 2.417494 4.784072
C 2.031038 1.785637 3.871271
C 2.434443 2.535840 3.999841
C 2.382335 3.273766 4.615378
C 2.026242 2.285851 4.552869
C 3.088666 1.730030 4.086754
C 3.433621 2.602504 3.964073
C 3.506651 3.276904 4.641572
C 2.949390 2.360128 4.800429
C 4.107699 1.684777 3.798173
C 4.386749 2.524004 4.003463
C 4.522314 3.105839 4.878695
C 3.945367 2.298696 4.770953
C 5.006778 1.863369 3.994512
C 5.453293 2.417032 3.820839
C 5.533602 3.090922 4.733283
C 4.933821 2.265431 4.732090
C 6.056646 1.846209 3.864671
C 6.626216 2.606794 3.854250
C 6.524199 3.341917 4.780149
C 6.118216 2.354376 4.690790
C 7.059773 1.784141 3.734809
C 7.429625 2.745038 3.957435
C 7.461487 3.211350 4.686428
C 7.050806 2.363192 4.648491
C 7.951923 1.764919 3.744914
C 8.455332 2.538995 3.889551
C 8.465709 3.075023 4.720005
C 8.029436 2.418541 4.646262
C 0.064287 3.460368 4.039385
C 0.569422 4.468404 3.912873
C 0.659971 4.944354 4.660168
C 0.122442 4.106105 4.614153
C 0.932241 3.569568 3.843634
C 1.507790 4.449370 3.878624
C 1.321234 4.885891 4.711758
C 1.071442 3.912611 4.728911
C 2.169915 3.562501 3.867649
C 2.476632 4.409527 3.774744
C 2.575710 4.898860 4.637461
C 1.939150 3.908662 4.819845
C 2.968483 3.455255 3.817253
C 3.442279 4.228340 3.861108
C 3.504410 4.887561 4.722144
C 3.094008 4.014022 4.678292
C 3.907010 3.436787 3.673032
C 4.449931 4.437577 3.782852
C 4.527736 4.965578 4.780130
C 4.105040 4.109075 4.775507
C 5.054400 3.547963 3.998330
C 5.620873 4.285707 3.881798
C 5.452812 5.017981 4.594161
C 5.007191 4.047003 4.556318
C 5.982837 3.384543 3.953028
C 6.494503 4.200359 3.917513
C 6.382434 4.861064 4.478379
C 6.083107 4.061692 4.857613
C 6.910095 3.488655 3.823164
C 7.404775 4.282094 3.946580
C 7.428230 4.960388 4.747965
C 7.125795 4.029651 4.729603
C 8.052711 3.590487 3.796836
C 8.604030 4.211325 4.051984
C 8.540398 4.868282 4.806132
C 7.976245 4.112100 4.774553
C 0.060948 5.089064 3.927763
C 0.543344 6.008458 3.978366
C 0.522453 6.833697 4.571829
C 0.020016 5.745222 4.793426
C 0.855184 5.068279 3.817973
C 1.477471 6.215056 3.814366
C 1.539715 6.622128 4.749017
C 1.031341 5.930682 4.521457
C 1.861372 5.150048 3.893727
C 2.372776 6.158293 3.889219
C 2.568269 6.721570 4.784336
C 1.973325 5.757391 4.889352
C 3.038633 5.209945 3.891040
C 3.423887 6.099343 4.000592
C 3.458735 6.522390 4.644612
C 2.978765 5.648690 4.643002
C 3.923015 5.191812 3.761357
C 4.507564 6.004579 3.976635
C 4.348936 6.556620 4.739186
C 4.077718 5.666051 4.692148
C 5.143037 5.202584 3.902138
C 5.552922 5.999457 3.804835
C 5.397174 6.550081 4.696206
C 5.093814 5.823974 4.648791
C 6.017395 5.353309 3.816540
C 6.665128 5.995940 3.825896
C 6.464974 6.764376 4.638151
C 5.966121 5.682243 4.517900
C 7.014100 5.259335 4.031514
C 7.536451 5.973556 3.987963
C 7.418278 6.651700 4.643203
C 6.920327 5.644896 4.583012
C 8.018735 5.240666 3.804101
C 8.423264 6.175468 3.967980
C 8.441891 6.746427 4.778769
C 8.098287 5.840295 4.602594
C 0.037841 6.989332 3.938844
C 0.638514 7.794533 3.804643
C 0.442414 8.298814 4.852871
C 0.018917 7.515956 4.630344
C 0.863913 6.842573 3.842984
C 1.624383 7.884909 3.851520
C 1.404607 8.291128 4.655497
C 1.070739 7.549828 4.674347
C 1.920695 6.965954 3.789209
C 2.483096 7.859918 3.789776
C 2.450230 8.236877 4.868616
C 1.958310 7.477936 4.634286
C 3.083838 6.817812 3.803847
C 3.475386 7.965446 3.813860
C 3.633403 8.300497 4.763928
C 3.062197 7.624834 4.652129
C 4.068284 6.907948 3.760180
C 4.627262 7.731626 3.830867
C 4.434357 8.407974 4.709951
C 3.860248 7.525049 4.675952
C 4.869682 6.875968 3.826261
C 5.467584 7.937472 3.894835
C 5.416530 8.384342 4.730385
C 4.993288 7.619070 4.854443
C 6.014149 6.859129 3.991513
C 6.423002 7.762495 3.847510
C 6.562858 8.398017 4.789522
C 5.916982 7.383105 4.606027
C 6.835318 6.907966 3.919522
C 7.552356 7.835092 4.074137
C 7.579013 8.320823 4.657900
C 6.982337 7.433859 4.846676
C 7.907839 7.054186 3.875454
C 8.562852 7.683485 3.773616
C 8.445334 8.359310 4.561296
C 7.955359 7.351585 4.653131
C 0.023338 0.222552 5.530407
C 0.533479 0.970082 5.496607
C 0.494372 1.569895 6.272619
C 0.010566 0.536062 6.157773
C 1.186415 0.160001 5.439849
C 1.657370 0.801121 5.463716
C 1.590243 1.558448 6.373595
C 1.065610 0.488892 6.302782
C 2.059114 0.116768 5.571116
C 2.453213 0.817049 5.567082
C 2.594049 1.508005 6.268507
C 1.992637 0.763538 6.278118
C 3.104120 0.017398 5.527257
C 3.549409 1.030323 5.561447
C 3.479749 1.469932 6.389750
C 2.951942 0.568995 6.284903
C 3.961514 0.042345 5.347635
C 4.586551 0.979386 5.666989
C 4.460705 1.445606 6.328348
C 3.904793 0.613010 6.265016
C 4.955987 0.099071 5.496060
C 5.689106 0.951817 5.475528
C 5.516330 1.610588 6.336144
C 5.043858 0.719065 6.257261
C 5.826259 0.023195 5.451818
C 6.380096 0.880669 5.564877
C 6.497251 1.294648 6.224539
C 6.050461 0.564989 6.330750
C 7.119147 0.020823 5.539286
C 7.460802 1.002541 5.583242
C 7.415419 1.345649 6.317324
C 6.920226 0.448249 6.355322
C 7.908527 0.081305 5.558639
C 8.593138 0.800517 5.475729
C 8.590619 1.507530 6.382098
C 8.160600 0.621641 6.465642
C 0.033251 1.611870 5.507447
C 0.656302 2.620447 5.490104
C 0.425337 3.207773 6.269231
C 0.053409 2.308972 6.269336
C 1.117613 1.680237 5.556753
C 1.544856 2.716564 5.576439
C 1.544225 3.242846 6.150112
C 0.978308 2.216433 6.258073
C 1.934936 1.727474 5.398566
C 2.452629 2.618599 5.632926
C 2.577207 3.201043 6.405325
C 1.909257 2.245493 6.340980
C 3.051793 1.664732 5.670602
C 3.515549 2.806503 5.451686
C 3.443753 3.037286 6.328835
C 3.137933 2.364130 6.217456
C 3.938266 1.656632 5.512201
C 4.597011 2.738124 5.556852
C 4.531064 3.267010 6.361286
C 3.825404 2.320371 6.384191
C 4.863554 1.781618 5.492257
C 5.415874 2.562785 5.674929
C 5.501979 3.096201 6.440480
C 4.915232 2.306834 6.246530
C 5.932195 1.593242 5.352273
C 6.342386 2.546149 5.450279
C 6.358656 3.097521 6.260356
C 5.908623 2.232288 6.279995
C 7.121411 1.753910 5.436467
C 7.558030 2.514013 5.564777
C 7.493012 3.115173 6.338745
C 6.949312 2.246715 6.505714
C 7.841553 1.648874 5.556091
C 8.655054 2.685062 5.436896
C 8.399711 3.207141 6.484326
C 7.855522 2.337759 6.481943
C 0.122224 3.508265 5.612227
C 0.662859 4.330102 5.579144
C 0.525889 4.736446 6.334086
C 0.038507 4.103255 6.221241
C 0.957562 3.561060 5.547050
C 1.527563 4.231744 5.468010
C 1.434400 5.002068 6.152489
C 0.907349 4.088461 6.412267
C 1.873241 3.551463 5.581992
C 2.656238 4.288435 5.539164
C 2.563255 5.052704 6.256875
C 1.943211 3.981064 6.338551
C 3.047060 3.325468 5.465002
C 3.407460 4.230576 5.541649
C 3.469574 5.005003 6.298561
C 3.014720 4.019461 6.354622
C 3.937637 3.408658 5.517985
C 4.667089 4.256819 5.424540
C 4.449698 5.002849 6.297115
C 4.087860 4.148530 6.425635
C 4.861854 3.435045 5.424668
C 5.395773 4.189792 5.481304
C 5.534949 5.031277 6.214573
C 4.917680 4.000314 6.465946
C 5.946026 3.667877 5.547010
C 6.484104 4.458152 5.526304
C 6.633414 4.869200 6.348477
C 6.103756 4.117230 6.279912
C 6.963821 3.389741 5.634809
C 7.472470 4.401179 5.401563
C 7.422508 4.949653 6.449148
C 6.864144 3.851430 6.306970
C 8.070439 3.546874 5.567714
C 8.614606 4.403769 5.541824
C 8.369904 4.930892 6.426557
C 7.995261 3.987681 6.416503
C 0.021675 5.338052 5.507682
C 0.421416 6.071761 5.607862
C 0.331614 6.692114 6.255986
C 0.039162 5.938979 6.271904
C 1.039454 5.269186 5.497115
C 1.668419 6.171358 5.525764
C 1.538720 6.574369 6.316037
C 0.832909 5.710654 6.348884
C 2.065421 5.032373 5.521201
C 2.519136 6.141214 5.675862
C 2.629164 6.583754 6.281069
C 2.020669 5.797928 6.498448
C 3.080085 5.295146 5.476404
C 3.337597 6.202329 5.487009
C 3.587320 6.500886 6.391007
C 3.084400 5.869180 6.412570
C 4.158762 5.117403 5.448351
C 4.568367 5.927884 5.433874
C 4.515501 6.561243 6.435883
C 4.073051 5.838048 6.277178
C 4.961025 5.308620 5.547520
C 5.631659 6.178471 5.484392
C 5.441624 6.720948 6.336326
C 5.075550 5.623857 6.335720
C 6.050895 5.183772 5.443938
C 6.593195 5.956027 5.608413
C 6.552340 6.527636 6.336609
C 5.809966 5.719674 6.426690
C 6.956995 5.242691 5.702959
C 7.475244 6.001094 5.615460
C 7.366557 6.657948 6.441513
C 6.967960 5.886216 6.250726
C 7.900312 5.154087 5.523078
C 8.486192 6.064310 5.533426
C 8.442229 6.496994 6.316401
C 8.124611 5.857651 6.219717
C 0.039640 7.074097 5.520770
C 0.583962 7.944631 5.632015
C 0.590128 8.305974 6.248611
C 0.025791 7.546810 6.392990
C 0.992957 6.903857 5.589454
C 1.435872 7.874045 5.662269
C 1.644180 8.489951 6.433320
C 1.043510 7.353387 6.403363
C 2.018067 7.017195 5.662009
C 2.608689 7.753673 5.416508
C 2.605988 8.293567 6.327781
C 1.913606 7.482982 6.243325
C 2.843714 6.884265 5.364311
C 3.303860 7.773808 5.487871
C 3.578541 8.251122 6.218724
C 2.955754 7.392457 6.373512
C 3.996713 6.983733 5.359141
C 4.563746 7.789925 5.415704
C 4.479870 8.439042 6.464840
C 4.015862 7.534600 6.277255
C 4.962223 6.950243 5.493420
C 5.469554 7.688574 5.663558
C 5.411995 8.380326 6.391834
C 5.015905 7.434517 6.459131
C 6.080795 6.923651 5.342902
C 6.509902 7.816511 5.497541
C 6.564777 8.295163 6.334030
C 5.900990 7.489849 6.436325
C 7.014317 7.006050 5.441142
C 7.369675 7.727012 5.358492
C 7.509919 8.369066 6.381048
C 7.113860 7.509898 6.440487
C 7.966648 7.022316 5.605425
C 8.446308 7.669578 5.548031
C 8.626812 8.360170 6.281959
C 7.865214 7.521587 6.246309
C 0.113198 0.147830 7.217219
C 0.468515 0.702924 7.177735
C 0.412490 1.538829 7.923029
C 0.022402 0.543348 8.120450
C 1.050927 0.011733 7.249132
C 1.537055 0.874860 6.994112
C 1.575171 1.588792 7.849412
C 1.019816 0.623737 7.981743
C 2.118851 0.062541 7.193111
C 2.548267 0.783084 7.163265
C 2.565756 1.566085 7.923074
C 1.963410 0.650284 7.858472
C 2.966802 0.099930 7.084613
C 3.680554 0.949570 7.173872
C 3.497178 1.335118 7.761949
C 2.982911 0.657521 8.111268
C 4.006493 0.068724 7.004577
C 4.632680 0.943001 7.064417
C 4.424888 1.445109 8.037293
C 4.081969 0.460648 7.874661
C 4.985587 0.071913 7.199851
C 5.413918 1.056319 7.147162
C 5.418216 1.393021 7.834739
C 4.978511 0.484392 8.102854
C 6.145714 0.090686 7.144320
C 6.558156 0.911209 7.184726
C 6.358043 1.505625 7.923941
C 5.890543 0.470151 8.080822
C 7.111434 0.159171 7.062603
C 7.571342 0.907090 7.053945
C 7.522024 1.509837 7.859725
C 6.943047 0.528016 7.914532
C 7.993006 0.037377 7.132108
C 8.598951 0.925948 7.170879
C 8.423567 1.536717 7.871976
C 7.984606 0.700753 7.972971
C 0.159184 1.762135 7.226204
C 0.511959 2.469630 7.020634
C 0.460490 3.184673 8.026231
C 0.022782 2.358832 7.926647
C 0.977688 1.818745 7.075120
C 1.397234 2.719334 7.132241
C 1.354388 3.184783 7.903550
C 1.059128 2.512743 7.909363
C 1.868623 1.686242 7.123926
C 2.503904 2.697798 7.302258
C 2.393031 3.046300 8.022498
C 1.921121 2.355070 8.001276
C 3.016091 1.778375 7.043145
C 3.577153 2.423259 7.051994
C 3.571798 3.159096 7.925123
C 3.173187 2.232538 7.985689
C 3.979344 1.810763 7.206115
C 4.511517 2.721497 7.172662
C 4.438000 3.194193 8.057943
C 3.929504 2.295057 7.876672
C 5.028122 1.636217 7.150343
C 5.450941 2.650574 7.211737
C 5.413834 3.189502 7.868189
C 4.857166 2.285272 7.886721
C 5.816930 1.639896 7.032867
C 6.603652 2.558419 7.092745
C 6.356279 3.174185 7.858616
C 5.844431 2.311816 7.965521
C 7.157415 1.735096 7.093018
C 7.495192 2.699404 7.105577
C 7.421483 3.298289 7.870975
C 6.999457 2.487365 7.965164
C 7.873624 1.859053 7.221417
C 8.494643 2.578042 7.175570
C 8.394255 3.253096 7.935938
C 8.098356 2.400581 8.057139
C 0.083468 3.237518 7.142674
C 0.586078 4.297405 7.163841
C 0.561074 4.830640 8.044491
C 0.124731 4.154486 7.931569
C 0.984934 3.462770 7.048256
C 1.567873 4.361805 6.975202
C 1.427457 4.775677 7.961823
C 1.081768 3.991807 7.886343
C 2.086837 3.361791 7.136253
C 2.505781 4.329160 6.985028
C 2.536225 4.836626 8.103216
C 1.907506 4.043967 7.814398
C 3.111192 3.534579 7.158341
C 3.508287 4.511160 7.150133
C 3.492832 4.964653 8.123823
C 2.932558 4.091038 7.853902
C 3.973489 3.549868 7.154223
C 4.644572 4.288287 7.125497
C 4.540186 5.090044 8.086796
C 4.056531 4.184865 7.939532
C 4.950160 3.601600 7.067884
C 5.380866 4.295299 7.141744
C 5.473597 4.821164 8.026323
C 4.943260 3.981146 7.849975
C 6.155563 3.370088 7.041503
C 6.640806 4.255095 7.244695
C 6.574678 4.985735 8.174069
C 6.048320 4.186676 7.910852
C 6.961640 3.494115 7.209316
C 7.377577 4.386674 7.193039
C 7.395045 5.072332 8.043562
C 6.902912 3.893009 7.975600
C 7.984597 3.401063 7.174767
C 8.470865 4.466345 7.146514
C 8.425303 4.790049 7.796020
C 7.942145 4.089107 7.986575
C 0.041566 5.021671 7.125081
C 0.485753 6.101658 7.138069
C 0.553314 6.637015 8.083404
C 0.011106 5.827136 7.878709
C 0.942736 5.263943 7.237648
C 1.428415 6.108415 7.236084
C 1.415850 6.718386 8.014963
C 1.155141 5.820333 7.967570
C 2.180361 5.254943 7.195174
C 2.583845 5.941708 7.073671
C 2.572572 6.614362 8.011246
C 1.986620 5.879791 7.957862
C 2.926919 5.127309 7.270722
C 3.550322 6.034095 7.127520
C 3.518148 6.477617 8.008242
C 2.983759 5.674948 7.906387
C 3.988661 5.220506 7.253693
C 4.557089 6.051242 7.147007
C 4.696606 6.623446 7.968579
C 4.065209 5.684709 7.884677
C 5.019461 5.126471 7.100033
C 5.498321 5.985157 7.220996
C 5.568390 6.744023 8.053381
C 5.071400 5.716169 7.967946
C 5.920124 5.197220 7.084857
C 6.551654 5.928204 7.123794
C 6.620630 6.555603 7.918225
C 6.066843 5.865962 7.963457
C 6.944006 5.376680 7.144995
C 7.553497 5.981444 7.190882
C 7.397230 6.559254 7.821736
C 7.110599 5.890166 7.982830
C 8.024661 5.188347 7.107651
C 8.567214 5.894844 7.028196
C 8.505720 6.764113 7.897866
C 7.965404 5.850713 7.990872
C 0.031809 6.909780 7.150364
C 0.470691 7.872922 7.178417
C 0.567098 8.476549 7.912554
C 0.121199 7.510666 8.020931
C 0.971974 6.833169 7.180501
C 1.597251 7.817129 7.253803
C 1.478044 8.550646 8.009417
C 1.074034 7.641294 8.044700
C 1.896312 6.929948 7.311283
C 2.481730 7.881131 7.227822
C 2.673376 8.491358 7.836013
C 1.968896 7.361297 7.905697
C 2.987914 6.828096 6.999820
C 3.371348 7.783987 7.002870
C 3.636742 8.265058 7.906545
C 2.868859 7.554474 7.994804
C 3.991212 6.884216 7.296978
C 4.518087 7.859735 7.306133
C 4.501409 8.414432 7.900221
C 3.971916 7.499514 8.112064
C 5.030622 6.822500 7.226862
C 5.391267 7.658220 7.182450
C 5.397963 8.209942 7.926205
C 4.853461 7.388098 7.885103
C 6.028953 6.856307 7.281852
C 6.467376 7.793916 7.054030
C 6.563851 8.441172 7.889922
C 5.889444 7.497928 7.943541
C 6.940071 7.078456 7.272784
C 7.359774 7.872778 7.269249
C 7.686767 8.369103 8.004837
C 7.154018 7.485329 7.865714
C 7.921423 6.865618 6.980431
C 8.403548 7.853829 7.228616
C 8.582043 8.340325 7.893189
C 7.892201 7.622165 8.046626
C 0.015678 0.141422 8.661202
C 0.546814 0.751733 8.794019
C 0.645297 1.350531 9.561131
C 0.177421 0.452132 9.593356
C 0.934278 0.117389 8.550420
C 1.495026 1.020281 8.693321
C 1.362511 1.436892 9.468719
C 0.883551 0.452831 9.557885
C 1.922774 0.085884 8.954082
C 2.589369 0.748658 8.860241
C 2.512195 1.456604 9.478333
C 1.879543 0.692963 9.571622
C 3.091722 0.029560 8.880516
C 3.500347 0.726895 8.844835
C 3.512750 1.331164 9.576244
C 3.033744 0.538564 9.415183
C 4.132336 0.079070 8.833935
C 4.538665 0.757303 8.702569
C 4.544948 1.500262 9.334978
C 4.119661 0.789504 9.564031
C 4.933372 0.008777 9.017581
C 5.530893 0.746311 8.774678
C 5.512864 1.293205 9.559661
C 4.904338 0.534145 9.436436
C 5.982000 0.016276 8.710774
C 6.516006 0.921625 8.823348
C 6.582493 1.290910 9.547857
C 6.102405 0.831641 9.518223
C 6.791334 0.043912 8.848789
C 7.533619 1.033917 8.918988
C 7.584439 1.333674 9.516037
C 6.878111 0.628254 9.449972
C 7.914806 0.074567 8.725811
C 8.495545 0.725162 8.770674
C 8.642368 1.453758 9.483566
C 8.083985 0.323092 9.574238
C 0.127530 1.677689 8.894627
C 0.353504 2.621710 8.839914
C 0.473391 3.282819 9.389515
C 0.018871 2.320366 9.420121
C 1.070449 1.883134 8.913425
C 1.460905 2.517716 8.753508
C 1.616908 3.116424 9.562669
C 1.107438 2.137962 9.570601
C 1.900877 1.906712 8.923742
C 2.589116 2.582930 8.864087
C 2.610899 3.173893 9.566994
C 2.043010 2.485391 9.573709
C 3.042664 1.769095 8.895108
C 3.624281 2.676875 8.837698
C 3.614055 3.071524 9.520727
C 2.993642 2.460335 9.539101
C 4.111195 1.653374 8.745909
C 4.511143 2.588017 8.764844
C 4.428459 3.339287 9.542979
C 3.967877 2.426750 9.472505
C 4.889618 1.656402 8.791093
C 5.498795 2.778950 8.784068
C 5.647497 3.125312 9.532680
C 4.977949 2.267516 9.553869
C 6.061621 1.689812 8.673684
C 6.506983 2.659180 8.732563
C 6.411263 3.184558 9.593451
C 6.025546 2.133710 9.557749
C 7.140472 1.778731 8.669138
C 7.482028 2.650884 8.887631
C 7.371844 3.084059 9.537826
C 6.897016 2.237899 9.578958
C 8.169918 1.572452 8.792969
C 8.620899 2.647248 8.797843
C 8.314015 3.250549 9.517023
C 7.915694 2.392204 9.527948
C 0.059806 3.529415 8.727018
C 0.508658 4.287593 8.944192
C 0.385697 4.900254 9.526960
C 0.044237 4.105872 9.566933
C 1.047868 3.411388 8.861903
C 1.695008 4.298389 8.735298
C 1.549880 4.983422 9.487413
C 0.915088 3.977834 9.455980
C 1.901749 3.569048 8.752715
C 2.455197 4.310520 8.799585
C 2.471292 4.978254 9.501682
C 1.919754 3.898205 9.508913
C 2.917651 3.352139 8.790477
C 3.531879 4.529803 8.707754
C 3.514765 5.009671 9.560583
C 2.824425 4.098899 9.452838
C 4.099668 3.499290 8.862114
C 4.523032 4.472974 8.678454
C 4.647639 4.968091 9.555161
C 4.212329 4.040276 9.548681
C 5.068876 3.354262 8.778043
C 5.488379 4.305943 8.564393
C 5.423560 4.933137 9.553132
C 5.236198 4.198656 9.544051
C 5.901228 3.380590 8.704920
C 6.368046 4.308364 8.710812
C 6.375491 5.011779 9.555701
C 6.122020 4.045467 9.476331
C 7.124638 3.480492 8.743820
C 7.608183 4.259140 8.773480
C 7.530138 4.672120 9.512917
C 6.967579 4.056864 9.394971
C 8.043443 3.430559 8.897263
C 8.417873 4.223951 8.737940
C 8.534933 4.956014 9.588640
C 7.848336 4.038962 9.552069
C 0.099282 5.191425 8.929070
C 0.416427 6.026588 8.616835
C 0.544610 6.517158 9.433496
C 0.024613 5.662314 9.368037
C 1.018053 5.159036 8.585907
C 1.599318 6.131069 8.920196
C 1.580882 6.696779 9.489288
C 1.025675 5.860965 9.464418
C 2.033243 5.151270 8.832122
C 2.536109 5.919513 8.875357
C 2.453538 6.479628 9.533225
C 2.187348 5.780000 9.559560
C 2.948469 5.239434 8.817854
C 3.570690 5.944056 8.816077
C 3.530084 6.619917 9.542885
C 2.789294 5.703485 9.518893
C 4.006201 5.043670 8.634678
C 4.463098 6.173908 8.656156
C 4.424049 6.491559 9.544810
C 3.868711 5.817713 9.541442
C 5.046857 5.110758 8.757795
C 5.388849 6.117349 8.609109
C 5.608317 6.605887 9.403047
C 4.908082 5.850216 9.534025
C 5.993127 5.096418 8.889136
C 6.429859 6.102063 8.850245
C 6.361396 6.842911 9.418162
C 6.115051 5.726609 9.498219
C 6.932512 5.301806 8.766346
C 7.617050 6.033327 8.809511
C 7.656055 6.667000 9.584054
C 6.917809 5.678417 9.454560
C 7.880954 5.221259 8.648525
C 8.448063 5.960902 8.720849
C 8.606458 6.610039 9.519904
C 7.959684 5.957952 9.507920
C 0.061376 6.883968 8.628803
C 0.551077 7.826567 8.866990
C 0.422653 8.330763 9.567323
C 0.060469 7.740625 9.482206
C 0.840548 6.874682 8.828580
C 1.437865 7.877340 8.815324
C 1.559484 8.427298 9.548870
C 1.067893 7.376954 9.519313
C 1.873715 6.926035 8.927252
C 2.589403 7.891889 8.898641
C 2.658497 8.525678 9.574243
C 1.903770 7.529944 9.427940
C 2.997181 6.938669 8.754184
C 3.662954 7.931894 8.821811
C 3.420275 8.380474 9.434465
C 3.018493 7.533950 9.456018
C 3.844968 6.969948 8.727548
C 4.496736 7.940612 8.683664
C 4.363641 8.380649 9.589782
C 4.104674 7.387194 9.582702
C 4.827010 6.904798 8.739532
C 5.550978 7.644602 8.778380
C 5.479796 8.262112 9.506481
C 5.063463 7.491490 9.369228
C 6.161711 6.925820 8.686823
C 6.465273 7.654421 8.764642
C 6.541645 8.180208 9.526094
C 6.063070 7.636403 9.573096
C 7.124559 6.881795 8.763818
C 7.384560 7.791820 8.660378
C 7.409152 8.355472 9.584272
C 7.201570 7.529112 9.414901
C 7.949972 6.884229 8.669538
C 8.583919 7.808507 8.801960
C 8.499824 8.306162 9.563913
C 8.080462 7.487733 9.587160
2160
Frame 8/10
C 0.003001 0.070622 0.223663
C 0.605641 1.002237 0.033749
C 0.550989 1.427968 0.770604
C 0.032521 0.555483 0.682424
C 0.712045 0.246764 0.082289
C 1.482447 1.020380 0.159451
C 1.520267 1.521597 0.728294
C 0.948611 0.408646 0.768474
C 2.202148 0.017514 0.135082
C 2.482918 1.010295 0.235207
C 2.315565 1.372982 0.900940
C 2.113864 0.697533 0.803389
C 2.788268 0.003743 0.128587
C 3.513510 0.883977 0.136115
C 3.479836 1.487816 0.712644
C 2.955100 0.583421 0.831326
C 4.158957 0.151049 0.020438
C 4.474626 0.857754 0.054848
C 4.508546 1.299084 0.679393
C 3.902136 0.631420 0.987411
C 5.233365 0.155551 0.022086
C 5.471364 0.663970 0.103112
C 5.285199 1.188610 0.784936
C 4.943529 0.442305 0.922940
C 5.768655 0.110486 0.169107
C 6.657233 0.787242 0.019638
C 6.378678 1.455089 0.699351
C 5.989024 0.643676 0.951840
C 7.198864 0.030960 0.093987
C 7.599061 0.798792 0.148647
C 7.353880 1.477433 0.795201
C 6.849037 0.555177 0.665700
C 8.173932 0.010407 0.054900
C 8.456300 0.924341 0.023222
C 8.323352 1.474674 0.754902
C 8.073604 0.789880 0.886796
C 0.003902 1.618068 0.250687
C 0.621897 2.522320 0.070879
C 0.339835 3.159823 0.637205
C 0.128934 2.303468 0.703030
C 1.144407 1.874162 0.110536
C 1.695260 2.683318 0.188096
C 1.474870 3.108862 0.848463
C 1.076274 2.179143 1.008460
C 2.089774 1.831211 0.005453
C 2.569767 2.703492 0.041491
C 2.504208 3.220689 0.880965
C 1.831266 2.326101 0.899206
C 2.930656 1.650065 0.012646
C 3.591568 2.834418 0.100418
C 3.578410 3.136965 0.622427
C 3.149155 2.398562 1.004695
C 3.911324 1.676572 0.165276
C 4.383099 2.608249 0.094082
C 4.660706 3.031349 0.738375
C 3.953709 2.395672 0.784896
C 4.936957 1.443274 0.084802
C 5.571505 2.596567 0.014734
C 5.599748 3.190238 0.995932
C 4.988083 2.296767 0.735983
C 5.956177 1.643357 0.072728
C 6.509461 2.580635 0.149285
C 6.519625 3.050439 0.891261
C 6.242918 2.334664 0.800474
C 7.103853 1.916990 0.024668
C 7.301830 2.503643 0.033675
C 7.417020 3.148021 0.837218
C 7.057883 2.193509 0.744476
C 8.103364 1.900653 0.099756
C 8.273537 2.464993 0.073376
C 8.478188 3.172940 0.939932
C 7.751189 2.286439 0.915478
C 0.046923 3.277394 0.030740
C 0.551921 4.283238 0.139284
C 0.363697 4.936005 0.846455
C 0.014925 3.941925 1.025160
C 0.880389 3.443419 0.224664
C 1.334314 4.300902 0.011803
C 1.597875 4.803185 0.765496
C 0.924906 3.997706 0.700281
C 2.075293 3.627297 0.090437
C 2.374860 4.223662 0.045389
C 2.478372 4.787971 0.922212
C 2.097640 4.140292 0.960047
C 2.809544 3.573892 0.122655
C 3.377643 4.259375 0.019171
C 3.664311 4.966298 0.757242
C 3.006877 4.120680 0.759213
C 3.801431 3.374751 0.189938
C 4.632427 4.295645 0.055510
C 4.377207 4.849640 0.696247
C 4.199891 4.013647 0.756403
C 5.066404 3.533512 0.014512
C 5.356784 4.359854 0.120464
C 5.610329 4.871254 0.679431
C 4.781473 4.215230 0.893826
C 6.063353 3.370311 0.066036
C 6.703697 4.328044 0.007189
C 6.405656 4.919984 0.675029
C 6.027178 3.873921 0.941656
C 7.073678 3.323427 0.119179
C 7.461959 4.210711 0.052834
C 7.426891 4.933551 0.797253
C 6.910291 3.858457 0.812917
C 7.934073 3.361969 0.064952
C 8.478816 4.394565 0.137007
C 8.619296 4.988538 0.904013
C 7.911011 4.187240 0.719096
C 0.088225 5.064320 0.097365
C 0.479789 5.814512 0.082832
C 0.435961 6.823957 0.784507
C 0.041651 5.629074 0.921496
C 1.118080 5.076681 0.076364
C 1.465458 5.970705 0.060967
C 1.603625 6.764968 0.778434
C 0.890001 5.701247 0.778146
C 1.931486 5.339213 0.017948
C 2.599045 6.300765 0.008619
C 2.550088 6.703197 0.754650
C 1.989596 5.846780 0.873703
C 3.093017 5.007388 0.047223
C 3.428813 6.014194 0.126358
C 3.453656 6.754120 0.585852
C 2.924812 5.857231 0.773233
C 3.901535 5.015887 0.114629
C 4.286907 6.107751 0.018412
C 4.492679 6.698047 0.741135
C 4.106942 5.688819 0.942973
C 5.179562 5.259219 0.056049
C 5.689839 6.002370 0.207140
C 5.565533 6.686472 0.861362
C 4.960598 5.856653 0.630321
C 6.033346 5.342995 0.080148
C 6.622944 6.179435 0.128662
C 6.422917 6.871731 0.797727
C 6.030290 5.747200 0.956529
C 7.020005 5.214869 0.032648
C 7.368223 6.094653 0.018344
C 7.321905 6.601185 0.829771
C 6.922877 5.663158 0.915075
C 8.095241 5.402503 0.148157
C 8.517179 6.138909 0.033240
C 8.468160 6.533924 0.704875
C 8.063255 5.850109 0.791057
C 0.093560 6.714638 0.008841
C 0.426969 7.762051 0.134957
C 0.562538 8.412923 0.695957
C 0.145769 7.511888 0.579838
C 1.189887 6.981906 0.062117
C 1.539669 7.871810 0.155330
C 1.598360 8.261915 0.710096
C 1.087950 7.582903 0.702651
C 1.978182 6.877743 0.074382
C 2.688419 7.901573 0.080359
C 2.287671 8.502455 0.739340
C 1.875419 7.526104 0.710765
C 3.061474 7.000470 0.137970
C 3.412877 7.859798 0.013200
C 3.335394 8.479214 0.728225
C 2.915480 7.478246 0.592120
C 4.045208 7.090572 0.077818
C 4.442296 7.853243 0.136353
C 4.477756 8.435548 0.784943
C 4.041992 7.509598 1.038782
C 5.023846 7.095402 0.028938
C 5.685691 7.906812 0.109849
C 5.560523 8.353415 0.743256
C 5.110849 7.457991 0.847704
C 6.004516 7.022006 0.094200
C 6.395916 7.939257 0.110628
C 6.578864 8.289353 0.680735
C 6.051423 7.591421 0.720570
C 6.895711 6.790646 0.042154
C 7.687751 7.975545 0.095059
C 7.270918 8.401666 0.691483
C 6.915377 7.430458 0.913835
C 7.913395 7.146337 0.014678
C 8.496074 7.638074 0.148416
C 8.650858 8.324271 0.925140
C 7.894613 7.365580 0.952879
C 0.022194 0.066868 1.835617
C 0.355613 0.956297 1.481573
C 0.525017 1.303073 2.272313
C 0.083722 0.561816 2.365562
C 0.929278 0.108633 1.488674
C 1.381162 0.737299 1.467994
C 1.599597 1.476222 2.570416
C 1.150278 0.683595 2.258059
C 2.021523 0.025509 1.636006
C 2.382680 0.838618 1.803975
C 2.543979 1.318222 2.417023
C 1.922282 0.738013 2.572378
C 3.034227 0.106955 1.782996
C 3.529867 0.958152 1.745437
C 3.500719 1.548330 2.432995
C 3.163176 0.680505 2.509211
C 3.962672 0.134286 1.734768
C 4.523590 0.865134 1.777686
C 4.449308 1.533111 2.394913
C 4.200017 0.559408 2.391182
C 5.021752 0.128984 1.599760
C 5.437032 0.832671 1.658419
C 5.386244 1.478465 2.438796
C 4.829054 0.586189 2.536465
C 6.044351 0.010639 1.460756
C 6.419520 0.876050 1.543194
C 6.462795 1.277516 2.392903
C 5.990480 0.455037 2.465986
C 6.874568 0.046084 1.507026
C 7.411998 0.993801 1.496030
C 7.296987 1.406047 2.506324
C 7.071303 0.528382 2.445724
C 8.139810 0.129763 1.426004
C 8.502869 0.975404 1.812461
C 8.530607 1.536979 2.338097
C 7.911459 0.443467 2.408917
C 0.060713 1.899264 1.689181
C 0.529684 2.778175 1.466495
C 0.546380 3.150074 2.337439
C 0.022434 2.223183 2.338951
C 1.073406 1.923791 1.648771
C 1.543576 2.616755 1.800194
C 1.464886 3.072188 2.521472
C 0.882809 2.231328 2.381319
C 2.153356 1.629751 1.684199
C 2.398426 2.527961 1.558765
C 2.477298 3.118012 2.606086
C 1.885594 2.432690 2.458665
C 2.987226 1.707580 1.648973
C 3.671803 2.468279 1.654957
C 3.604890 3.199585 2.401622
C 3.113139 2.404691 2.595805
C 4.006970 1.756201 1.442685
C 4.396439 2.660206 1.491124
C 4.629459 3.108036 2.357456
C 3.929529 2.392373 2.582936
C 5.204246 1.637729 1.651713
C 5.509830 2.516927 1.427634
C 5.459822 3.000554 2.445060
C 5.039351 2.275446 2.267161
C 5.930895 1.890314 1.640164
C 6.389123 2.834818 1.624685
C 6.691315 3.100931 2.342783
C 6.135005 2.274949 2.347366
C 7.167716 1.546102 1.738953
C 7.391734 2.574784 1.712919
C 7.493236 3.155875 2.361040
C 6.998856 2.391565 2.306901
C 8.014376 1.709999 1.481767
C 8.539544 2.589638 1.610879
C 8.336102 3.102932 2.414001
C 7.861706 2.186349 2.368011
C 0.115463 3.595639 1.598713
C 0.422937 4.400914 1.866072
C 0.351292 4.869651 2.287676
C 0.032868 4.057656 2.644974
C 0.900470 3.545948 1.624122
C 1.592430 4.243695 1.407719
C 1.580276 4.816317 2.553510
C 1.195804 3.883716 2.424888
C 2.107894 3.465027 1.626448
C 2.588623 4.492431 1.501493
C 2.433792 4.977478 2.595252
C 2.005647 4.235100 2.377811
C 3.007618 3.470529 1.659058
C 3.569362 4.558386 1.739580
C 3.455700 5.028594 2.419211
C 2.904833 4.086155 2.598729
C 4.013003 3.400310 1.508557
C 4.481663 4.363489 1.659676
C 4.511847 4.954428 2.312449
C 3.876977 3.965397 2.559605
C 4.976582 3.564642 1.531058
C 5.482297 4.230014 1.710732
C 5.285285 4.922691 2.517741
C 5.197630 4.035289 2.405252
C 5.925353 3.559761 1.600353
C 6.417744 4.206148 1.553945
C 6.641745 5.025689 2.418400
C 6.214762 4.009598 2.463879
C 6.996618 3.358208 1.793354
C 7.491861 4.322855 1.497990
C 7.537320 5.069625 2.466577
C 6.925677 3.962961 2.500301
C 7.953568 3.535018 1.631660
C 8.571012 4.310710 1.698992
C 8.494154 4.819351 2.403341
C 8.092423 3.931848 2.455138
C 0.220539 5.182089 1.378609
C 0.324649 6.112056 1.586678
C 0.410409 6.725899 2.513396
C 0.035925 5.890564 2.415803
C 0.954960 5.079776 1.753794
C 1.478292 6.107978 1.828912
C 1.343822 6.723489 2.586694
C 1.032171 5.887006 2.561001
C 2.049729 5.233939 1.497914
C 2.434490 6.182397 1.775525
C 2.365356 6.643839 2.566925
C 2.086364 5.681478 2.365662
C 3.065642 5.124850 1.487013
C 3.497768 5.947805 1.733957
C 3.361548 6.678658 2.278856
C 3.059767 5.925798 2.418506
C 4.043073 5.084116 1.657902
C 4.567776 5.931530 1.771820
C 4.400341 6.778791 2.537616
C 4.042581 5.904348 2.287459
C 5.226404 5.215709 1.631246
C 5.469009 6.132815 1.656835
C 5.418665 6.582012 2.636421
C 4.910098 5.680855 2.460825
C 6.116745 5.327599 1.542801
C 6.454452 6.051965 1.884909
C 6.609913 6.571329 2.410063
C 6.122681 5.777316 2.610335
C 6.950515 5.088742 1.737788
C 7.453853 6.174106 1.506117
C 7.679673 6.613151 2.498870
C 6.947977 5.715387 2.372093
C 8.098273 5.129574 1.637031
C 8.567067 6.083888 1.551040
C 8.683998 6.707260 2.536851
C 8.141987 5.737050 2.340115
C 0.050067 6.943657 1.569127
C 0.465642 7.924733 1.474398
C 0.410306 8.433037 2.388647
C 0.052572 7.439159 2.655159
C 0.972925 6.976898 1.386844
C 1.665262 7.823079 1.836683
C 1.404184 8.416617 2.666005
C 0.968039 7.256793 2.448159
C 2.017570 7.014403 1.810094
C 2.385080 7.687417 1.547380
C 2.350398 8.519216 2.506218
C 2.141823 7.548405 2.496222
C 2.968807 6.915664 1.786054
C 3.314226 7.799883 1.492384
C 3.632003 8.470671 2.476363
C 3.026060 7.575208 2.505979
C 3.921241 6.989921 1.390791
C 4.388680 7.711287 1.481504
C 4.638212 8.410170 2.414622
C 3.969625 7.488430 2.433606
C 4.869811 7.051834 1.544412
C 5.596543 7.740551 1.797437
C 5.522742 8.583960 2.491593
C 5.039756 7.424861 2.520011
C 6.077003 6.928996 1.428789
C 6.317783 7.657139 1.573564
C 6.677081 8.364485 2.264707
C 6.140508 7.499386 2.434797
C 7.020110 6.970273 1.634378
C 7.483513 7.760586 1.772332
C 7.508005 8.453574 2.270648
C 6.928820 7.513232 2.417134
C 8.141395 6.935603 1.538264
C 8.434439 7.791810 1.606692
C 8.346355 8.196853 2.443613
C 8.006311 7.550587 2.565548
C 0.236789 0.080650 3.363577
C 0.650337 0.782427 3.224427
C 0.366563 1.569945 3.978126
C 0.053019 0.638170 4.001454
C 1.150953 0.169750 3.319179
C 1.473309 0.929089 3.374843
C 1.484562 1.463684 4.121114
C 1.079648 0.526893 4.211773
C 1.932036 0.205659 3.447174
C 2.457315 0.851315 3.184224
C 2.428052 1.288856 4.084323
C 1.886730 0.680971 4.018468
C 3.128183 0.015750 3.321428
C 3.547076 0.903373 3.498761
C 3.628190 1.586073 4.062473
C 2.982735 0.742921 4.159482
C 4.118742 0.059258 3.163772
C 4.666204 0.967144 3.344337
C 4.642470 1.450690 3.933724
C 3.983456 0.719284 4.033147
C 5.036715 0.079767 3.214899
C 5.457515 0.811253 3.379406
C 5.413869 1.583736 4.083997
C 4.955264 0.663426 3.888403
C 6.101256 0.099588 3.153505
C 6.542677 0.844362 3.235415
C 6.364413 1.617292 4.138870
C 5.960801 0.573280 3.918459
C 6.800679 0.039862 3.200135
C 7.418668 0.748603 3.128737
C 7.502288 1.291903 4.313908
C 6.979806 0.637285 4.119369
C 8.003988 0.155557 3.411230
C 8.603938 0.829560 3.393118
C 8.527960 1.396759 4.013561
C 7.827361 0.591278 4.012606
C 0.021684 1.539085 3.220507
C 0.609468 2.581677 3.315389
C 0.395988 3.153019 4.086669
C 0.126975 2.338234 3.745862
C 1.038241 1.839156 3.281839
C 1.483280 2.627073 3.024738
C 1.656320 3.160818 4.192648
C 0.997797 2.209188 4.001482
C 2.026693 1.694140 3.101666
C 2.535812 2.517434 3.157718
C 2.572035 3.227091 4.064621
C 1.874941 2.427643 4.034251
C 2.961542 1.925617 3.157610
C 3.609646 2.495339 3.351556
C 3.563006 3.196106 3.942586
C 2.988671 2.402300 4.077941
C 4.121002 1.691103 3.357193
C 4.324359 2.772014 3.192237
C 4.591992 3.196204 4.122243
C 3.908937 2.364098 4.259740
C 5.024440 1.880061 3.393987
C 5.323963 2.606421 3.419321
C 5.510870 3.067252 3.976112
C 5.043381 2.453497 4.043519
C 6.076628 1.775822 3.251622
C 6.548627 2.586676 3.292835
C 6.597561 3.165059 3.985052
C 6.217585 2.209901 4.018790
C 7.036701 1.813557 3.281602
C 7.627870 2.731093 3.389330
C 7.443380 3.326657 4.074674
C 7.173574 2.402758 4.092898
C 8.125432 1.717512 3.360748
C 8.421573 2.653193 3.455530
C 8.543624 3.333350 4.013969
C 7.893611 2.340384 4.229445
C 0.110464 3.661946 3.117923
C 0.389844 4.273807 3.091479
C 0.436300 5.140286 3.973822
C 0.185191 3.902533 4.129692
C 0.916851 3.628761 3.290066
C 1.427169 4.443497 3.191413
C 1.308210 5.094783 4.050606
C 1.037823 4.002549 4.195841
C 1.991257 3.605194 3.235190
C 2.599130 4.264617 3.120336
C 2.642711 4.854181 4.196891
C 1.894431 4.005460 4.183136
C 2.978154 3.396973 3.230309
C 3.463138 4.120499 3.123854
C 3.421914 4.998498 3.998396
C 3.108627 3.928923 3.984599
C 4.113109 3.365078 3.289608
C 4.601466 4.421689 3.294566
C 4.609560 4.753679 4.067630
C 3.799624 3.941788 4.110254
C 4.926621 3.518851 3.213298
C 5.387803 4.404130 3.424696
C 5.686970 5.057915 4.169491
C 5.014419 4.222764 4.001358
C 5.864537 3.505680 3.277482
C 6.326473 4.367982 3.477782
C 6.538214 4.747000 4.089277
C 6.061581 3.915964 4.229058
C 6.881707 3.400599 3.246040
C 7.576960 4.490661 3.178128
C 7.546097 4.827316 4.202082
C 6.815022 3.860185 4.043563
C 8.123839 3.459255 3.347425
C 8.586537 4.230339 3.395773
C 8.398874 4.926574 4.165566
C 8.165404 4.048588 3.956570
C 0.098064 5.197633 3.150235
C 0.601949 6.137018 3.182537
C 0.668979 6.480155 4.092749
C 0.023985 5.960720 3.996432
C 1.124814 5.145555 3.156937
C 1.566720 5.963232 3.293911
C 1.551407 6.650978 3.860429
C 0.888304 5.738329 4.151804
C 1.761694 5.248262 3.285465
C 2.452672 5.853653 3.223849
C 2.460456 6.601044 4.083987
C 1.922218 5.806177 4.218244
C 2.973944 5.356421 3.322477
C 3.550582 6.123547 3.247373
C 3.357388 6.682549 4.117257
C 2.935838 5.666673 4.039483
C 4.177332 5.248238 3.319717
C 4.367333 6.154651 3.362449
C 4.425052 6.614532 4.134584
C 4.074228 5.595309 4.146238
C 5.068394 5.309858 3.234166
C 5.472751 5.929357 3.293291
C 5.510792 6.472111 4.034060
C 4.986885 5.604668 4.027635
C 6.024080 5.308383 3.358618
C 6.482619 5.924110 3.340275
C 6.638969 6.541972 4.026808
C 6.117847 5.867873 4.089419
C 7.111403 5.058501 3.138345
C 7.669412 6.181348 3.267858
C 7.548271 6.579849 3.903464
C 7.058012 5.898358 4.022037
C 8.044666 5.098184 3.125227
C 8.607390 6.106590 3.375081
C 8.488186 6.621197 4.184955
C 7.928550 5.779994 4.185008
C 0.021364 6.836444 3.113063
C 0.567131 7.774606 3.148112
C 0.633919 8.231488 4.117834
C 0.226156 7.639542 4.105213
C 0.897765 6.929799 3.304041
C 1.395607 7.747825 3.146474
C 1.391451 8.329662 4.003099
C 1.250484 7.592767 4.143512
C 1.783459 6.914526 3.295172
C 2.343244 7.866944 3.351877
C 2.526061 8.342857 4.275206
C 1.974652 7.708429 4.153508
C 2.922364 6.822599 3.360480
C 3.590301 7.762317 3.286474
C 3.396346 8.394063 3.908054
C 3.034677 7.435890 4.304423
C 4.131514 6.989961 3.177293
C 4.555763 8.014561 3.359983
C 4.297347 8.292312 4.143152
C 3.871927 7.639402 4.041027
C 4.820303 6.963459 3.248696
C 5.430121 7.759609 3.106719
C 5.557352 8.276611 4.168724
C 5.008132 7.390393 4.204759
C 5.916384 6.765784 3.328032
C 6.499777 7.837979 3.260027
C 6.488608 8.493933 4.045561
C 6.078917 7.433992 4.189570
C 7.142207 6.836380 3.318724
C 7.435348 7.783643 3.201036
C 7.328508 8.426587 3.920619
C 6.971782 7.417786 4.200109
C 7.961512 6.853298 3.334075
C 8.720050 7.914573 3.301880
C 8.412143 8.333798 4.072929
C 7.816400 7.357947 4.188495
C 0.055013 0.141900 4.653222
C 0.453729 0.855158 5.039670
C 0.573809 1.477390 5.851990
C 0.148200 0.619257 5.724595
C 1.090056 0.013267 4.961270
C 1.704261 0.830252 4.856206
C 1.486976 1.316956 5.734962
C 1.047280 0.642469 5.876974
C 2.088773 0.048619 5.084662
C 2.537994 0.768271 4.988775
C 2.594171 1.308282 5.710929
C 2.113289 0.661778 5.834089
C 3.130690 0.173750 4.826231
C 3.499397 0.794140 5.015081
C 3.379963 1.408704 5.827076
C 2.993064 0.539895 5.664795
C 3.909446 0.054953 4.862346
C 4.436947 0.833719 5.007830
C 4.421878 1.648933 5.656449
C 4.134788 0.462914 5.812966
C 4.999068 0.030771 4.974852
C 5.624283 0.905795 4.854162
C 5.623622 1.537434 5.662973
C 5.183863 0.591905 5.713675
C 6.025188 0.002593 4.886813
C 6.352306 0.838716 4.750347
C 6.323090 1.473216 5.679899
C 6.071170 0.609564 5.736322
C 7.167671 0.061727 4.814334
C 7.501206 1.104770 4.923032
C 7.492442 1.555313 5.869399
C 6.926306 0.681212 5.835601
C 7.928499 0.051483 5.032475
C 8.396228 0.739343 4.938625
C 8.535411 1.530053 5.762773
C 7.851155 0.453356 5.807072
C 0.075610 1.912740 4.804531
C 0.446655 2.683336 4.969551
C 0.462947 2.995905 5.668872
C 0.071761 2.158885 5.625297
C 0.987681 1.815873 4.760600
C 1.647022 2.602702 4.856226
C 1.471709 3.274042 5.704317
C 1.109454 2.204539 5.793744
C 1.928314 1.800010 4.783971
C 2.373205 2.752567 4.842749
C 2.456499 3.272725 5.726829
C 2.158426 2.296367 5.539857
C 3.138175 1.806633 5.023061
C 3.415166 2.659657 4.985233
C 3.508946 3.266457 5.523236
C 2.806700 2.366402 5.693848
C 3.927554 1.661632 4.814250
C 4.411822 2.639122 5.034670
C 4.439601 3.200833 5.492921
C 3.832514 2.389561 5.638126
C 5.098512 1.901214 4.888654
C 5.441912 2.378955 4.906328
C 5.603602 3.231437 5.675689
C 5.011915 2.422647 5.762587
C 5.878977 1.786509 4.716469
C 6.394599 2.626015 5.041183
C 6.588187 3.109212 5.864875
C 6.126491 2.337758 5.887289
C 7.147322 1.711280 4.835392
C 7.519216 2.521263 5.070825
C 7.346797 3.155148 5.733653
C 7.092520 2.252562 5.581925
C 8.146085 1.713419 4.952800
C 8.612031 2.444390 4.968008
C 8.618955 3.082521 5.714416
C 7.916349 2.385634 5.776603
C 0.135346 3.507969 4.822426
C 0.557301 4.425598 4.692621
C 0.442745 4.743969 5.624286
C 0.014718 4.106008 5.753697
C 1.073623 3.475927 4.926666
C 1.521130 4.372698 5.032070
C 1.446462 5.068630 5.666049
C 1.199846 4.036913 5.682012
C 1.914482 3.441642 5.016739
C 2.586030 4.312891 4.730215
C 2.381677 4.939129 5.832058
C 2.015638 4.187275 5.664194
C 2.946048 3.597429 4.945805
C 3.357144 4.271300 4.881649
C 3.585292 4.967934 5.730072
C 2.998276 3.994217 5.615293
C 4.065883 3.567543 4.934353
C 4.527435 4.397912 4.803517
C 4.672092 4.957520 5.720303
C 4.072203 4.054737 5.922456
C 5.099062 3.540401 4.863486
C 5.663250 4.263788 4.878129
C 5.358703 4.989462 5.738367
C 4.974552 4.051118 5.710276
C 5.913468 3.405648 5.024020
C 6.637121 4.184681 4.951562
C 6.420384 4.914832 5.592232
C 5.984193 4.117757 5.575348
C 7.105180 3.452782 4.769045
C 7.424365 4.366373 4.772693
C 7.423854 4.744572 5.699844
C 7.048662 3.983163 5.664550
C 8.168279 3.376090 4.782257
C 8.503696 4.504848 5.065002
C 8.522117 4.984761 5.542118
C 8.108968 3.965925 5.757949
C 0.237950 5.125923 4.835705
C 0.623147 6.038344 4.853508
C 0.624498 6.693945 5.660483
C 0.074151 5.585844 5.883176
C 1.002231 5.223081 5.052619
C 1.540579 5.981512 4.936542
C 1.512523 6.689811 5.681976
C 0.974117 5.817809 5.842276
C 1.940614 5.275605 4.711832
C 2.642384 6.118185 4.739110
C 2.480515 6.684573 5.617898
C 1.958790 5.877545 5.581073
C 3.160273 5.287474 4.883142
C 3.435386 5.939381 4.818762
C 3.396468 6.635566 5.524234
C 3.076743 5.846040 5.604455
C 4.000895 5.215563 5.052948
C 4.489992 6.086098 5.031916
C 4.459388 6.665526 5.945882
C 4.023716 5.893113 5.798564
C 5.178207 5.175440 4.916870
C 5.606209 6.135437 5.014356
C 5.555402 6.713217 5.548924
C 4.908587 5.749077 5.630401
C 5.805586 5.154918 4.899569
C 6.456958 6.120587 4.802063
C 6.518153 6.633570 5.773901
C 5.927634 5.593534 5.849670
C 6.859790 5.084242 4.924736
C 7.395393 6.185405 4.822275
C 7.552144 6.488607 5.647346
C 6.984727 5.693718 5.639851
C 8.129757 5.155775 4.998264
C 8.456570 5.876536 4.937510
C 8.492189 6.736382 5.758818
C 8.077203 5.958335 5.662463
C 0.045313 6.950802 4.946826
C 0.615023 7.938747 5.031142
C 0.532751 8.454401 5.798090
C 0.077390 7.457428 5.983495
C 1.103867 6.936720 5.035118
C 1.463835 7.683145 4.860372
C 1.446965 8.413250 5.796652
C 0.955603 7.377247 5.738729
C 1.941539 6.797823 4.729510
C 2.460817 7.759281 4.751532
C 2.380706 8.314846 5.651357
C 2.132506 7.456104 5.763762
C 3.080834 6.980650 4.862582
C 3.441620 7.862909 4.836831
C 3.486392 8.395786 5.800440
C 2.866411 7.521028 5.652907
C 3.993354 6.883771 4.782925
C 4.360091 7.597338 4.841663
C 4.418563 8.429741 5.657339
C 4.093450 7.663255 5.719851
C 4.969080 7.024900 5.011730
C 5.502270 7.651747 5.021560
C 5.592412 8.463271 5.590469
C 5.123888 7.380539 5.758074
C 6.141719 6.759035 4.907363
C 6.357225 7.650293 5.088584
C 6.482139 8.484955 5.697992
C 5.843504 7.432636 5.938589
C 7.144104 7.002164 5.023305
C 7.303298 7.687776 4.836793
C 7.557594 8.506456 5.759665
C 7.198263 7.452601 5.608243
C 8.024698 6.885675 4.812701
C 8.465845 7.677973 4.838193
C 8.412979 8.342269 5.771359
C 8.115280 7.664869 5.838858
C 0.143032 0.008976 6.670901
C 0.476199 0.959128 6.376319
C 0.673001 1.453957 7.323627
C 0.095236 0.625020 7.546883
C 1.148865 0.093710 6.707472
C 1.335704 0.826814 6.624342
C 1.492213 1.312270 7.378446
C 0.863200 0.388867 7.322913
C 1.825178 0.082308 6.441293
C 2.530507 0.726578 6.432515
C 2.655791 1.377463 7.301635
C 2.135312 0.516485 7.264212
C 3.102221 0.011688 6.467409
C 3.461227 0.839608 6.289624
C 3.688862 1.439121 7.249081
C 3.148662 0.472119 7.365728
C 3.998849 0.026655 6.557930
C 4.441572 1.010358 6.493317
C 4.670984 1.358199 7.236339
C 4.172159 0.579077 7.380438
C 4.912790 0.093134 6.755622
C 5.628744 0.737768 6.571999
C 5.514866 1.457773 7.424309
C 5.102923 0.554569 7.186236
C 6.098528 0.097675 6.384919
C 6.420664 0.696084 6.537451
C 6.464092 1.343270 7.161213
C 5.949127 0.406521 7.272257
C 6.964293 0.011424 6.627546
C 7.723539 0.784723 6.464820
C 7.733442 1.513527 7.280698
C 7.224965 0.615127 7.499025
C 7.881043 0.038801 6.596591
C 8.406332 1.058756 6.534875
C 8.383415 1.547813 7.398220
C 7.924536 0.551710 7.587558
C 0.026197 1.743068 6.705452
C 0.530689 2.629368 6.508633
C 0.509974 3.089247 7.276418
C 0.004101 2.170971 7.266995
C 1.045092 1.872941 6.489021
C 1.545793 2.399857 6.598568
C 1.529558 3.331081 7.294824
C 1.126438 2.244627 7.346481
C 1.985202 1.653567 6.668743
C 2.628879 2.646723 6.583279
C 2.405878 3.265895 7.463048
C 1.919875 2.496054 7.338480
C 3.097707 1.624712 6.647870
C 3.486116 2.544031 6.618185
C 3.326329 3.195403 7.398026
C 2.998962 2.403944 7.261640
C 3.975315 1.704239 6.461386
C 4.372062 2.665996 6.440891
C 4.426562 3.188809 7.437657
C 3.949173 2.442708 7.251191
C 4.970471 1.770060 6.536026
C 5.416669 2.371963 6.434551
C 5.627900 3.060499 7.423249
C 5.021901 2.414565 7.188474
C 6.059752 1.766143 6.724263
C 6.384288 2.464553 6.700899
C 6.474526 3.030270 7.184232
C 6.078687 2.512019 7.433630
C 7.119664 1.685608 6.646002
C 7.348988 2.514488 6.519276
C 7.558568 3.227723 7.290754
C 6.836098 2.262081 7.278941
C 8.203049 1.625182 6.527464
C 8.700807 2.561508 6.544665
C 8.278343 3.131574 7.430139
C 8.078734 2.145962 7.501940
C 0.012516 3.618048 6.668676
C 0.436430 4.300643 6.396187
C 0.642856 4.977899 7.479462
C 0.190206 4.205945 7.486337
C 0.995855 3.589924 6.465596
C 1.496305 4.227109 6.446447
C 1.692771 4.910183 7.545794
C 0.889911 3.934469 7.351992
C 2.018468 3.619083 6.600135
C 2.397662 4.341537 6.541130
C 2.546792 4.860749 7.234743
C 1.871373 4.212410 7.327192
C 3.016616 3.540838 6.599905
C 3.568128 4.284135 6.405213
C 3.573399 4.978907 7.285869
C 3.075240 3.922902 7.397167
C 3.983587 3.502887 6.331987
C 4.677404 4.320516 6.702968
C 4.334637 4.969316 7.373552
C 4.101629 4.153881 7.478494
C 5.005845 3.372452 6.648108
C 5.518885 4.388091 6.539709
C 5.568207 5.034638 7.315865
C 5.022240 3.815147 7.391995
C 6.085388 3.580241 6.684145
C 6.379483 4.389384 6.490175
C 6.592735 4.988286 7.379424
C 5.968332 3.937143 7.504851
C 6.946710 3.482890 6.567100
C 7.628062 4.196657 6.560326
C 7.410726 5.185987 7.363536
C 7.012618 3.910427 7.183918
C 7.902002 3.368323 6.438741
C 8.559761 4.425646 6.479372
C 8.392927 4.976343 7.348828
C 8.159493 4.022587 7.224399
C 0.185487 5.301352 6.395190
C 0.469033 5.947059 6.406307
C 0.662922 6.636112 7.453015
C 0.027740 5.784307 7.197451
C 0.871603 5.150062 6.356869
C 1.560485 6.176178 6.678400
C 1.672023 6.525217 7.376729
C 1.070770 5.879288 7.284757
C 1.951311 5.318073 6.616633
C 2.537712 6.004309 6.484645
C 2.556808 6.407620 7.360176
C 2.098722 5.755407 7.213117
C 2.985933 5.031842 6.434971
C 3.468707 6.116632 6.548843
C 3.637902 6.651541 7.338563
C 3.049990 5.845527 7.175601
C 3.985870 5.256582 6.680899
C 4.322594 6.175444 6.513592
C 4.375884 6.676463 7.213893
C 3.879700 5.669635 7.220282
C 5.159383 5.122136 6.468567
C 5.418898 6.184942 6.425955
C 5.448110 6.589907 7.543662
C 5.130042 5.716258 7.255569
C 6.058508 5.380691 6.541569
C 6.459727 6.031005 6.690238
C 6.478902 6.551120 7.478852
C 5.908234 5.773121 7.334099
C 6.924257 5.214184 6.371907
C 7.408885 5.904936 6.584987
C 7.336398 6.696304 7.360291
C 6.940757 5.989535 7.299466
C 7.953683 5.184298 6.416364
C 8.437132 5.837952 6.597891
C 8.670926 6.663189 7.423637
C 7.881919 5.694798 7.246374
C 0.085918 6.710906 6.607918
C 0.536056 7.695580 6.411867
C 0.443168 8.289884 7.308749
C 0.004066 7.320095 7.365690
C 1.165971 6.814595 6.594371
C 1.460021 7.855849 6.549247
C 1.648134 8.458210 7.425214
C 1.049238 7.597928 7.143499
C 1.935934 6.904698 6.382934
C 2.319835 7.747953 6.385124
C 2.521767 8.455808 7.442094
C 1.839241 7.453033 7.169477
C 3.079493 6.962181 6.502882
C 3.591588 7.549666 6.575688
C 3.342139 8.408704 7.430445
C 3.085915 7.432141 7.251857
C 3.950565 6.965921 6.502435
C 4.431716 7.831860 6.502368
C 4.546013 8.296434 7.389566
C 3.820198 7.504208 7.328815
C 4.773956 6.944313 6.505468
C 5.598699 7.675945 6.738478
C 5.343122 8.447932 7.417473
C 5.023383 7.578560 7.427135
C 5.960679 7.119849 6.694856
C 6.512478 7.944485 6.622185
C 6.394850 8.261660 7.416159
C 6.128805 7.609158 7.271882
C 7.067532 6.900054 6.666641
C 7.316217 7.907832 6.520853
C 7.529572 8.261547 7.296324
C 6.935509 7.706246 7.411753
C 7.890153 6.907309 6.416337
C 8.430224 8.022608 6.447643
C 8.357201 8.334403 7.398592
C 8.100645 7.489500 7.454542
C 0.065718 0.089980 7.841142
C 0.498808 0.952374 8.086540
C 0.539708 1.325176 8.888574
C 0.052238 0.608500 8.801788
C 1.109585 0.217220 8.043502
C 1.481273 0.920873 8.031468
C 1.602714 1.614850 8.935335
C 1.127169 0.637439 9.141537
C 1.841598 0.022330 8.198905
C 2.391423 0.823376 8.015454
C 2.613227 1.345246 9.028005
C 1.928366 0.752843 9.008005
C 2.993470 0.125070 8.121737
C 3.587470 0.904588 8.264220
C 3.307389 1.470120 9.006628
C 3.071739 0.679437 8.827770
C 3.998060 0.007513 8.043059
C 4.691882 0.754585 7.988559
C 4.291648 1.361129 9.032028
C 4.045381 0.575883 9.194296
C 5.134273 0.106061 7.906776
C 5.489968 0.936106 8.376186
C 5.368820 1.540546 9.032376
C 4.961273 0.564475 8.977281
C 6.009340 0.040443 8.065049
C 6.488294 0.845950 7.930393
C 6.544815 1.371014 8.888488
C 5.928061 0.628237 9.137186
C 7.095172 0.008732 8.015183
C 7.530425 0.865228 8.358302
C 7.528631 1.610593 8.872501
C 7.116333 0.744321 8.993674
C 8.121541 0.161356 8.150830
C 8.568159 0.998375 8.237544
C 8.429909 1.386616 9.135845
C 8.165256 0.553870 9.124551
C 0.239723 1.877210 8.120790
C 0.461259 2.664181 8.351436
C 0.400640 3.275394 8.893391
C 0.241878 2.221258 8.915679
C 0.858653 1.585651 8.136826
C 1.563378 2.667670 8.379878
C 1.467908 3.196909 9.149776
C 1.133559 2.354185 9.111688
C 2.005165 1.735918 8.073899
C 2.502063 2.734269 8.297937
C 2.486276 3.140976 8.751495
C 1.863544 2.353123 8.869546
C 2.898049 1.751946 8.215337
C 3.432586 2.437743 8.250288
C 3.311045 3.177129 9.118668
C 3.080916 2.490329 8.965287
C 3.866006 1.816405 8.334866
C 4.413786 2.585902 8.298696
C 4.471857 3.234771 9.126358
C 3.846947 2.345111 9.072564
C 5.063812 1.564549 8.208255
C 5.503171 2.588598 8.330222
C 5.528256 3.237594 8.872918
C 4.961689 2.271822 9.066585
C 5.889004 1.775579 8.318795
C 6.543587 2.420865 8.240359
C 6.345694 3.164664 8.919652
C 6.141254 2.268673 9.026083
C 7.134471 1.608501 8.122442
C 7.430399 2.677345 8.270891
C 7.542292 3.344322 8.989290
C 6.875625 2.291439 9.127308
C 7.949865 1.536787 8.312015
C 8.531497 2.461993 8.195220
C 8.527014 3.308011 9.004531
C 8.095499 2.438906 9.126211
C 0.061446 3.494122 8.275183
C 0.553283 4.337697 7.916263
C 0.439192 4.965719 9.104838
C 0.022529 4.200616 9.100573
C 1.036029 3.435427 8.260322
C 1.637723 4.207319 8.155465
C 1.614322 4.843780 8.833848
C 0.907900 4.009050 8.957426
C 1.865369 3.353872 8.233560
C 2.653555 4.410565 8.196305
C 2.336921 4.954800 9.081389
C 2.094266 4.174410 8.988434
C 3.128137 3.475364 8.084730
C 3.407273 4.321259 8.265786
C 3.587899 4.984573 9.024823
C 2.962398 3.925809 9.030752
C 4.176580 3.540731 8.195076
C 4.566364 4.358697 8.012306
C 4.572523 5.026460 8.881924
C 3.938827 4.134626 8.935893
C 4.914150 3.459208 8.294376
C 5.386129 4.302228 8.091094
C 5.493703 5.100244 9.057122
C 5.048580 4.080676 9.054695
C 6.010923 3.419801 8.184697
C 6.518675 4.448944 8.285902
C 6.680489 4.948700 8.874479
C 5.918743 4.004703 8.854289
C 7.014292 3.480315 8.057168
C 7.471646 4.198184 8.099839
C 7.512442 5.041813 8.804799
C 7.015654 3.882607 8.939563
C 7.879893 3.574453 8.109217
C 8.515934 4.437639 8.195931
C 8.376718 4.961688 8.968866
C 7.981159 3.996003 8.990617
C 0.030770 5.237009 8.335011
C 0.703568 6.171082 8.164566
C 0.349976 6.425516 8.983060
C 0.209265 5.949492 9.010817
C 1.007144 5.089809 8.004046
C 1.569881 6.095333 8.186882
C 1.328514 6.615016 8.895400
C 1.115141 5.795344 8.838223
C 2.120103 5.127699 8.140014
C 2.369182 6.097519 8.072022
C 2.422872 6.612785 8.884222
C 1.864106 5.823533 8.879937
C 3.115802 5.186491 8.045422
C 3.336289 5.994925 8.101453
C 3.463370 6.609030 9.028257
C 3.082643 5.661631 9.008806
C 3.963363 5.118859 8.008567
C 4.459300 6.045262 8.096698
C 4.652624 6.636483 9.005552
C 3.999518 5.518684 9.029858
C 5.011916 5.234623 8.048628
C 5.455152 5.941473 8.161317
C 5.308755 6.772974 8.901056
C 5.039762 5.621944 9.079365
C 5.932632 5.046743 8.262844
C 6.460166 6.251869 8.225807
C 6.669718 6.675498 9.117136
C 6.047529 5.918059 9.107120
C 6.993652 5.257356 8.357919
C 7.524961 5.880243 8.268340
C 7.430437 6.682293 8.997178
C 7.106615 5.796760 9.074372
C 7.991126 5.091773 8.040556
C 8.660503 5.950038 8.217683
C 8.356820 6.594490 8.945274
C 7.896734 5.729268 8.972367
C 0.016314 7.016550 8.003417
C 0.520374 7.694300 8.095411
C 0.535024 8.364732 8.871054
C 0.101483 7.410077 9.146670
C 0.970730 6.874409 8.104380
C 1.462674 7.769035 7.992859
C 1.501498 8.360184 9.017079
C 1.072822 7.590100 8.828170
C 1.827349 6.820883 8.079838
C 2.539584 7.991457 8.098534
C 2.612506 8.304793 8.849294
C 1.870200 7.462809 8.946626
C 3.254225 6.859729 8.075498
C 3.446998 7.985449 8.199780
C 3.406495 8.463514 8.925425
C 3.035428 7.641160 9.017757
C 4.065775 6.764125 8.304957
C 4.565734 7.726153 8.012719
C 4.363106 8.429636 8.883875
C 3.858214 7.537793 8.848392
C 5.152613 6.925294 8.158164
C 5.392422 7.667884 8.359078
C 5.368038 8.392059 8.917512
C 4.913369 7.526799 8.935888
C 5.956855 6.964187 8.203657
C 6.743557 7.753561 8.234233
C 6.215334 8.351799 9.014168
C 6.161368 7.487446 9.139031
C 6.981548 6.950087 8.226334
C 7.501730 7.898668 8.264376
C 7.648612 8.430683 9.158017
C 7.056523 7.440696 8.834109
C 7.932653 6.773146 8.231176
C 8.647839 7.808339 8.306500
C 8.506039 8.231365 9.127171
C 7.935912 7.701919 9.179226
C 0.104534 0.136962 0.734467
C 0.571569 0.943600 0.641038
C 0.628303 1.515559 1.340864
C 0.010234 0.625296 1.583365
C 1.035373 0.229297 0.402623
C 1.519158 0.805847 0.647960
C 1.502799 1.574985 1.614907
C 0.859336 0.729570 1.532182
C 2.023398 0.222864 0.477461
C 2.593890 0.774915 0.691073
C 2.410649 1.423978 1.391435
C 2.040792 0.739545 1.421717
C 2.898241 0.024392 0.624962
C 3.567494 0.764130 0.583395
C 3.654741 1.522365 1.408713
C 3.070509 0.587848 1.601011
C 4.041416 0.206463 0.516037
C 4.430839 0.742200 0.544915
C 4.364552 1.459973 1.497296
C 3.838228 0.609929 1.519053
C 5.046333 0.028676 0.738196
C 5.640608 0.902200 0.690790
C 5.515036 1.471593 1.269347
C 5.077083 0.571735 1.306444
C 5.963498 0.071708 0.774781
C 6.588725 0.986612 0.739387
C 6.257636 1.483738 1.474326
C 5.877025 0.415824 1.405184
C 7.049180 0.027553 0.859313
C 7.659510 0.765635 0.726874
C 7.322442 1.394833 1.406093
C 7.051356 0.711242 1.303269
C 7.761066 0.109328 0.748659
C 8.527950 0.921150 0.580957
C 8.411861 1.436431 1.580907
C 7.870753 0.564904 1.266802
C 0.059606 1.868533 0.581801
C 0.495088 2.782990 0.497198
C 0.311155 3.078174 1.229754
C 0.255203 2.459479 1.437720
C 0.911765 1.691664 0.418813
C 1.629095 2.673349 0.607104
C 1.404085 3.071786 1.514559
C 0.860326 2.171475 1.368796
C 1.920479 1.723125 0.565694
C 2.500050 2.483946 0.558960
C 2.398856 3.194497 1.336010
C 1.921371 2.106305 1.334089
C 3.141044 1.843424 0.521030
C 3.504842 2.577432 0.608997
C 3.613767 3.270495 1.470997
C 2.895054 2.430822 1.375011
C 3.875746 1.897950 0.674016
C 4.662435 2.579177 0.542080
C 4.457062 3.138966 1.468730
C 3.968644 2.322310 1.402996
C 5.110531 1.637900 0.683381
C 5.368496 2.548877 0.717046
C 5.582393 3.309260 1.481251
C 4.855294 2.369182 1.433089
C 6.008604 1.620550 0.508789
C 6.350217 2.620300 0.536818
C 6.556754 3.232712 1.584647
C 6.121711 2.446649 1.335155
C 7.009812 1.737397 0.787814
C 7.620357 2.682541 0.677980
C 7.273835 3.083402 1.385740
C 6.864823 2.132949 1.414602
C 8.045682 1.845090 0.652962
C 8.552974 2.789096 0.610529
C 8.331325 3.150788 1.409082
C 8.058019 2.341510 1.324520
C 0.174049 3.534929 0.518526
C 0.535660 4.376770 0.794749
C 0.352199 4.910195 1.658739
C 0.177027 3.986435 1.678951
C 0.934653 3.548020 0.760017
C 1.468183 4.431377 0.526541
C 1.462687 4.752245 1.535334
C 1.059532 3.976547 1.553736
C 1.747957 3.452387 0.658281
C 2.333369 4.389871 0.683608
C 2.372501 4.926870 1.427820
C 1.947357 4.078932 1.557313
C 2.948644 3.360662 0.583795
C 3.404497 4.353498 0.661932
C 3.533940 4.755030 1.383881
C 2.895625 4.084046 1.550340
C 4.075312 3.508555 0.469150
C 4.355775 4.389450 0.547093
C 4.444700 5.046392 1.400078
C 4.133998 3.975631 1.407253
C 5.035534 3.355231 0.799659
C 5.462420 4.477691 0.657682
C 5.518534 5.016207 1.394663
C 4.838417 4.144849 1.529665
C 5.905686 3.539914 0.632592
C 6.599373 4.326590 0.534673
C 6.579317 4.760203 1.321884
C 5.999855 4.075580 1.336157
C 6.985882 3.356349 0.673784
C 7.460204 4.401504 0.567077
C 7.579627 4.894900 1.398145
C 6.971788 4.141169 1.385508
C 7.850166 3.451848 0.635392
C 8.453135 4.182016 0.648399
C 8.484636 4.896306 1.295969
C 8.202067 4.051862 1.538595
C 0.101097 5.210371 0.623803
C 0.417067 5.970049 0.522823
C 0.480162 6.875037 1.477074
C 0.070750 5.597380 1.384465
C 0.939920 5.139542 0.439477
C 1.599578 5.906344 0.617776
C 1.340516 6.530608 1.484690
C 0.943798 5.695031 1.445436
C 2.161473 5.154091 0.598562
C 2.488790 6.132640 0.499883
C 2.351375 6.537900 1.544067
C 1.865529 5.751139 1.404904
C 3.036164 5.235475 0.576534
C 3.501051 6.216673 0.726649
C 3.498212 6.780128 1.346167
C 3.122032 5.952080 1.481478
C 4.096652 5.267931 0.386557
C 4.423410 6.085040 0.432313
C 4.553641 6.506359 1.390772
C 4.167349 5.641278 1.497268
C 4.978530 4.921900 0.595098
C 5.413175 6.117904 0.492965
C 5.634109 6.666214 1.447462
C 4.883109 5.967491 1.347366
C 5.984669 5.290350 0.555052
C 6.375494 6.010835 0.597972
C 6.561356 6.715991 1.420783
C 6.154415 5.857861 1.442369
C 7.081746 5.193334 0.533436
C 7.446652 6.186792 0.481045
C 7.410085 6.594751 1.435767
C 6.963783 5.852340 1.546732
C 8.039125 5.156768 0.652861
C 8.414276 6.025327 0.539999
C 8.393110 6.540608 1.332780
C 7.916025 5.745326 1.231177
C 0.075726 7.040577 0.734142
C 0.597724 7.914308 0.667248
C 0.325107 8.302775 1.357980
C 0.021697 7.461208 1.459876
C 0.862668 6.884101 0.520369
C 1.503659 7.765846 0.588268
C 1.485367 8.446856 1.636832
C 0.880390 7.360195 1.468844
C 2.166897 6.948496 0.664427
C 2.629069 7.761927 0.770993
C 2.542922 8.455796 1.336802
C 1.921632 7.684806 1.339464
C 2.920607 7.032330 0.546899
C 3.542900 7.794816 0.788245
C 3.335869 8.404521 1.538231
C 2.922492 7.678756 1.550015
C 3.954797 7.040032 0.650828
C 4.619868 7.605032 0.676958
C 4.457583 8.178760 1.545954
C 3.902669 7.414346 1.421703
C 5.011945 7.089163 0.624413
C 5.532582 7.669665 0.646533
C 5.417295 8.341311 1.374839
C 5.022840 7.438405 1.457204
C 6.048172 7.101388 0.624187
C 6.420637 7.916272 0.535534
C 6.439225 8.511907 1.461863
C 5.897738 7.568650 1.547680
C 7.026780 6.859190 0.643596
C 7.547916 7.648603 0.590754
C 7.516762 8.386762 1.319051
C 7.016044 7.469327 1.373952
C 8.211994 7.009348 0.535297
C 8.412586 7.830436 0.700983
C 8.315068 8.368717 1.371911
C 8.172617 7.409103 1.292494
C 0.187509 0.171605 2.229056
C 0.435084 0.905917 2.348221
C 0.465135 1.316859 3.032275
C 0.059402 0.507560 3.367610
C 0.824870 0.030981 2.317742
C 1.484434 1.080722 2.259944
C 1.476896 1.519714 3.275243
C 0.961657 0.565599 2.885363
C 1.873995 0.054371 2.326829
C 2.435767 0.862020 2.286381
C 2.574520 1.388721 3.005080
C 1.842614 0.440847 2.997595
C 3.058315 0.114151 2.361881
C 3.413260 0.964855 2.229520
C 3.364738 1.381920 3.210577
C 2.896161 0.472065 3.008812
C 3.747808 0.004057 2.309110
C 4.566556 1.134815 2.223620
C 4.492541 1.459669 2.872840
C 3.864741 0.521333 3.043921
C 5.009928 0.004672 2.062198
C 5.341479 0.829988 2.145610
C 5.661382 1.439566 2.937205
C 4.971857 0.521036 2.921372
C 5.847505 0.030237 2.386848
C 6.441685 0.803800 2.293430
C 6.638929 1.412910 3.095562
C 6.026150 0.604164 3.168230
C 7.070465 0.094580 2.087961
C 7.415182 0.886577 2.226500
C 7.472689 1.493029 2.861471
C 6.999545 0.737942 3.057454
C 8.142354 0.058760 2.012301
C 8.454198 0.942787 2.347160
C 8.558048 1.573051 3.255641
C 7.995371 0.434991 3.117095
C 0.003074 1.837335 2.139667
C 0.416104 2.637498 2.287835
C 0.629792 3.098478 3.149673
C 0.213096 2.362929 3.226685
C 0.910306 1.820277 2.158629
C 1.340410 2.549203 2.303141
C 1.478925 3.124292 2.940431
C 1.232733 2.298418 3.051673
C 2.134569 1.776528 2.324686
C 2.523498 2.726925 2.359314
C 2.596015 3.003550 3.120208
C 2.132419 2.285332 3.071544
C 3.036463 1.768273 2.214714
C 3.385791 2.596985 2.250744
C 3.446369 3.063845 3.096626
C 2.941858 2.356097 3.125979
C 3.976957 1.589686 2.353407
C 4.671240 2.661233 2.319713
C 4.597304 3.164375 3.195282
C 3.908313 2.222963 2.972413
C 5.045532 1.541534 2.215029
C 5.338482 2.588506 2.174295
C 5.642800 3.002045 2.971760
C 4.763703 2.426520 2.991730
C 5.931747 1.873107 2.257952
C 6.428437 2.571005 2.314145
C 6.318899 3.173559 2.929337
C 6.109026 2.185161 3.142038
C 6.916789 1.747928 2.280678
C 7.559744 2.730939 2.408205
C 7.454291 3.022375 3.172234
C 7.110238 2.257494 3.242525
C 8.062095 1.813513 2.217603
C 8.544531 2.473154 2.267552
C 8.606678 3.145616 2.977854
C 7.823341 2.311802 3.179863
C 0.165193 3.481604 2.221111
C 0.661140 4.238590 2.105778
C 0.330229 4.881457 2.919043
C 0.117434 4.109241 3.279814
C 0.935875 3.533449 2.298200
C 1.450377 4.210732 2.359909
C 1.453675 4.874599 2.943807
C 1.085224 4.056924 3.052223
C 1.879483 3.491955 2.328275
C 2.384424 4.266376 2.197598
C 2.542716 4.924442 3.115424
C 1.988924 3.947286 3.000142
C 3.015057 3.620719 2.201814
C 3.697310 4.176528 2.274187
C 3.431596 4.778213 3.081069
C 3.001034 4.053981 3.008740
C 3.971551 3.481730 2.119897
C 4.441468 4.401726 2.322938
C 4.342093 4.905242 2.888727
C 4.138727 4.073299 3.163081
C 5.132692 3.469979 2.301238
C 5.448263 4.322605 2.188113
C 5.704563 4.901950 3.075793
C 4.938392 3.950621 3.037345
C 6.040750 3.414380 2.067358
C 6.328807 4.328792 2.285421
C 6.442701 4.841726 3.208005
C 6.038861 3.938963 3.159061
C 6.887013 3.502616 2.174649
C 7.509436 4.155092 2.321963
C 7.403758 4.898412 2.839238
C 6.819758 4.014080 3.116814
C 7.846020 3.496591 2.170554
C 8.386249 4.383688 2.123646
C 8.626441 4.985671 3.167423
C 7.990214 4.133520 3.023098
C 0.048020 5.318971 2.207067
C 0.508939 6.196039 2.325707
C 0.434368 6.671826 3.082330
C 0.037735 5.644218 3.046657
C 0.982872 5.281075 2.103594
C 1.554205 6.167555 2.440804
C 1.664117 6.567903 3.087023
C 0.882757 5.750644 3.030975
C 2.019064 5.242968 1.993886
C 2.435260 6.215190 2.365886
C 2.592764 6.705093 2.868186
C 1.902664 5.602307 3.130789
C 2.896051 5.072760 2.474641
C 3.503333 6.073591 2.172135
C 3.429874 6.684535 2.976011
C 2.971470 5.616593 2.966752
C 4.103594 5.083499 2.225422
C 4.594473 6.042854 2.179620
C 4.434656 6.562998 3.025251
C 4.193034 5.932464 3.017496
C 5.075613 5.252336 2.093109
C 5.260982 6.019803 2.333229
C 5.607882 6.678144 3.061498
C 4.884726 5.810359 3.008216
C 5.841978 5.187005 2.214607
C 6.689104 6.100650 2.256906
C 6.514821 6.560594 3.041184
C 5.857333 5.851882 3.055905
C 7.092574 5.193352 2.211164
C 7.470660 6.065613 2.058386
C 7.499229 6.582616 3.242158
C 7.042323 5.734436 2.870562
C 8.095482 5.051188 2.103870
C 8.536669 6.058422 2.150895
C 8.319366 6.570605 3.089886
C 7.952602 5.797693 2.862018
C 0.143375 6.786080 2.125375
C 0.464850 7.927305 2.454644
C 0.514445 8.347875 3.254698
C 0.125059 7.469835 3.149094
C 0.880035 6.951673 2.143931
C 1.348839 7.651536 2.235250
C 1.422803 8.562138 3.049758
C 0.986874 7.613679 3.060119
C 1.936401 6.831793 2.285880
C 2.445244 7.697923 2.087676
C 2.631481 8.463989 3.014173
C 1.947630 7.416242 2.897244
C 2.983595 6.781300 2.369715
C 3.614939 7.764588 2.033450
C 3.480347 8.528081 3.028112
C 2.937844 7.491963 3.035751
C 4.062720 7.041408 2.343945
C 4.628219 7.868353 2.224995
C 4.463920 8.199042 3.017093
C 3.962415 7.446092 2.857594
C 4.918484 6.984888 2.180931
C 5.268248 7.824146 2.190446
C 5.670267 8.407478 2.990980
C 5.078067 7.648500 2.890137
C 6.029744 6.936484 2.323987
C 6.568610 7.855182 2.471453
C 6.391007 8.335778 3.046115
C 6.150183 7.632887 3.054561
C 6.920073 6.938178 2.210306
C 7.442969 7.858670 2.189776
C 7.731667 8.323425 3.102595
C 6.792350 7.461455 3.041647
C 7.996349 6.995887 2.381251
C 8.459321 7.889541 2.152388
C 8.403597 8.252692 3.129808
C 8.178180 7.585522 3.000670
C 0.047716 0.009532 3.757611
C 0.518563 1.076790 3.953239
C 0.464210 1.445424 4.728038
C 0.065278 0.442936 4.911159
C 0.863041 0.063486 3.725645
C 1.496009 0.720882 3.813943
C 1.388875 1.564370 4.881447
C 0.860324 0.633373 4.728932
C 1.932759 0.007113 3.879966
C 2.440748 0.821870 4.088223
C 2.585693 1.428331 4.498638
C 1.972287 0.572175 4.498973
C 3.118520 0.017475 4.037559
C 3.340457 0.862793 3.854405
C 3.457305 1.384847 4.617129
C 2.856438 0.646327 4.636431
C 3.954681 0.137748 3.736182
C 4.458774 1.025938 3.909183
C 4.595072 1.286633 4.648445
C 4.041829 0.670548 4.588863
C 4.976430 0.010197 3.753075
C 5.621718 0.851610 3.844614
C 5.314456 1.542737 4.833338
C 4.956055 0.642327 4.896167
C 6.206925 0.013766 3.717683
C 6.388014 0.755386 3.894892
C 6.656088 1.463132 4.733404
C 5.957856 0.495933 4.851126
C 7.183412 0.037857 3.780664
C 7.548625 1.006394 3.741289
C 7.686448 1.582954 4.697829
C 7.135645 0.648120 4.660846
C 8.127529 0.238385 3.809646
C 8.534656 0.844068 3.823477
C 8.358675 1.329894 4.638889
C 7.958443 0.620603 4.554181
C 0.105286 1.917576 3.934596
C 0.402295 2.618395 3.899868
C 0.404797 3.170726 4.770844
C 0.118226 2.461674 4.548841
C 0.858650 1.721061 4.092916
C 1.451788 2.449230 3.697462
C 1.554809 3.030726 4.793178
C 0.981120 2.435510 4.798941
C 2.036211 1.794568 3.870090
C 2.423517 2.525467 4.020088
C 2.362724 3.290155 4.602132
C 2.030616 2.281926 4.529204
C 3.103443 1.729693 4.121486
C 3.422558 2.603241 3.978358
C 3.507759 3.293816 4.632690
C 2.940955 2.368583 4.818024
C 4.125649 1.676898 3.784808
C 4.367874 2.511658 4.024314
C 4.526032 3.094241 4.909334
C 3.936261 2.296912 4.783635
C 5.007908 1.885256 4.013871
C 5.445509 2.386857 3.811253
C 5.539202 3.076838 4.739687
C 4.922792 2.258103 4.738295
C 6.066087 1.865236 3.862389
C 6.647251 2.608246 3.850231
C 6.528232 3.369665 4.794364
C 6.137919 2.361872 4.690112
C 7.069735 1.792823 3.710883
C 7.417896 2.769531 3.970615
C 7.455068 3.217336 4.685023
C 7.059273 2.372157 4.640763
C 7.943910 1.770397 3.722674
C 8.447887 2.529147 3.891416
C 8.459993 3.058288 4.724196
C 8.034342 2.436731 4.638162
C 0.075002 3.459746 4.066222
C 0.580992 4.491449 3.918626
C 0.686632 4.950500 4.654386
C 0.142849 4.116881 4.600702
C 0.920948 3.587146 3.837846
C 1.509089 4.469243 3.878668
C 1.291439 4.882292 4.714575
C 1.083349 3.891138 4.734587
C 2.198234 3.578901 3.865864
C 2.472738 4.422760 3.757474
C 2.588329 4.897423 4.627894
C 1.929008 3.886531 4.840676
C 2.963231 3.453780 3.807069
C 3.432659 4.211375 3.858232
C 3.505145 4.884242 4.726691
C 3.109676 4.009451 4.675530
C 3.891512 3.432235 3.638811
C 4.441586 4.455484 3.766934
C 4.532359 4.975261 4.794342
C 4.122547 4.120346 4.788948
C 5.063467 3.561940 4.018325
C 5.641019 4.278304 3.882371
C 5.444947 5.036398 4.577377
C 5.008390 4.047929 4.533227
C 5.979977 3.371284 3.965473
C 6.493587 4.178730 3.924038
C 6.362839 4.853329 4.442299
C 6.096958 4.065065 4.884739
C 6.895111 3.492748 3.813965
C 7.388905 4.274088 3.957950
C 7.416268 4.969206 4.756816
C 7.146761 4.027684 4.735394
C 8.061496 3.611552 3.783249
C 8.621368 4.191524 4.080921
C 8.547131 4.861749 4.824678
C 7.972285 4.123875 4.787836
C 0.071106 5.071217 3.935997
C 0.550568 5.999504 3.995034
C 0.526196 6.866058 4.551323
C 0.023352 5.740509 4.809854
C 0.831048 5.046967 3.807908
C 1.473716 6.240535 3.803700
C 1.546334 6.619227 4.758043
C 1.036565 5.956879 4.492556
C 1.838267 5.142365 3.896288
C 2.351572 6.174312 3.891029
C 2.579647 6.735243 4.799249
C 1.968879 5.754706 4.921767
C 3.045072 5.212244 3.893153
C 3.411202 6.105537 4.020964
C 3.451857 6.502867 4.636237
C 2.975226 5.627888 4.634359
C 3.910185 5.191089 3.741856
C 4.508825 5.994979 3.993014
C 4.323758 6.542802 4.746574
C 4.090672 5.648143 4.691696
C 5.166876 5.203657 3.906100
C 5.561743 5.989003 3.792581
C 5.380037 6.535173 4.696430
C 5.109449 5.832386 4.641113
C 6.020294 5.379502 3.806237
C 6.692650 5.984900 3.817152
C 6.459136 6.785183 4.628700
C 5.960475 5.667033 4.488406
C 7.016450 5.269866 4.057040
C 7.542526 5.958785 4.006230
C 7.404657 6.653728 4.634593
C 6.907049 5.623462 4.564371
C 8.021858 5.248085 3.791725
C 8.410475 6.194349 3.982917
C 8.432206 6.764243 4.792754
C 8.114668 5.851428 4.587216
C 0.044148 6.999520 3.948925
C 0.661600 7.794583 3.792357
C 0.432816 8.286686 4.879206
C 0.022069 7.517691 4.619592
C 0.841232 6.828302 3.837088
C 1.645113 7.900022 3.847046
C 1.388708 8.277720 4.648936
C 1.082529 7.557208 4.670928
C 1.907477 6.972246 3.774351
C 2.480278 7.870866 3.775012
C 2.441935 8.214426 4.897575
C 1.951362 7.473334 4.624191
C 3.097811 6.799413 3.791428
C 3.471284 7.993982 3.803110
C 3.655637 8.288650 4.775440
C 3.072563 7.644714 4.645007
C 4.079665 6.904573 3.740483
C 4.648472 7.721192 3.822951
C 4.423417 8.414039 4.712466
C 3.836955 7.528299 4.672801
C 4.847963 6.867263 3.817578
C 5.462181 7.961345 3.897581
C 5.402618 8.386469 4.736305
C 4.992169 7.637990 4.881040
C 6.016507 6.847617 4.010372
C 6.410169 7.757206 3.842369
C 6.573334 8.402423 4.805299
C 5.903145 7.362698 4.591221
C 6.807871 6.904593 3.926382
C 7.561082 7.841902 4.106766
C 7.592181 8.312363 4.651740
C 6.979393 7.421910 4.871978
C 7.892478 7.075183 3.874970
C 8.573327 7.665027 3.756158
C 8.436223 8.357265 4.539036
C 7.947918 7.325924 4.646176
C 0.027228 0.259644 5.533584
C 0.539059 0.987425 5.494150
C 0.493434 1.590981 6.263414
C 0.012327 0.529181 6.129426
C 1.217484 0.186668 5.427932
C 1.683599 0.790303 5.455777
C 1.605284 1.577626 6.381219
C 1.076545 0.474149 6.298604
C 2.068966 0.136229 5.581077
C 2.445415 0.808886 5.576370
C 2.609724 1.518775 6.258617
C 1.991410 0.794569 6.269829
C 3.121473 0.020298 5.529909
C 3.557644 1.057705 5.569796
C 3.476373 1.474357 6.400066
C 2.943932 0.567603 6.277745
C 3.955100 0.049403 5.320349
C 4.600976 0.998279 5.692928
C 4.454155 1.445977 6.328431
C 3.888925 0.618953 6.254544
C 4.948651 0.115582 5.493512
C 5.720623 0.966116 5.469558
C 5.519052 1.638456 6.337526
C 5.051168 0.742684 6.245497
C 5.797302 0.027061 5.441895
C 6.360112 0.883110 5.573799
C 6.496793 1.269859 6.207321
C 6.058871 0.562929 6.331234
C 7.139004 0.024293 5.543942
C 7.454269 1.025294 5.595224
C 7.401322 1.329361 6.315570
C 6.906930 0.426733 6.359901
C 7.893281 0.094856 5.566521
C 8.608661 0.789599 5.469792
C 8.605722 1.518222 6.391140
C 8.187367 0.629023 6.488608
C 0.038793 1.591840 5.506796
C 0.682353 2.624175 5.486563
C 0.412894 3.213164 6.259462
C 0.062311 2.308901 6.259584
C 1.137215 1.671602 5.564321
C 1.552332 2.736311 5.587287
C 1.551595 3.254082 6.120489
C 0.974693 2.200939 6.246443
C 1.924092 1.726711 5.379768
C 2.444734 2.622019 5.653188
C 2.590075 3.205312 6.418237
C 1.894133 2.234842 6.343168
C 3.060425 1.653512 5.697144
C 3.518141 2.841240 5.441742
C 3.434378 3.014262 6.329000
C 3.160922 2.373252 6.199057
C 3.927977 1.644062 5.512343
C 4.613179 2.761464 5.564435
C 4.536241 3.282273 6.366859
C 3.796305 2.322199 6.393581
C 4.840813 1.789879 5.489074
C 5.401853 2.556903 5.702192
C 5.502309 3.082996 6.459252
C 4.901104 2.306407 6.232977
C 5.920894 1.570108 5.325761
C 6.316117 2.537494 5.440100
C 6.335098 3.084537 6.249107
C 5.893394 2.219436 6.272019
C 7.141646 1.757553 5.423986
C 7.567701 2.500002 5.573682
C 7.491847 3.105130 6.340561
C 6.940864 2.236267 6.535358
C 7.815145 1.635011 5.563548
C 8.680896 2.699560 5.424487
C 8.382996 3.212426 6.510405
C 7.831442 2.342486 6.507625
C 0.142595 3.515625 5.629040
C 0.690002 4.330097 5.590443
C 0.530204 4.707940 6.335125
C 0.044925 4.113556 6.203473
C 0.950489 3.577220 5.553000
C 1.532157 4.215347 5.460787
C 1.423467 5.017833 6.123262
C 0.891907 4.096296 6.426336
C 1.852114 3.566023 5.593765
C 2.682278 4.281486 5.543800
C 2.573798 5.076908 6.245046
C 1.933747 3.971000 6.340334
C 3.054904 3.302363 5.457277
C 3.392037 4.213984 5.546699
C 3.464503 5.021257 6.293680
C 3.017173 4.015796 6.359084
C 3.927243 3.399418 5.519091
C 4.694937 4.244600 5.410071
C 4.441314 5.018744 6.291992
C 4.102504 4.166376 6.441933
C 4.838830 3.430202 5.410221
C 5.378401 4.166403 5.476297
C 5.540774 5.051910 6.195694
C 4.903960 3.993458 6.488962
C 5.937030 3.701840 5.552953
C 6.481455 4.479489 5.528797
C 6.655650 4.862820 6.351914
C 6.121049 4.129860 6.271923
C 6.957792 3.377348 5.655386
C 7.467882 4.413020 5.383265
C 7.409593 4.956682 6.469365
C 6.841502 3.819761 6.303489
C 8.082178 3.560670 5.577108
C 8.633707 4.416042 5.546903
C 8.348222 4.934793 6.443008
C 7.994471 3.978720 6.431278
C 0.025288 5.361703 5.507071
C 0.408319 6.073358 5.623947
C 0.303550 6.700879 6.244009
C 0.045689 5.966559 6.262579
C 1.046029 5.281359 5.494742
C 1.696489 6.189554 5.528167
C 1.545174 6.563509 6.314069
C 0.805061 5.700180 6.352389
C 2.076324 5.005077 5.522843
C 2.522325 6.154386 5.703281
C 2.650691 6.574458 6.273272
C 2.024113 5.801999 6.526882
C 3.093432 5.311645 5.470580
C 3.310530 6.225687 5.482952
C 3.601874 6.477779 6.401533
C 3.098466 5.885126 6.426690
C 4.185222 5.104278 5.437852
C 4.579762 5.905501 5.420962
C 4.518084 6.548195 6.453888
C 4.085226 5.848806 6.268733
C 4.954529 5.327365 5.553549
C 5.653602 6.197853 5.479898
C 5.431894 6.734518 6.337738
C 5.088142 5.598917 6.337032
C 6.059378 5.181709 5.432703
C 6.608728 5.938335 5.624590
C 6.561063 6.508988 6.338069
C 5.778293 5.710703 6.443163
C 6.949827 5.250448 5.734893
C 7.471118 5.990914 5.632811
C 7.344317 6.661018 6.460457
C 6.962620 5.905003 6.237872
C 7.883698 5.147076 5.525033
C 8.483891 6.064665 5.537105
C 8.432600 6.473238 6.314492
C 8.145379 5.871676 6.201695
C 0.046247 7.098413 5.522340
C 0.597956 7.969697 5.652126
C 0.605149 8.295040 6.235405
C 0.030089 7.553687 6.403847
C 0.991783 6.899800 5.602471
C 1.425184 7.887347 5.687422
C 1.668210 8.509680 6.450899
C 1.050762 7.328026 6.415948
C 2.021078 7.032027 5.687118
C 2.626804 7.746914 5.400701
C 2.623653 8.280565 6.327770
C 1.899208 7.479221 6.229238
C 2.817666 6.876943 5.339804
C 3.271170 7.770404 5.483957
C 3.591631 8.231045 6.200536
C 2.948380 7.373608 6.381122
C 3.996165 6.992989 5.333773
C 4.574371 7.789207 5.399763
C 4.476515 8.450286 6.487671
C 4.018506 7.539442 6.268822
C 4.955927 6.953917 5.490431
C 5.464479 7.670965 5.688925
C 5.397327 8.381784 6.402498
C 5.018556 7.422678 6.481012
C 6.094261 6.922893 5.314827
C 6.511553 7.820225 5.495239
C 6.575573 8.282426 6.335060
C 5.884489 7.487232 6.454404
C 7.016703 7.019025 5.429441
C 7.347955 7.715809 5.333016
C 7.511573 8.368647 6.389915
C 7.132836 7.510622 6.459260
C 7.961090 7.038002 5.621105
C 8.437359 7.648802 5.554145
C 8.647948 8.358268 6.274310
C 7.842750 7.524259 6.232719
C 0.132064 0.172468 7.229364
C 0.463268 0.675741 7.183299
C 0.397905 1.554738 7.916727
C 0.026135 0.537681 8.147051
C 1.059414 0.013688 7.266596
C 1.543230 0.876332 6.969073
C 1.587700 1.613028 7.830840
C 1.023119 0.631468 7.985227
C 2.138660 0.072964 7.201238
C 2.556311 0.769260 7.166417
C 2.576716 1.586535 7.916779
C 1.957311 0.662440 7.841410
C 2.961269 0.116585 7.074656
C 3.710647 0.963494 7.178792
C 3.496708 1.317074 7.728800
C 2.980063 0.670883 8.136339
C 4.007575 0.080178 6.981282
C 4.654793 0.955831 7.051095
C 4.412369 1.445397 8.050035
C 4.095631 0.441198 7.860298
C 4.983185 0.083899 7.209102
C 5.399571 1.088035 7.147631
C 5.404585 1.384628 7.813722
C 4.974930 0.468899 8.126523
C 6.169999 0.105801 7.144315
C 6.567848 0.918740 7.191456
C 6.334384 1.515999 7.917791
C 5.872300 0.452285 8.100819
C 7.130006 0.185700 7.048978
C 7.583232 0.913934 7.038878
C 7.525694 1.520913 7.842872
C 6.933554 0.519794 7.906814
C 7.991840 0.043606 7.130067
C 8.615443 0.935936 7.175300
C 8.410828 1.552273 7.857166
C 7.982040 0.721320 7.974992
C 0.185714 1.767149 7.239847
C 0.513952 2.448222 7.000015
C 0.453905 3.186214 8.037129
C 0.026579 2.367071 7.920948
C 0.973969 1.833195 7.063581
C 1.380107 2.739543 7.130223
C 1.330120 3.186342 7.894001
C 1.068983 2.546633 7.900783
C 1.846727 1.678608 7.120522
C 2.504554 2.714418 7.328576
C 2.375203 3.024778 8.032774
C 1.907974 2.362682 8.008016
C 3.018773 1.786095 7.026277
C 3.590012 2.394122 7.036602
C 3.583764 3.156373 7.919170
C 3.202052 2.219728 7.989831
C 3.975901 1.823882 7.216409
C 4.513437 2.742067 7.177381
C 4.427666 3.197320 8.074127
C 3.917754 2.292667 7.862644
C 5.032809 1.620244 7.151342
C 5.442765 2.659323 7.222968
C 5.399473 3.191847 7.852747
C 4.833360 2.281251 7.874368
C 5.786419 1.624536 7.014286
C 6.620927 2.551809 7.084144
C 6.332325 3.173977 7.841579
C 5.818503 2.312219 7.966301
C 7.183651 1.735604 7.084463
C 7.494390 2.716291 7.099115
C 7.408397 3.318766 7.855997
C 6.999367 2.517026 7.965885
C 7.852562 1.880221 7.234262
C 8.493750 2.574702 7.180774
C 8.376631 3.266040 7.931788
C 8.114749 2.415777 8.073189
C 0.097379 3.199755 7.142395
C 0.600424 4.291951 7.167090
C 0.571252 4.817833 8.058433
C 0.145520 4.173325 7.926690
C 0.982423 3.462548 7.032241
C 1.579185 4.367084 6.947010
C 1.415366 4.753709 7.961986
C 1.095396 3.983533 7.873927
C 2.101310 3.344740 7.134903
C 2.506745 4.328999 6.958474
C 2.542262 4.824817 8.126946
C 1.892091 4.044387 7.789991
C 3.129724 3.546326 7.160673
C 3.509668 4.541332 7.151096
C 3.491637 4.974182 8.150987
C 2.921318 4.099303 7.836079
C 3.969071 3.564163 7.155868
C 4.668667 4.281314 7.122355
C 4.546884 5.120471 8.107788
C 4.065953 4.208767 7.935980
C 4.941853 3.624516 7.055140
C 5.361011 4.289493 7.141310
C 5.469196 4.806778 8.037237
C 4.933803 3.971096 7.831498
C 6.181491 3.354420 7.024361
C 6.664274 4.242590 7.261419
C 6.587124 4.998777 8.209607
C 6.056373 4.210880 7.902521
C 6.955247 3.499118 7.220144
C 7.357173 4.396098 7.201153
C 7.377552 5.099807 8.057349
C 6.886731 3.868269 7.978060
C 7.982030 3.390557 7.179837
C 8.466009 4.489047 7.146875
C 8.412854 4.770477 7.768550
C 7.932502 4.097049 7.990864
C 0.048494 4.992592 7.121870
C 0.483378 6.108238 7.137022
C 0.562200 6.636596 8.103831
C 0.012957 5.836075 7.865021
C 0.933191 5.275242 7.253198
C 1.416484 6.116121 7.251373
C 1.401825 6.731528 8.023983
C 1.180998 5.828139 7.968692
C 2.210421 5.264741 7.203645
C 2.597819 5.921630 7.061891
C 2.584668 6.610168 8.019647
C 1.984390 5.897506 7.957366
C 2.914739 5.115835 7.291784
C 3.558709 6.029414 7.124715
C 3.521173 6.450632 8.016142
C 2.981052 5.658523 7.897312
C 3.986772 5.224565 7.271917
C 4.566604 6.049419 7.147450
C 4.729374 6.620765 7.969869
C 4.076077 5.669911 7.871983
C 5.022705 5.114858 7.092647
C 5.498042 5.972320 7.233771
C 5.579789 6.761439 8.068805
C 5.083301 5.706614 7.969130
C 5.906811 5.197399 7.074942
C 6.560263 5.905874 7.120368
C 6.640735 6.541615 7.911122
C 6.077983 5.881372 7.963893
C 6.934674 5.406768 7.145103
C 7.562414 5.967988 7.198638
C 7.380101 6.545874 7.798552
C 7.129032 5.909610 7.986496
C 8.028771 5.187047 7.101535
C 8.578416 5.866955 7.008838
C 8.506673 6.784877 7.887370
C 7.959638 5.863582 7.995878
C 0.037111 6.906710 7.151366
C 0.465806 7.886037 7.184095
C 0.578281 8.494044 7.904507
C 0.141399 7.511518 8.030946
C 0.967303 6.817330 7.186527
C 1.613460 7.820946 7.272045
C 1.474385 8.580490 8.017513
C 1.086373 7.663918 8.058676
C 1.879031 6.930240 7.339105
C 2.478684 7.895615 7.241735
C 2.702272 8.511320 7.815209
C 1.963712 7.337254 7.896507
C 2.985900 6.811412 6.975732
C 3.349906 7.782280 6.979290
C 3.659532 8.247304 7.897495
C 2.847002 7.562628 8.000465
C 3.989747 6.876885 7.322416
C 4.521101 7.870652 7.333097
C 4.501644 8.421574 7.890118
C 3.967235 7.498508 8.137267
C 5.035726 6.804883 7.240614
C 5.373145 7.635552 7.188800
C 5.380957 8.183002 7.920433
C 4.829038 7.368523 7.872480
C 6.033778 6.844324 7.304769
C 6.461939 7.793863 7.038977
C 6.574493 8.452770 7.878103
C 5.871018 7.496658 7.940658
C 6.930082 7.103499 7.294190
C 7.336403 7.885869 7.290066
C 7.717895 8.368690 8.012170
C 7.179688 7.481958 7.849860
C 7.908326 6.855188 6.953111
C 8.387472 7.863763 7.242660
C 8.595716 8.335116 7.881914
C 7.874235 7.641601 8.060924
C 0.018291 0.164992 8.641845
C 0.554616 0.732685 8.796799
C 0.669513 1.335056 9.555681
C 0.206991 0.431263 9.593277
C 0.923324 0.136954 8.512600
C 1.494197 1.045990 8.679318
C 1.339596 1.435811 9.447868
C 0.864143 0.432078 9.551895
C 1.909904 0.100198 8.983539
C 2.604264 0.729097 8.874058
C 2.514227 1.458808 9.459083
C 1.859467 0.712232 9.567921
C 3.107009 0.034487 8.897712
C 3.500405 0.703707 8.856084
C 3.514875 1.312461 9.573313
C 3.039368 0.532100 9.385409
C 4.154392 0.092248 8.843367
C 4.545109 0.739183 8.690107
C 4.552439 1.509743 9.291836
C 4.139604 0.824863 9.559065
C 4.922267 0.010239 9.057621
C 5.536041 0.726359 8.774234
C 5.515008 1.268176 9.553967
C 4.888394 0.526944 9.410204
C 5.979000 0.018989 8.699679
C 6.518674 0.930892 8.831016
C 6.596241 1.265499 9.540194
C 6.119472 0.874023 9.505622
C 6.756556 0.051231 8.860697
C 7.539223 1.061899 8.942596
C 7.598512 1.315390 9.503072
C 6.857796 0.636738 9.425996
C 7.900607 0.086995 8.717223
C 8.494803 0.701685 8.769563
C 8.666096 1.455487 9.465189
C 8.097983 0.280716 9.570972
C 0.148785 1.668628 8.914174
C 0.329088 2.625648 8.850343
C 0.468956 3.300718 9.355462
C 0.022016 2.322194 9.391169
C 1.082191 1.908314 8.936106
C 1.454389 2.504323 8.749536
C 1.636393 3.106590 9.557476
C 1.125345 2.109389 9.566730
C 1.884357 1.935823 8.948142
C 2.603968 2.580405 8.878545
C 2.629383 3.173637 9.562521
C 2.050178 2.514723 9.570356
C 3.049775 1.775269 8.914736
C 3.644995 2.690007 8.847757
C 3.633064 3.054206 9.508543
C 2.992583 2.485491 9.529979
C 4.129728 1.640261 8.740670
C 4.513000 2.586340 8.762761
C 4.416535 3.366596 9.534504
C 3.962524 2.446308 9.452284
C 4.871222 1.643794 8.793385
C 5.498594 2.809096 8.785190
C 5.672080 3.116958 9.522488
C 4.974273 2.260535 9.547209
C 6.071892 1.682772 8.656408
C 6.508147 2.669364 8.725100
C 6.396474 3.186079 9.593387
C 6.029803 2.104428 9.551736
C 7.163884 1.786511 8.651104
C 7.479033 2.659685 8.906013
C 7.350485 3.068831 9.528492
C 6.879852 2.225983 9.576479
C 8.198238 1.545853 8.795574
C 8.641049 2.655443 8.801261
C 8.283017 3.263069 9.504222
C 7.901643 2.406005 9.516968
C 0.069774 3.540301 8.718631
C 0.510101 4.280503 8.972001
C 0.366647 4.899049 9.515815
C 0.051610 4.116609 9.562450
C 1.055846 3.402602 8.875996
C 1.727509 4.293099 8.728291
C 1.558194 4.996079 9.469677
C 0.900936 3.967232 9.433006
C 1.885374 3.586539 8.748610
C 2.447730 4.307252 8.803292
C 2.466508 4.990050 9.486325
C 1.906380 3.874330 9.494760
C 2.903926 3.333479 8.792667
C 3.537192 4.563082 8.696157
C 3.517226 5.026702 9.555041
C 2.795163 4.108474 9.429339
C 4.116280 3.505155 8.876243
C 4.526870 4.496781 8.661973
C 4.672246 4.978193 9.548716
C 4.247717 4.040080 9.541156
C 5.080356 3.335956 8.778160
C 5.486442 4.301911 8.528901
C 5.410820 4.937413 9.546349
C 5.275565 4.224856 9.535755
C 5.884766 3.366672 8.692850
C 6.346053 4.304737 8.699724
C 6.354740 5.029162 9.549346
C 6.142357 4.046136 9.456747
C 7.145412 3.483224 8.738233
C 7.626213 4.247308 8.772836
C 7.535161 4.632894 9.499431
C 6.962175 4.059433 9.361828
C 8.050684 3.424968 8.917250
C 8.404186 4.206254 8.731373
C 8.540755 4.964103 9.587776
C 7.823059 4.038547 9.545109
C 0.115829 5.190637 8.954359
C 0.402498 6.020656 8.590084
C 0.552045 6.496763 9.406773
C 0.028715 5.643783 9.330405
C 1.021061 5.152850 8.554001
C 1.615871 6.142550 8.944006
C 1.594362 6.706320 9.471864
C 1.029954 5.875542 9.442850
C 2.038784 5.143790 8.841252
C 2.542127 5.895735 8.891693
C 2.445794 6.452977 9.523125
C 2.218573 5.781084 9.553848
C 2.939880 5.246648 8.824606
C 3.582472 5.924369 8.822533
C 3.535098 6.616648 9.534395
C 2.754176 5.691816 9.506403
C 4.007234 5.018257 8.610901
C 4.456947 6.192530 8.635959
C 4.411391 6.466898 9.536640
C 3.846829 5.825081 9.532710
C 5.054666 5.096526 8.754538
C 5.370323 6.126544 8.581070
C 5.626370 6.600280 9.371249
C 4.892762 5.863002 9.524057
C 5.991982 5.079796 8.907769
C 6.418169 6.108711 8.862395
C 6.338296 6.876808 9.388884
C 6.134226 5.718793 9.482284
C 6.921264 5.319415 8.764514
C 7.636558 6.028518 8.814873
C 7.682064 6.671579 9.582425
C 6.904111 5.662570 9.431348
C 7.861113 5.225444 8.627056
C 8.439407 5.944022 8.711434
C 8.624200 6.605124 9.507583
C 7.952965 5.988694 9.493601
C 0.071605 6.876596 8.604047
C 0.559589 7.831957 8.881931
C 0.409762 8.323961 9.562906
C 0.070547 7.779804 9.463602
C 0.813973 6.865762 8.837120
C 1.427510 7.891192 8.821655
C 1.569398 8.436584 9.541377
C 1.079208 7.355522 9.506893
C 1.852668 6.925674 8.952237
C 2.604304 7.908166 8.918858
C 2.684913 8.551362 9.570979
C 1.887732 7.534010 9.400291
C 2.996711 6.940413 8.750325
C 3.690113 7.954838 8.829223
C 3.406988 8.381957 9.407904
C 3.021575 7.538683 9.433050
C 3.819129 6.976906 8.719249
C 4.496191 7.965009 8.668051
C 4.340915 8.382161 9.589107
C 4.122120 7.367468 9.580848
C 4.798179 6.900898 8.733231
C 5.559474 7.619664 8.778553
C 5.476428 8.243868 9.491923
C 5.074040 7.489147 9.331794
C 6.188663 6.925424 8.671737
C 6.459485 7.631119 8.762525
C 6.548586 8.148313 9.514805
C 6.073582 7.658212 9.569640
C 7.145319 6.874061 8.761564
C 7.365320 7.791419 8.640884
C 7.394011 8.352788 9.582679
C 7.235165 7.533038 9.385079
C 7.941634 6.876901 8.651571
C 8.597905 7.810887 8.806064
C 8.499795 8.295259 9.558926
C 8.093873 7.484764 9.586049
2160
Frame 9/10
C 0.003430 0.080711 0.255615
C 0.620732 1.021695 0.038570
C 0.558273 1.425766 0.764048
C 0.037167 0.552359 0.663271
C 0.670908 0.282016 0.094044
C 1.479939 1.042431 0.182230
C 1.523162 1.532771 0.715693
C 0.941270 0.384545 0.761613
C 2.231026 0.020016 0.154379
C 2.480478 1.030905 0.268808
C 2.289217 1.362925 0.913003
C 2.130130 0.714702 0.801517
C 2.758021 0.004278 0.146957
C 3.515440 0.886542 0.155560
C 3.476955 1.494164 0.697808
C 2.948685 0.584288 0.833444
C 4.181665 0.172627 0.023358
C 4.471002 0.856573 0.062683
C 4.509767 1.278470 0.659807
C 3.888156 0.639144 1.011827
C 5.266703 0.177773 0.025241
C 5.467273 0.635105 0.117842
C 5.254513 1.152215 0.780427
C 4.935462 0.423012 0.938146
C 5.735606 0.126270 0.193265
C 6.679695 0.775987 0.022444
C 6.361346 1.456762 0.682616
C 5.987456 0.653152 0.971175
C 7.227273 0.035383 0.107413
C 7.613213 0.789187 0.169883
C 7.333006 1.482298 0.792158
C 6.827471 0.552010 0.644157
C 8.198780 0.011894 0.062743
C 8.450057 0.932671 0.026540
C 8.298116 1.479144 0.746103
C 8.084119 0.820242 0.896838
C 0.004460 1.601785 0.286499
C 0.639311 2.511497 0.081004
C 0.316954 3.157593 0.611591
C 0.147353 2.302621 0.686820
C 1.165037 1.894464 0.126327
C 1.723154 2.695495 0.214967
C 1.471280 3.099353 0.853030
C 1.087170 2.160534 1.035883
C 2.102599 1.845377 0.006232
C 2.579734 2.718551 0.047419
C 2.504809 3.227155 0.890174
C 1.807161 2.328487 0.911022
C 2.920750 1.638353 0.014453
C 3.604649 2.868181 0.114764
C 3.589611 3.131470 0.594703
C 3.170463 2.411299 1.031581
C 3.898656 1.668646 0.188887
C 4.366399 2.609702 0.107523
C 4.683664 3.010766 0.727215
C 3.947097 2.407996 0.780381
C 4.927951 1.402021 0.096917
C 5.581720 2.596351 0.016839
C 5.613998 3.192353 1.021565
C 4.986380 2.294962 0.724481
C 5.949916 1.630687 0.083118
C 6.510812 2.578143 0.170611
C 6.522429 3.032583 0.901942
C 6.277621 2.338273 0.798185
C 7.118689 1.943410 0.028192
C 7.273520 2.490152 0.038485
C 7.405166 3.144106 0.840178
C 7.066152 2.176953 0.734187
C 8.118131 1.924740 0.114006
C 8.241185 2.445981 0.083858
C 8.475072 3.172585 0.957565
C 7.715645 2.283159 0.929618
C 0.053626 3.250722 0.035132
C 0.559338 4.276539 0.159181
C 0.344225 4.940079 0.850735
C 0.017057 3.927707 1.054969
C 0.863302 3.440464 0.256759
C 1.310644 4.296727 0.013489
C 1.611857 4.788286 0.758210
C 0.914178 3.991457 0.683679
C 2.086050 3.650611 0.103357
C 2.356982 4.208453 0.051873
C 2.475283 4.770898 0.937314
C 2.111589 4.154412 0.980554
C 2.782336 3.589577 0.140178
C 3.360164 4.249267 0.021909
C 3.687784 4.974701 0.748777
C 3.007859 4.131998 0.751029
C 3.773064 3.361987 0.217071
C 4.651345 4.290718 0.063440
C 4.359665 4.841377 0.679069
C 4.228446 4.009675 0.747818
C 5.075891 3.543427 0.016585
C 5.336325 4.364100 0.137673
C 5.626090 4.866079 0.659850
C 4.750255 4.240055 0.904872
C 6.072403 3.356912 0.075470
C 6.732797 4.327746 0.008216
C 6.392178 4.921770 0.654819
C 6.031060 3.849988 0.959536
C 7.084203 3.303331 0.136204
C 7.456524 4.193651 0.060382
C 7.416447 4.937275 0.794504
C 6.897475 3.832316 0.812406
C 7.924655 3.347378 0.074231
C 8.475790 4.403770 0.156579
C 8.636338 5.000117 0.916515
C 7.898298 4.208067 0.705181
C 0.100829 5.045487 0.111275
C 0.476901 5.779131 0.094665
C 0.426813 6.850304 0.779937
C 0.047601 5.608442 0.936496
C 1.134949 5.059614 0.087273
C 1.460523 5.957637 0.069677
C 1.618428 6.782887 0.772996
C 0.874287 5.690925 0.772667
C 1.921698 5.359651 0.020512
C 2.613194 6.334849 0.009851
C 2.557243 6.712293 0.745814
C 1.988110 5.857248 0.881875
C 3.106305 4.980422 0.053969
C 3.418644 6.007339 0.144410
C 3.447036 6.770489 0.552903
C 2.914071 5.869192 0.767052
C 3.887469 4.990135 0.131005
C 4.256465 6.114261 0.021043
C 4.491633 6.706406 0.730369
C 4.122219 5.676722 0.961041
C 5.205214 5.268229 0.064056
C 5.716959 5.993826 0.236732
C 5.574895 6.693178 0.867771
C 4.954969 5.868532 0.603724
C 6.038110 5.363973 0.091597
C 6.640508 6.196185 0.147042
C 6.411906 6.904902 0.795046
C 6.034617 5.743443 0.976533
C 7.022863 5.217543 0.037312
C 7.349398 6.099292 0.020965
C 7.296463 6.595708 0.831668
C 6.911859 5.647395 0.929157
C 8.108846 5.431982 0.169322
C 8.519633 6.149870 0.037988
C 8.463611 6.518837 0.688928
C 8.072292 5.861053 0.787423
C 0.106926 6.684129 0.010104
C 0.416536 7.757454 0.154236
C 0.571472 8.418829 0.678738
C 0.166593 7.512793 0.546030
C 1.217014 6.989578 0.070991
C 1.545336 7.882892 0.177520
C 1.612412 8.246249 0.694896
C 1.100514 7.593953 0.686388
C 1.975065 6.870535 0.085008
C 2.715336 7.916908 0.091839
C 2.257339 8.521151 0.728318
C 1.857622 7.529040 0.695660
C 3.070256 7.010794 0.157680
C 3.400430 7.869164 0.015086
C 3.311879 8.494590 0.715615
C 2.903406 7.474346 0.560067
C 4.051666 7.113768 0.088935
C 4.434053 7.861673 0.155832
C 4.474578 8.444686 0.780435
C 4.047991 7.510177 1.070537
C 5.027252 7.119288 0.033072
C 5.712218 7.922896 0.125541
C 5.569169 8.350820 0.732792
C 5.126684 7.451197 0.852162
C 6.005161 7.035407 0.107658
C 6.381047 7.959975 0.126432
C 6.590130 8.277606 0.661341
C 6.058769 7.603689 0.706867
C 6.880813 6.770995 0.048176
C 7.714573 8.001447 0.108639
C 7.238192 8.405964 0.673624
C 6.903288 7.419730 0.927740
C 7.901023 7.177500 0.016774
C 8.495513 7.615766 0.169619
C 8.672409 8.317512 0.940660
C 7.879558 7.345584 0.972362
C 0.025365 0.076420 1.864564
C 0.334986 0.969193 1.459942
C 0.528591 1.283029 2.247002
C 0.095682 0.559596 2.353572
C 0.919175 0.124152 1.468057
C 1.364185 0.718910 1.444423
C 1.613825 1.480913 2.587691
C 1.171746 0.698772 2.230711
C 2.024598 0.029153 1.636437
C 2.365920 0.834703 1.828401
C 2.550262 1.300342 2.412384
C 1.911179 0.760965 2.589933
C 3.039116 0.122234 1.804426
C 3.534134 0.971313 1.761501
C 3.500822 1.563323 2.430639
C 3.186487 0.695242 2.517742
C 3.957339 0.153470 1.749307
C 4.526960 0.865007 1.798357
C 4.442066 1.545930 2.387116
C 4.228590 0.556845 2.382852
C 5.024860 0.147411 1.595013
C 5.428037 0.827906 1.662051
C 5.369993 1.483477 2.437268
C 4.804633 0.587451 2.548890
C 6.050687 0.012159 1.436152
C 6.408023 0.877483 1.530366
C 6.457480 1.253821 2.384819
C 5.989120 0.437564 2.468343
C 6.856650 0.052668 1.489031
C 7.399426 1.012054 1.476464
C 7.267985 1.400714 2.514443
C 7.081490 0.521386 2.445186
C 8.159783 0.148300 1.396435
C 8.503278 0.991029 1.838100
C 8.534979 1.550350 2.322183
C 7.898811 0.424341 2.403121
C 0.069387 1.923152 1.697209
C 0.533925 2.803903 1.442710
C 0.553005 3.146452 2.321432
C 0.025639 2.210866 2.323160
C 1.083893 1.951183 1.651025
C 1.549801 2.619422 1.824080
C 1.459870 3.057439 2.531755
C 0.866068 2.220174 2.371581
C 2.175264 1.615137 1.691514
C 2.383916 2.517943 1.548162
C 2.474055 3.109810 2.628457
C 1.869251 2.450303 2.459976
C 2.985401 1.704084 1.651257
C 3.696346 2.449736 1.658095
C 3.619874 3.203035 2.394784
C 3.129302 2.418304 2.616707
C 4.007966 1.759651 1.415499
C 4.381645 2.669082 1.470857
C 4.647953 3.098408 2.344309
C 3.919461 2.404226 2.601999
C 5.233424 1.624254 1.654387
C 5.511234 2.505334 1.398297
C 5.454082 2.975572 2.444428
C 5.044973 2.270595 2.241114
C 5.921023 1.912923 1.641189
C 6.373283 2.868638 1.623498
C 6.718646 3.090288 2.327539
C 6.154291 2.270027 2.332777
C 7.191675 1.519538 1.754090
C 7.376268 2.571456 1.724338
C 7.492270 3.153081 2.348404
C 6.998693 2.403303 2.286532
C 8.016429 1.706849 1.460164
C 8.545194 2.588432 1.607720
C 8.312688 3.092575 2.408931
C 7.841950 2.168770 2.356371
C 0.131958 3.614430 1.593817
C 0.411928 4.411026 1.899370
C 0.330048 4.864247 2.264560
C 0.037563 4.059971 2.672900
C 0.886252 3.557640 1.622855
C 1.605634 4.231347 1.375538
C 1.591744 4.803294 2.568370
C 1.223776 3.861183 2.421373
C 2.123307 3.465159 1.625514
C 2.601284 4.515617 1.482707
C 2.424334 4.987478 2.616075
C 2.006454 4.262764 2.367572
C 3.008706 3.471447 1.662782
C 3.579271 4.590995 1.754807
C 3.449371 5.045896 2.414885
C 2.891237 4.092541 2.620049
C 4.014860 3.391197 1.490781
C 4.479044 4.368255 1.663488
C 4.513540 4.961135 2.292871
C 3.859403 3.954532 2.575336
C 4.973237 3.579005 1.516496
C 5.479768 4.215712 1.721838
C 5.254612 4.924864 2.527491
C 5.225863 4.034409 2.398932
C 5.914689 3.573427 1.595690
C 6.405993 4.188436 1.542653
C 6.661994 5.042576 2.413959
C 6.245443 4.005048 2.465934
C 6.996135 3.343081 1.816263
C 7.490699 4.321815 1.478704
C 7.542651 5.092788 2.469018
C 6.915059 3.951748 2.507559
C 7.946935 3.545149 1.631470
C 8.581156 4.307935 1.708420
C 8.493318 4.806761 2.396748
C 8.105626 3.916191 2.455945
C 0.252044 5.180080 1.342269
C 0.299598 6.119182 1.580062
C 0.397610 6.738237 2.522526
C 0.041057 5.907287 2.410990
C 0.948526 5.063151 1.771052
C 1.475191 6.114520 1.856901
C 1.321511 6.735483 2.606295
C 1.036767 5.903221 2.576931
C 2.056834 5.239337 1.478617
C 2.425132 6.199571 1.795887
C 2.346121 6.644454 2.583701
C 2.098702 5.668332 2.353687
C 3.075019 5.114664 1.466160
C 3.497449 5.931465 1.748381
C 3.341769 6.684247 2.254479
C 3.068305 5.947555 2.414080
C 4.049226 5.068111 1.661461
C 4.577458 5.912866 1.791652
C 4.386104 6.798686 2.550205
C 4.048664 5.923040 2.264311
C 5.258747 5.218503 1.630997
C 5.464582 6.142905 1.660241
C 5.407045 6.573795 2.663125
C 4.897255 5.667620 2.462444
C 6.133423 5.346378 1.529917
C 6.447945 6.050506 1.920897
C 6.625615 6.561586 2.404431
C 6.140207 5.777861 2.633313
C 6.943446 5.073398 1.752759
C 7.447261 6.190095 1.487992
C 7.705340 6.609383 2.505924
C 6.940545 5.707086 2.361036
C 8.112312 5.120063 1.637609
C 8.576648 6.086990 1.539333
C 8.710284 6.716936 2.549331
C 8.162271 5.731843 2.324490
C 0.057220 6.945865 1.560004
C 0.460734 7.943376 1.451742
C 0.397493 8.441817 2.379956
C 0.060082 7.429675 2.684541
C 0.969057 6.983855 1.351680
C 1.688871 7.827200 1.865782
C 1.390495 8.423051 2.696935
C 0.963473 7.221257 2.447969
C 2.020080 7.026717 1.835395
C 2.368663 7.672159 1.535150
C 2.329026 8.540306 2.514322
C 2.162084 7.554528 2.502898
C 2.964350 6.913874 1.807920
C 3.287687 7.800691 1.472297
C 3.650861 8.484827 2.480202
C 3.029783 7.585159 2.514049
C 3.909990 6.998739 1.356191
C 4.372778 7.699438 1.459863
C 4.657957 8.415683 2.409641
C 3.965286 7.485984 2.431336
C 4.851213 7.069496 1.531759
C 5.610335 7.732882 1.820930
C 5.525991 8.614300 2.497607
C 5.045436 7.413334 2.530085
C 6.088003 6.929109 1.399618
C 6.291752 7.637554 1.565075
C 6.702379 8.363472 2.238310
C 6.160581 7.498506 2.432699
C 7.022983 6.976283 1.634576
C 7.481158 7.755780 1.792237
C 7.509149 8.465287 2.245100
C 6.918651 7.514330 2.412512
C 8.161595 6.936660 1.524732
C 8.425073 7.791465 1.602936
C 8.324406 8.171892 2.442773
C 8.007212 7.557021 2.582128
C 0.270616 0.092172 3.377518
C 0.671814 0.770485 3.218490
C 0.347501 1.588025 3.963219
C 0.060593 0.646858 3.989879
C 1.172518 0.194000 3.326777
C 1.469495 0.938098 3.390393
C 1.482356 1.466584 4.126633
C 1.091027 0.519685 4.230244
C 1.922327 0.235039 3.473057
C 2.451218 0.849214 3.172543
C 2.417774 1.266781 4.084586
C 1.870548 0.695774 4.009324
C 3.146495 0.018000 3.329347
C 3.553801 0.908709 3.532014
C 3.646503 1.606457 4.059615
C 2.980269 0.766574 4.170483
C 4.135705 0.067723 3.149169
C 4.689948 0.981590 3.355529
C 4.662823 1.451734 3.912473
C 3.981092 0.739560 4.026099
C 5.041960 0.091162 3.207600
C 5.451446 0.803428 3.395608
C 5.401564 1.603787 4.084214
C 4.948873 0.675723 3.860678
C 6.115722 0.113815 3.137435
C 6.548774 0.841268 3.231047
C 6.345044 1.642136 4.146926
C 5.955201 0.572699 3.895028
C 6.772205 0.045556 3.190728
C 7.407049 0.731829 3.109130
C 7.502615 1.270264 4.346969
C 6.976921 0.645847 4.124639
C 8.004557 0.177779 3.431978
C 8.618787 0.824351 3.411279
C 8.531954 1.390099 4.003716
C 7.802698 0.593268 4.002624
C 0.024782 1.511519 3.214010
C 0.625107 2.579333 3.322446
C 0.381129 3.149817 4.087268
C 0.145114 2.342353 3.697773
C 1.043704 1.854457 3.284103
C 1.480892 2.631215 2.990274
C 1.678652 3.158731 4.208386
C 0.997482 2.194872 3.989911
C 2.030506 1.688724 3.078192
C 2.540928 2.505913 3.142250
C 2.582325 3.234471 4.062070
C 1.857075 2.444535 4.027361
C 2.956048 1.953270 3.142127
C 3.625310 2.480661 3.363779
C 3.572007 3.199060 3.922601
C 2.987052 2.415571 4.077292
C 4.138288 1.685253 3.370222
C 4.299268 2.796861 3.181701
C 4.605134 3.199172 4.127923
C 3.895929 2.371911 4.285063
C 5.027932 1.901205 3.412272
C 5.298815 2.607612 3.441226
C 5.512423 3.051798 3.960917
C 5.049578 2.474083 4.037953
C 6.087575 1.782075 3.249569
C 6.555574 2.585046 3.296670
C 6.611498 3.163577 3.971133
C 6.248669 2.195687 4.009692
C 7.041944 1.825200 3.283833
C 7.646138 2.750095 3.406949
C 7.435291 3.348261 4.073559
C 7.198370 2.416095 4.094386
C 8.143351 1.715435 3.374285
C 8.410369 2.661067 3.482607
C 8.549855 3.355910 4.004182
C 7.878413 2.344810 4.250440
C 0.126245 3.690210 3.096771
C 0.374107 4.265761 3.066549
C 0.427200 5.173544 3.958299
C 0.211647 3.882687 4.136437
C 0.904973 3.652284 3.293505
C 1.416765 4.459693 3.180759
C 1.280812 5.121541 4.046052
C 1.043226 3.996992 4.212035
C 1.990008 3.625350 3.230790
C 2.613292 4.255259 3.099528
C 2.663098 4.846567 4.213236
C 1.879350 4.000318 4.197515
C 2.975033 3.387384 3.225212
C 3.457872 4.090552 3.103549
C 3.410759 5.011500 3.986385
C 3.124146 3.912848 3.970616
C 4.129268 3.350933 3.292982
C 4.615961 4.434769 3.298648
C 4.625212 4.731708 4.065508
C 3.770999 3.927550 4.114222
C 4.916138 3.526672 3.205771
C 5.371775 4.414701 3.447369
C 5.713680 5.079405 4.181921
C 5.016479 4.248666 3.989769
C 5.845185 3.511620 3.279124
C 6.301683 4.373389 3.508039
C 6.543673 4.724074 4.090248
C 6.070379 3.898037 4.249997
C 6.864808 3.391528 3.243190
C 7.587954 4.513594 3.165577
C 7.552682 4.815865 4.219168
C 6.788596 3.834290 4.038003
C 8.141531 3.458562 3.359059
C 8.598899 4.216084 3.414314
C 8.384428 4.929302 4.177436
C 8.189033 4.049608 3.938582
C 0.112073 5.197845 3.133698
C 0.616513 6.147709 3.170615
C 0.693119 6.457387 4.094216
C 0.027412 5.987466 3.984139
C 1.142644 5.138327 3.141358
C 1.576251 5.949097 3.297900
C 1.558750 6.652613 3.828708
C 0.872347 5.733305 4.161707
C 1.727650 5.255706 3.288247
C 2.445910 5.823863 3.217829
C 2.454806 6.595546 4.084202
C 1.911106 5.810845 4.237639
C 2.970221 5.379317 3.330547
C 3.557808 6.132313 3.244714
C 3.337015 6.688694 4.122225
C 2.926672 5.651412 4.033340
C 4.202665 5.255679 3.327392
C 4.348380 6.167861 3.376229
C 4.414345 6.610961 4.142027
C 4.084832 5.569853 4.155347
C 5.078165 5.326102 3.229620
C 5.468858 5.910382 3.297191
C 5.512334 6.448194 4.027142
C 4.985012 5.580549 4.019800
C 6.027520 5.324417 3.371851
C 6.480136 5.904386 3.350888
C 6.658822 6.528035 4.018855
C 6.134682 5.881355 4.090410
C 7.127317 5.038837 3.120110
C 7.693614 6.198372 3.268125
C 7.555167 6.571323 3.877890
C 7.066300 5.916195 4.013403
C 8.051046 5.084188 3.105118
C 8.622732 6.112934 3.390665
C 8.486498 6.618578 4.199595
C 7.918343 5.780922 4.199655
C 0.024416 6.823336 3.091216
C 0.576721 7.771802 3.131272
C 0.653050 8.211475 4.122884
C 0.258464 7.658684 4.108461
C 0.883160 6.930027 3.309476
C 1.380694 7.741196 3.129400
C 1.375944 8.323674 3.991758
C 1.286267 7.605226 4.152230
C 1.752524 6.912573 3.299340
C 2.320850 7.877332 3.364146
C 2.529784 8.338754 4.302738
C 1.971031 7.737411 4.163655
C 2.911273 6.807513 3.373979
C 3.603201 7.757758 3.289401
C 3.381539 8.397275 3.883136
C 3.039631 7.425939 4.336129
C 4.150302 6.998784 3.164622
C 4.563729 8.046037 3.373410
C 4.268397 8.280988 4.151819
C 3.853631 7.658524 4.035105
C 4.794631 6.968496 3.246226
C 5.420139 7.754663 3.083966
C 5.565545 8.263044 4.181045
C 5.009294 7.373942 4.222227
C 5.904438 6.742582 3.336895
C 6.499745 7.844229 3.259175
C 6.486981 8.511411 4.040287
C 6.090191 7.423769 4.204869
C 7.162522 6.823263 3.326258
C 7.426112 7.782131 3.191757
C 7.304010 8.434445 3.897496
C 6.967751 7.405248 4.216914
C 7.956014 6.842597 3.343802
C 8.751486 7.931765 3.307007
C 8.399592 8.328400 4.071565
C 7.790172 7.336861 4.203640
C 0.062872 0.162171 4.618114
C 0.447119 0.853605 5.059768
C 0.584353 1.482249 5.871491
C 0.169371 0.625243 5.725897
C 1.102921 0.015162 4.970168
C 1.733441 0.825141 4.850096
C 1.485115 1.298896 5.737746
C 1.054034 0.651772 5.900045
C 2.101455 0.055565 5.111188
C 2.543422 0.754306 5.001603
C 2.607624 1.288982 5.710279
C 2.129473 0.673839 5.851033
C 3.149360 0.198572 4.815838
C 3.499311 0.783871 5.031667
C 3.362815 1.403751 5.843018
C 2.992073 0.534544 5.657555
C 3.896509 0.062804 4.857113
C 4.427940 0.829104 5.023380
C 4.410718 1.678297 5.648016
C 4.154044 0.446566 5.826892
C 4.998935 0.035167 4.985691
C 5.642038 0.911476 4.847759
C 5.641282 1.550871 5.655472
C 5.210129 0.593984 5.713417
C 6.028786 0.002964 4.885075
C 6.331206 0.834815 4.729113
C 6.297817 1.477478 5.674816
C 6.081337 0.614166 5.739299
C 7.191624 0.070545 4.802241
C 7.501378 1.138877 4.926468
C 7.491362 1.571303 5.891388
C 6.915778 0.696050 5.852761
C 7.918284 0.058837 5.051545
C 8.381403 0.721246 4.944288
C 8.540470 1.542435 5.769529
C 7.829891 0.435643 5.820156
C 0.086411 1.938553 4.791038
C 0.439034 2.695515 4.979633
C 0.457654 2.970259 5.662214
C 0.082012 2.137382 5.612414
C 0.985921 1.827848 4.740831
C 1.668025 2.603362 4.850118
C 1.467667 3.288129 5.702722
C 1.125090 2.189559 5.804925
C 1.918073 1.809719 4.767541
C 2.355091 2.774636 4.834716
C 2.450285 3.286625 5.728451
C 2.181059 2.294505 5.514768
C 3.157914 1.817288 5.040787
C 3.403047 2.668454 4.997555
C 3.510224 3.279461 5.495773
C 2.779086 2.374545 5.690758
C 3.917205 1.651573 4.802145
C 4.399225 2.644985 5.054054
C 4.430973 3.204462 5.461127
C 3.808588 2.401013 5.627075
C 5.112585 1.925380 4.887179
C 5.433614 2.347651 4.907378
C 5.618402 3.239438 5.670004
C 5.013617 2.438825 5.769316
C 5.861688 1.794289 4.690396
C 6.379542 2.630005 5.061497
C 6.600785 3.099752 5.886217
C 6.144561 2.341809 5.911833
C 7.168368 1.708313 4.826308
C 7.521961 2.510289 5.095374
C 7.324911 3.152251 5.736249
C 7.105738 2.244442 5.562846
C 8.166955 1.710758 4.960489
C 8.628035 2.422434 4.977870
C 8.635948 3.069249 5.714264
C 7.904399 2.396525 5.785335
C 0.154681 3.514236 4.811490
C 0.565487 4.439237 4.663141
C 0.434565 4.720610 5.611259
C 0.016821 4.115230 5.759156
C 1.084140 3.477617 4.930621
C 1.524149 4.378779 5.051083
C 1.438814 5.091651 5.658988
C 1.228395 4.036265 5.677231
C 1.902265 3.438434 5.033561
C 2.598320 4.310428 4.706105
C 2.364773 4.943651 5.848712
C 2.017873 4.208107 5.656868
C 2.938340 3.616476 4.952494
C 3.336736 4.262896 4.879173
C 3.597477 4.976571 5.732157
C 2.998030 3.987469 5.600981
C 4.075295 3.582321 4.939407
C 4.531354 4.407596 4.789879
C 4.696676 4.964668 5.720993
C 4.082517 4.056635 5.952024
C 5.113214 3.551301 4.858416
C 5.686571 4.254311 4.875150
C 5.338518 5.001174 5.741637
C 4.970917 4.052499 5.709533
C 5.901107 3.397298 5.041883
C 6.656709 4.163903 4.959074
C 6.409010 4.915882 5.574626
C 5.981934 4.128658 5.555329
C 7.120205 3.451165 4.750483
C 7.413560 4.371551 4.754652
C 7.412976 4.721300 5.697610
C 7.055614 3.974836 5.657274
C 8.192318 3.363517 4.765583
C 8.504224 4.529808 5.088720
C 8.525277 4.995801 5.517352
C 8.124535 3.955136 5.764017
C 0.271943 5.115890 4.826666
C 0.640739 6.034938 4.847012
C 0.642284 6.701718 5.652626
C 0.084745 5.559036 5.907133
C 1.002549 5.226928 5.074568
C 1.546376 5.969989 4.941908
C 1.514312 6.696994 5.677190
C 0.970419 5.824139 5.860389
C 1.932130 5.286955 4.685097
C 2.662725 6.126186 4.716272
C 2.477731 6.691007 5.603958
C 1.952902 5.892408 5.561872
C 3.183169 5.300520 4.880879
C 3.426156 5.921839 4.807302
C 3.381677 6.634999 5.496913
C 3.087706 5.856403 5.588595
C 4.001023 5.218337 5.074943
C 4.488562 6.089515 5.050907
C 4.453586 6.669240 5.978797
C 4.027104 5.910200 5.810434
C 5.203665 5.172481 4.919425
C 5.621381 6.145902 5.030838
C 5.563316 6.723743 5.525130
C 4.895528 5.745588 5.618246
C 5.777813 5.149028 4.899654
C 6.450809 6.128931 4.788218
C 6.520746 6.632719 5.782247
C 5.917296 5.567824 5.868841
C 6.839760 5.068255 4.928416
C 7.380449 6.203009 4.811317
C 7.559593 6.467047 5.637613
C 6.982545 5.682321 5.629047
C 8.148294 5.150008 5.012448
C 8.450366 5.850016 4.943014
C 8.491074 6.750218 5.765009
C 8.088232 5.984740 5.654889
C 0.051786 6.954031 4.953662
C 0.631455 7.959393 5.050022
C 0.537429 8.466233 5.809891
C 0.088446 7.450553 6.021783
C 1.118705 6.937937 5.054567
C 1.458669 7.667276 4.854857
C 1.439389 8.419203 5.808248
C 0.949261 7.358918 5.742050
C 1.933187 6.779198 4.705300
C 2.455219 7.754289 4.730468
C 2.363664 8.306741 5.642196
C 2.151435 7.449040 5.770659
C 3.092382 6.988143 4.857382
C 3.433280 7.872720 4.827952
C 3.484448 8.399244 5.812578
C 2.847327 7.523239 5.643968
C 3.992405 6.877424 4.766345
C 4.340105 7.569211 4.833475
C 4.406929 8.438050 5.649034
C 4.106800 7.685784 5.720475
C 4.964663 7.038715 5.027838
C 5.502594 7.631393 5.039071
C 5.605614 8.476370 5.572611
C 5.141586 7.362680 5.764159
C 6.161965 6.734868 4.908560
C 6.336828 7.629730 5.115670
C 6.479587 8.501152 5.695494
C 5.821147 7.422220 5.970462
C 7.164690 7.012730 5.041066
C 7.275198 7.672568 4.827909
C 7.565822 8.525725 5.765977
C 7.226587 7.445037 5.592923
C 8.028226 6.879601 4.800375
C 8.460966 7.661365 4.829509
C 8.400548 8.338081 5.779342
C 8.131749 7.687628 5.856483
C 0.163465 0.010259 6.690748
C 0.472799 0.972428 6.354083
C 0.697716 1.455469 7.320077
C 0.108841 0.631830 7.575228
C 1.170131 0.107097 6.732544
C 1.312233 0.821213 6.637538
C 1.491100 1.293539 7.382729
C 0.843657 0.361940 7.319262
C 1.800204 0.094066 6.428339
C 2.534865 0.706657 6.418307
C 2.678047 1.368046 7.294944
C 2.154643 0.507790 7.252175
C 3.116824 0.013357 6.458186
C 3.455688 0.835834 6.255003
C 3.715842 1.438512 7.234883
C 3.169900 0.457086 7.368194
C 3.998684 0.030463 6.561639
C 4.433225 1.030977 6.487796
C 4.695410 1.346030 7.220320
C 4.196753 0.579324 7.385004
C 4.900331 0.106439 6.787572
C 5.647136 0.719446 6.577717
C 5.516990 1.459829 7.435143
C 5.117626 0.551314 7.163059
C 6.112603 0.111628 6.363912
C 6.409330 0.671806 6.538234
C 6.458962 1.328969 7.134462
C 5.941859 0.382117 7.261369
C 6.959192 0.013056 6.641200
C 7.755474 0.773109 6.455228
C 7.766791 1.523548 7.271017
C 7.257103 0.620524 7.520533
C 7.864049 0.044344 6.605822
C 8.392951 1.086289 6.535290
C 8.366760 1.562733 7.405327
C 7.913756 0.548047 7.621713
C 0.029940 1.744642 6.730235
C 0.535074 2.633838 6.505299
C 0.511399 3.076935 7.266125
C 0.004687 2.151196 7.255356
C 1.051533 1.893069 6.482886
C 1.552335 2.371540 6.608082
C 1.533781 3.353317 7.287160
C 1.144501 2.235374 7.346197
C 1.983088 1.642355 6.688282
C 2.647290 2.653672 6.590609
C 2.392432 3.278818 7.479416
C 1.908429 2.522719 7.337053
C 3.111665 1.609378 6.664427
C 3.484133 2.536310 6.630502
C 3.301518 3.198256 7.405105
C 2.998814 2.417450 7.249235
C 3.971788 1.700266 6.451303
C 4.353785 2.675698 6.427879
C 4.416070 3.190721 7.450397
C 3.941912 2.461752 7.237294
C 4.966253 1.775490 6.536606
C 5.404764 2.339661 6.420634
C 5.646171 3.044081 7.433931
C 5.025029 2.429588 7.165618
C 6.068288 1.771013 6.751734
C 6.367758 2.445478 6.725032
C 6.470887 3.009533 7.160769
C 6.089928 2.540965 7.445795
C 7.136759 1.678973 6.662292
C 7.327415 2.502546 6.517462
C 7.566935 3.235194 7.282509
C 6.812683 2.255321 7.269009
C 8.232056 1.609916 6.526820
C 8.729494 2.556283 6.546479
C 8.246677 3.125308 7.441806
C 8.089982 2.122613 7.523864
C 0.014304 3.640040 6.688205
C 0.427349 4.296431 6.376789
C 0.663264 4.987959 7.498175
C 0.217379 4.229444 7.506032
C 0.995263 3.607899 6.456114
C 1.495777 4.212392 6.434230
C 1.720309 4.910569 7.573984
C 0.874183 3.919186 7.352495
C 2.021106 3.641224 6.609873
C 2.383042 4.343167 6.542439
C 2.553477 4.854073 7.218496
C 1.852998 4.236833 7.324153
C 3.018990 3.551801 6.609610
C 3.577861 4.277564 6.387105
C 3.583885 4.989111 7.276925
C 3.085988 3.905967 7.404124
C 3.981242 3.508428 6.303418
C 4.702748 4.319143 6.727396
C 4.311014 4.978149 7.377135
C 4.116147 4.169943 7.497068
C 5.006680 3.359359 6.664700
C 5.521582 4.396371 6.540814
C 5.577951 5.052803 7.311207
C 5.025417 3.782818 7.398213
C 6.097586 3.596832 6.705884
C 6.362266 4.397848 6.484205
C 6.605983 4.999829 7.383846
C 5.963808 3.922242 7.527191
C 6.939097 3.485575 6.572119
C 7.646356 4.177589 6.564377
C 7.397972 5.225774 7.365689
C 7.014420 3.891709 7.160411
C 7.888003 3.354641 6.425422
C 8.568299 4.439291 6.471858
C 8.377630 4.986180 7.348879
C 8.182278 4.019892 7.206674
C 0.211986 5.316381 6.375650
C 0.464610 5.930614 6.388355
C 0.686196 6.635624 7.467949
C 0.031703 5.785851 7.175877
C 0.853261 5.143478 6.331854
C 1.569126 6.192464 6.699319
C 1.696598 6.508887 7.380766
C 1.080880 5.894401 7.275655
C 1.944355 5.335491 6.628727
C 2.543099 5.996041 6.477884
C 2.564923 6.374489 7.361849
C 2.112826 5.752822 7.193781
C 2.983923 5.008369 6.421114
C 3.464236 6.124410 6.551253
C 3.657602 6.653257 7.337148
C 3.057131 5.855817 7.150906
C 3.983851 5.265216 6.702175
C 4.297251 6.191625 6.510966
C 4.358153 6.681739 7.194668
C 3.862514 5.654797 7.201969
C 5.182152 5.111563 6.459509
C 5.407312 6.202480 6.410810
C 5.440697 6.582817 7.571547
C 5.148619 5.708081 7.242297
C 6.066866 5.407054 6.542940
C 6.453974 6.026551 6.712848
C 6.475888 6.538490 7.497479
C 5.895124 5.773067 7.332046
C 6.913437 5.216760 6.349040
C 7.395869 5.882472 6.592561
C 7.313026 6.704415 7.361980
C 6.932294 6.020397 7.292465
C 7.947066 5.182604 6.399848
C 8.428151 5.805920 6.607308
C 8.695344 6.666568 7.434375
C 7.865050 5.683555 7.231789
C 0.098192 6.679864 6.618767
C 0.541207 7.681487 6.394710
C 0.435049 8.278213 7.303075
C 0.004647 7.293601 7.368150
C 1.189682 6.798365 6.603286
C 1.454310 7.864651 6.551716
C 1.669296 8.470585 7.436177
C 1.056272 7.611125 7.114217
C 1.926782 6.901341 6.361643
C 2.294097 7.741342 6.364146
C 2.524876 8.467841 7.455469
C 1.816275 7.445531 7.143907
C 3.090849 6.967036 6.498726
C 3.604672 7.514729 6.581933
C 3.319587 8.414007 7.442156
C 3.098189 7.421654 7.238055
C 3.943503 6.971310 6.498215
C 4.421961 7.837235 6.498139
C 4.552587 8.285699 7.395436
C 3.794512 7.504017 7.326007
C 4.741664 6.946615 6.501682
C 5.612799 7.659047 6.767979
C 5.320711 8.458840 7.427330
C 5.026723 7.588990 7.438372
C 5.955062 7.147227 6.718125
C 6.514260 7.965951 6.635072
C 6.379828 8.245957 7.425829
C 6.147206 7.623959 7.260941
C 7.077179 6.896033 6.685879
C 7.289962 7.924061 6.519264
C 7.533797 8.245829 7.288875
C 6.926296 7.734917 7.420793
C 7.874461 6.904325 6.399818
C 8.420257 8.055234 6.435596
C 8.336801 8.329093 7.405752
C 8.115023 7.487207 7.469695
C 0.075106 0.102835 7.794881
C 0.498638 0.964709 8.075336
C 0.545381 1.308290 8.875305
C 0.059700 0.612950 8.776121
C 1.125239 0.248252 8.026150
C 1.478598 0.928708 8.012396
C 1.617388 1.639346 8.928746
C 1.145336 0.646024 9.164405
C 1.818969 0.025521 8.203753
C 2.375912 0.817283 7.994095
C 2.629402 1.331227 9.034654
C 1.918133 0.777913 9.011797
C 2.992537 0.142937 8.115561
C 3.599966 0.910097 8.278399
C 3.279873 1.473940 9.010223
C 3.081987 0.694021 8.805815
C 3.997783 0.008586 8.025643
C 4.719293 0.738665 7.963357
C 4.261884 1.349379 9.039252
C 4.051864 0.575674 9.224701
C 5.153455 0.121212 7.869891
C 5.488534 0.946118 8.406359
C 5.350080 1.554427 9.039649
C 4.955740 0.562636 8.976685
C 6.010674 0.046220 8.050775
C 6.486622 0.843082 7.896882
C 6.551217 1.360676 8.875206
C 5.917784 0.635506 9.159433
C 7.108768 0.009979 7.993785
C 7.534771 0.865114 8.385921
C 7.532721 1.634480 8.856935
C 7.132952 0.768174 8.995419
C 8.138904 0.184406 8.148810
C 8.577896 1.017282 8.247911
C 8.419896 1.378507 9.157901
C 8.188864 0.550516 9.144993
C 0.273970 1.897947 8.114478
C 0.455725 2.673624 8.378075
C 0.386446 3.289674 8.880809
C 0.276432 2.208667 8.906282
C 0.838460 1.564737 8.132806
C 1.572432 2.677612 8.410580
C 1.463324 3.199977 9.173821
C 1.152639 2.360583 9.130292
C 2.005903 1.736471 8.060889
C 2.502358 2.753724 8.316932
C 2.484315 3.136055 8.718643
C 1.844050 2.359370 8.853558
C 2.883484 1.754788 8.222532
C 3.422956 2.414838 8.262477
C 3.284051 3.177372 9.138269
C 3.092475 2.516176 8.962977
C 3.846863 1.828456 8.359137
C 4.401470 2.584163 8.317799
C 4.467837 3.243248 9.147058
C 3.825083 2.350213 9.085579
C 5.072929 1.540620 8.214439
C 5.503624 2.587243 8.353829
C 5.532293 3.246474 8.857411
C 4.956216 2.266453 9.078746
C 5.873147 1.781797 8.340770
C 6.549813 2.395549 8.251129
C 6.323650 3.163126 8.910822
C 6.161433 2.262855 9.032457
C 7.153681 1.590851 8.116367
C 7.420456 2.688668 8.286023
C 7.548334 3.368450 8.990409
C 6.857857 2.288873 9.148143
C 7.942703 1.508893 8.333021
C 8.535996 2.442552 8.199541
C 8.530873 3.326951 9.007827
C 8.109141 2.457407 9.146890
C 0.070225 3.498411 8.290927
C 0.560895 4.338777 7.880734
C 0.430506 4.974039 9.122464
C 0.025747 4.223354 9.117589
C 1.041176 3.431331 8.273944
C 1.657397 4.189775 8.154108
C 1.630654 4.834680 8.812761
C 0.894742 4.004421 8.953993
C 1.846136 3.338125 8.243359
C 2.675491 4.422056 8.200781
C 2.313625 4.961560 9.095664
C 2.107733 4.193404 8.989430
C 3.146442 3.476973 8.073267
C 3.394026 4.319992 8.280189
C 3.600456 4.995586 9.031018
C 2.957027 3.909289 9.037794
C 4.201805 3.551679 8.199377
C 4.575845 4.362778 7.990497
C 4.582883 5.043457 8.867705
C 3.930088 4.147937 8.929384
C 4.901886 3.458509 8.312863
C 5.369862 4.298242 8.080540
C 5.492804 5.127782 9.067931
C 5.055520 4.086280 9.065157
C 6.012484 3.413472 8.187515
C 6.521343 4.465918 8.303178
C 6.706273 4.954589 8.859196
C 5.907135 3.999453 8.836121
C 7.016334 3.482631 8.041768
C 7.467596 4.179335 8.090534
C 7.514220 5.061003 8.779562
C 7.017891 3.859915 8.933578
C 7.862735 3.590218 8.101252
C 8.518211 4.452998 8.200353
C 8.359107 4.969432 8.967067
C 7.978467 3.989510 8.991925
C 0.035166 5.242846 8.359302
C 0.732649 6.186639 8.164508
C 0.328544 6.394943 8.983289
C 0.239160 5.974633 9.015011
C 1.008164 5.074617 7.981057
C 1.579864 6.100069 8.190012
C 1.304016 6.611514 8.883106
C 1.131590 5.798465 8.817760
C 2.137261 5.117920 8.136449
C 2.350494 6.102567 8.058744
C 2.411854 6.608964 8.870330
C 1.844693 5.830681 8.865433
C 3.132345 5.185112 8.028344
C 3.312901 5.985317 8.092379
C 3.458137 6.604673 9.034943
C 3.094449 5.645649 9.012712
C 3.958129 5.107817 7.986224
C 4.453486 6.042845 8.086945
C 4.674427 6.636048 9.008993
C 3.999449 5.482282 9.036771
C 5.013618 5.240120 8.032008
C 5.448745 5.924229 8.160795
C 5.281435 6.792038 8.889570
C 5.045442 5.600293 9.093351
C 5.923008 5.025400 8.276826
C 6.454476 6.278967 8.234498
C 6.693963 6.680636 9.136518
C 6.054319 5.938711 9.125072
C 6.992745 5.266100 8.385483
C 7.528527 5.854251 8.283108
C 7.420499 6.688402 8.999423
C 7.121846 5.800083 9.087645
C 7.989858 5.076862 8.022783
C 8.683432 5.934018 8.225213
C 8.336366 6.588055 8.940105
C 7.881982 5.722950 8.971068
C 0.018644 7.029172 7.980338
C 0.523284 7.680024 8.085474
C 0.540027 8.363753 8.855282
C 0.115981 7.396438 9.170271
C 0.966548 6.866724 8.095725
C 1.457342 7.765436 7.968272
C 1.501712 8.358556 9.022167
C 1.083225 7.602179 8.806271
C 1.802685 6.805552 8.067677
C 2.545239 8.019632 8.089043
C 2.628578 8.295252 8.830413
C 1.851658 7.456703 8.941649
C 3.290543 6.849948 8.062717
C 3.439426 8.012766 8.204753
C 3.393137 8.476648 8.917420
C 3.040489 7.660533 9.022942
C 4.075172 6.740686 8.324955
C 4.575125 7.716427 7.990969
C 4.343550 8.437930 8.869935
C 3.837959 7.542399 8.829382
C 5.174415 6.924879 8.157192
C 5.377054 7.649835 8.386808
C 5.349186 8.394984 8.908376
C 4.900994 7.529835 8.929378
C 5.950692 6.969328 8.209184
C 6.778351 7.747751 8.244128
C 6.174668 8.348973 9.018841
C 6.184420 7.484860 9.161541
C 6.978912 6.953214 8.235100
C 7.501977 7.913588 8.278576
C 7.669842 8.439126 9.183239
C 7.064598 7.431431 8.813059
C 7.923032 6.750995 8.240634
C 8.668959 7.810354 8.326719
C 8.506902 8.211334 9.147986
C 7.926757 7.729971 9.207478
C 0.119468 0.156528 0.751910
C 0.581793 0.954683 0.645133
C 0.646632 1.525870 1.328292
C 0.011696 0.632145 1.605436
C 1.040426 0.262054 0.372659
C 1.521894 0.797250 0.653044
C 1.503199 1.593785 1.641484
C 0.839241 0.751315 1.546940
C 2.026741 0.254701 0.458188
C 2.607303 0.761899 0.702316
C 2.397884 1.421207 1.386087
C 2.046619 0.762716 1.420695
C 2.883704 0.027876 0.626760
C 3.577136 0.749573 0.579255
C 3.676847 1.533649 1.405834
C 3.080581 0.589348 1.625602
C 4.047332 0.235957 0.502275
C 4.420959 0.724510 0.535278
C 4.345203 1.462344 1.507071
C 3.815118 0.614584 1.531936
C 5.052952 0.032772 0.756171
C 5.660694 0.907368 0.701992
C 5.517184 1.475623 1.246558
C 5.088095 0.570933 1.288954
C 5.958283 0.081952 0.797983
C 6.601400 1.003839 0.757532
C 6.223012 1.489503 1.480819
C 5.859457 0.392749 1.401800
C 7.056206 0.031490 0.894591
C 7.682297 0.751294 0.743231
C 7.297076 1.387898 1.402839
C 7.058693 0.730370 1.285326
C 7.726932 0.124946 0.768129
C 8.531943 0.929025 0.576469
C 8.399269 1.435439 1.602627
C 7.852289 0.563126 1.243649
C 0.068121 1.888030 0.577434
C 0.494386 2.809406 0.480745
C 0.284177 3.064281 1.201309
C 0.291661 2.480919 1.438984
C 0.899160 1.685895 0.391161
C 1.647538 2.684102 0.606351
C 1.390383 3.056980 1.526801
C 0.840372 2.151771 1.360213
C 1.909119 1.721850 0.559026
C 2.500057 2.467641 0.551330
C 2.384407 3.197221 1.322744
C 1.910138 2.077292 1.320549
C 3.161193 1.859334 0.507982
C 3.505533 2.574483 0.608515
C 3.630020 3.284076 1.477016
C 2.880061 2.448168 1.367317
C 3.857995 1.921650 0.682823
C 4.685641 2.576476 0.532038
C 4.450928 3.133756 1.474424
C 3.964165 2.324155 1.399299
C 5.126321 1.624449 0.693525
C 5.349709 2.541848 0.732000
C 5.594163 3.328379 1.488734
C 4.834622 2.377723 1.433692
C 6.009834 1.604622 0.493991
C 6.328820 2.623474 0.526025
C 6.564862 3.240895 1.606901
C 6.139099 2.466256 1.321767
C 7.011214 1.738161 0.812877
C 7.637551 2.694607 0.687352
C 7.241526 3.070256 1.379578
C 6.845512 2.107742 1.412564
C 8.052208 1.861239 0.658760
C 8.560541 2.816384 0.610266
C 8.307229 3.147268 1.406255
C 8.066308 2.346098 1.309613
C 0.198913 3.545048 0.505119
C 0.540754 4.383433 0.820803
C 0.331085 4.910583 1.691577
C 0.202316 3.978576 1.714677
C 0.925318 3.560009 0.781110
C 1.463637 4.445840 0.514279
C 1.457356 4.730069 1.550543
C 1.068036 3.967275 1.571574
C 1.711951 3.450714 0.664840
C 2.309564 4.398406 0.693785
C 2.354287 4.929640 1.427670
C 1.939837 4.084287 1.575662
C 2.941308 3.345885 0.579712
C 3.390854 4.356836 0.669013
C 3.538789 4.733252 1.377454
C 2.880714 4.090131 1.567692
C 4.086071 3.514906 0.448689
C 4.335172 4.397925 0.537767
C 4.436800 5.066236 1.395965
C 4.153141 3.966228 1.404165
C 5.040610 3.339678 0.826415
C 5.457052 4.498771 0.664155
C 5.521182 5.031739 1.389776
C 4.815334 4.159620 1.544064
C 5.892212 3.550745 0.635481
C 6.613569 4.326084 0.523573
C 6.590648 4.739164 1.306600
C 5.999835 4.080456 1.322912
C 6.983865 3.340956 0.682558
C 7.454519 4.411700 0.560606
C 7.591002 4.893102 1.393756
C 6.967758 4.155415 1.379314
C 7.828762 3.450098 0.638681
C 8.446440 4.160857 0.653546
C 8.482441 4.894710 1.276983
C 8.230934 4.053349 1.554270
C 0.115539 5.212403 0.625436
C 0.405219 5.956887 0.510031
C 0.477328 6.908681 1.483960
C 0.080857 5.572220 1.378121
C 0.931337 5.131455 0.414778
C 1.613803 5.884082 0.618548
C 1.317733 6.515047 1.492664
C 0.935769 5.683821 1.447803
C 2.184541 5.148083 0.596589
C 2.487188 6.142706 0.483813
C 2.330143 6.523382 1.560524
C 1.846318 5.747944 1.401480
C 3.041331 5.241093 0.571414
C 3.501201 6.238744 0.742975
C 3.497957 6.800214 1.334352
C 3.139465 5.977592 1.488993
C 4.110459 5.278185 0.354298
C 4.412468 6.088306 0.406590
C 4.561305 6.487334 1.385329
C 4.191256 5.622389 1.507039
C 4.975463 4.882721 0.592630
C 5.400771 6.125864 0.475907
C 5.653267 6.670026 1.450118
C 4.866410 5.995204 1.335723
C 5.982478 5.303807 0.546864
C 6.357708 6.003500 0.595915
C 6.570121 6.726914 1.419628
C 6.176475 5.869913 1.444298
C 7.093425 5.192932 0.522159
C 7.439030 6.204593 0.462284
C 7.397240 6.588354 1.436752
C 6.958610 5.863602 1.563569
C 8.044714 5.151142 0.658645
C 8.402030 6.020062 0.529660
C 8.377840 6.526476 1.319053
C 7.904028 5.741301 1.202935
C 0.086544 7.056631 0.751538
C 0.611685 7.931462 0.675087
C 0.300122 8.292946 1.347853
C 0.024797 7.454874 1.464306
C 0.843049 6.877801 0.507226
C 1.504182 7.761791 0.584824
C 1.483277 8.457610 1.666540
C 0.863303 7.339430 1.474555
C 2.190739 6.951396 0.671864
C 2.647508 7.757312 0.793653
C 2.549054 8.467826 1.323649
C 1.910437 7.710414 1.326692
C 2.909266 7.047206 0.537545
C 3.549029 7.794900 0.813369
C 3.312421 8.409227 1.553854
C 2.911419 7.703499 1.567322
C 3.948340 7.056008 0.656322
C 4.636992 7.578004 0.686185
C 4.451523 8.151214 1.562681
C 3.888764 7.401317 1.420680
C 5.013652 7.112157 0.626133
C 5.537236 7.651870 0.651413
C 5.405480 8.336987 1.367120
C 5.026103 7.428813 1.461251
C 6.055054 7.126130 0.625875
C 6.409299 7.933706 0.524557
C 6.430543 8.531954 1.466576
C 5.883129 7.577665 1.564652
C 7.030606 6.849331 0.648057
C 7.554761 7.627799 0.587666
C 7.519157 8.388931 1.303362
C 7.018336 7.464152 1.366107
C 8.242279 7.020940 0.524286
C 8.400098 7.835608 0.713641
C 8.288649 8.368308 1.363774
C 8.197276 7.395324 1.273012
C 0.214296 0.196120 2.226725
C 0.425810 0.911616 2.362913
C 0.460154 1.298785 3.028049
C 0.067888 0.497591 3.411288
C 0.799852 0.035407 2.328080
C 1.482211 1.111394 2.262025
C 1.473595 1.530619 3.305727
C 0.956179 0.563920 2.860149
C 1.855995 0.062138 2.338466
C 2.426591 0.861447 2.292240
C 2.585166 1.380913 2.996969
C 1.820130 0.421347 2.988415
C 3.066645 0.130458 2.378525
C 3.400868 0.978974 2.227256
C 3.345414 1.373140 3.231823
C 2.881327 0.457024 3.001234
C 3.711781 0.004636 2.318216
C 4.576064 1.173214 2.220512
C 4.491476 1.461996 2.845837
C 3.845418 0.513331 3.041359
C 5.011346 0.005339 2.036030
C 5.318834 0.824840 2.131358
C 5.684436 1.439022 2.919397
C 4.967837 0.512991 2.901303
C 5.825721 0.034557 2.407059
C 6.433354 0.794911 2.300296
C 6.658776 1.408557 3.100377
C 6.029886 0.607995 3.183425
C 7.080531 0.108092 2.065474
C 7.403065 0.889514 2.223804
C 7.468787 1.500122 2.832844
C 6.999480 0.760884 3.056824
C 8.162691 0.067154 1.979005
C 8.447655 0.953753 2.361702
C 8.566341 1.591576 3.283324
C 7.994710 0.414654 3.124986
C 0.003514 1.852376 2.124566
C 0.404119 2.643129 2.293901
C 0.648333 3.087485 3.162217
C 0.243538 2.370576 3.250231
C 0.897493 1.832881 2.146238
C 1.317612 2.542220 2.311394
C 1.475915 3.116987 2.923084
C 1.265981 2.296849 3.050217
C 2.153793 1.782882 2.336017
C 2.526855 2.745332 2.375592
C 2.609731 2.978996 3.128543
C 2.151336 2.281894 3.072928
C 3.041672 1.773448 2.210335
C 3.369475 2.596828 2.251512
C 3.438708 3.047904 3.101593
C 2.933552 2.362768 3.135139
C 3.973666 1.569348 2.368840
C 4.695703 2.670255 2.330334
C 4.611205 3.162796 3.214342
C 3.895215 2.210615 2.959635
C 5.052036 1.514317 2.210695
C 5.315408 2.587139 2.164141
C 5.663200 2.977275 2.958888
C 4.729946 2.443251 2.981712
C 5.921997 1.893258 2.259749
C 6.418213 2.567137 2.323970
C 6.293027 3.173292 2.910405
C 6.124601 2.167413 3.153492
C 6.904901 1.750196 2.285722
C 7.568278 2.749919 2.431467
C 7.447761 3.000510 3.188002
C 7.125986 2.250078 3.268334
C 8.070965 1.825151 2.213636
C 8.550892 2.455307 2.270721
C 8.621917 3.141357 2.965853
C 7.798104 2.312146 3.196721
C 0.188792 3.484105 2.217646
C 0.684160 4.225513 2.085837
C 0.305976 4.877739 2.898640
C 0.134210 4.118925 3.310950
C 0.926714 3.543356 2.305747
C 1.443288 4.193675 2.376271
C 1.447057 4.869901 2.926942
C 1.097399 4.059134 3.050846
C 1.862266 3.495934 2.340119
C 2.367913 4.257268 2.190773
C 2.548818 4.926865 3.123077
C 1.987342 3.933834 2.991325
C 3.017208 3.643093 2.195592
C 3.725497 4.154585 2.278304
C 3.421824 4.759746 3.083813
C 3.001181 4.055771 3.001152
C 3.967487 3.484248 2.101973
C 4.433107 4.411955 2.334020
C 4.319535 4.904922 2.863994
C 4.158545 4.077849 3.177541
C 5.151648 3.470819 2.309220
C 5.440872 4.321530 2.179933
C 5.733787 4.901160 3.077784
C 4.929591 3.937646 3.033843
C 6.046571 3.407277 2.041927
C 6.304351 4.328601 2.291142
C 6.434515 4.832333 3.228882
C 6.044413 3.924322 3.172947
C 6.870872 3.508119 2.164546
C 7.510784 4.130086 2.332905
C 7.390009 4.897116 2.807435
C 6.794009 4.010170 3.124665
C 7.824023 3.501233 2.159866
C 8.369999 4.391339 2.106257
C 8.644504 4.996841 3.182504
C 7.988816 4.146673 3.017561
C 0.054880 5.336516 2.201595
C 0.510216 6.215162 2.337184
C 0.424993 6.676440 3.085254
C 0.043126 5.625749 3.044485
C 0.980425 5.293207 2.083340
C 1.561949 6.182608 2.468723
C 1.687563 6.557671 3.090618
C 0.866008 5.747379 3.026562
C 2.021788 5.249656 1.957960
C 2.426012 6.237048 2.383102
C 2.606016 6.714460 2.840518
C 1.888759 5.577851 3.140636
C 2.881201 5.055133 2.507394
C 3.503809 6.075221 2.161673
C 3.419856 6.690965 2.963747
C 2.967395 5.594177 2.953165
C 4.118393 5.067406 2.222572
C 4.607970 6.040093 2.170227
C 4.425321 6.552065 3.020022
C 4.220610 5.955174 3.011158
C 5.086414 5.260362 2.071357
C 5.226836 6.013749 2.345780
C 5.623294 6.683660 3.061446
C 4.868259 5.815625 3.000553
C 5.819403 5.185699 2.210213
C 6.716119 6.106146 2.258554
C 6.516939 6.549317 3.038230
C 5.836952 5.863079 3.055054
C 7.105799 5.192952 2.206278
C 7.466469 6.066104 2.031674
C 7.499119 6.574485 3.267915
C 7.048369 5.728856 2.843234
C 8.109122 5.030480 2.083655
C 8.541907 6.057885 2.137398
C 8.293561 6.560759 3.093890
C 7.945831 5.801149 2.833470
C 0.163857 6.765778 2.108233
C 0.459828 7.946316 2.484540
C 0.516509 8.344488 3.282247
C 0.142925 7.464733 3.161556
C 0.862897 6.955026 2.129440
C 1.327245 7.631151 2.233804
C 1.411775 8.589361 3.048029
C 0.984999 7.629126 3.059870
C 1.927315 6.818020 2.291667
C 2.437422 7.684164 2.065149
C 2.650264 8.477190 3.007361
C 1.940148 7.403483 2.873727
C 2.981251 6.760314 2.387478
C 3.631359 7.760353 2.003176
C 3.477539 8.550438 3.023291
C 2.928964 7.490023 3.032021
C 4.071680 7.057580 2.358028
C 4.646536 7.878942 2.222084
C 4.458766 8.174394 3.010698
C 3.957045 7.437598 2.828414
C 4.906839 6.992986 2.171726
C 5.235141 7.828420 2.182600
C 5.694591 8.412606 2.980854
C 5.089220 7.668921 2.865605
C 6.033993 6.937667 2.335218
C 6.578411 7.863890 2.503750
C 6.375436 8.330664 3.043865
C 6.171638 7.651078 3.053519
C 6.908655 6.939603 2.205297
C 7.434822 7.867876 2.181834
C 7.764763 8.316546 3.108414
C 6.762686 7.455155 3.038759
C 7.995827 7.005556 2.400663
C 8.453510 7.903157 2.139105
C 8.389825 8.235708 3.139515
C 8.203634 7.596946 2.991929
C 0.054532 0.010894 3.740361
C 0.521215 1.106899 3.963936
C 0.459097 1.445716 4.732778
C 0.074603 0.423734 4.942058
C 0.843475 0.072556 3.703828
C 1.495438 0.700147 3.804741
C 1.373000 1.581654 4.908102
C 0.840370 0.641376 4.733799
C 1.923153 0.008129 3.880195
C 2.432283 0.815562 4.118203
C 2.597934 1.426181 4.470606
C 1.968328 0.571435 4.470989
C 3.135452 0.019972 4.060302
C 3.317665 0.862331 3.850983
C 3.451206 1.376485 4.606025
C 2.835929 0.656181 4.628084
C 3.948207 0.157426 3.715871
C 4.452885 1.048782 3.913587
C 4.608653 1.264240 4.641815
C 4.047804 0.683862 4.573721
C 4.973063 0.011653 3.735177
C 5.639107 0.849551 3.839793
C 5.287950 1.556931 4.853120
C 4.949777 0.651610 4.924925
C 6.236486 0.015732 3.694729
C 6.372016 0.739581 3.897253
C 6.678386 1.465954 4.738910
C 5.951835 0.484302 4.873449
C 7.209613 0.043266 3.766708
C 7.555572 1.026447 3.721708
C 7.713084 1.602893 4.698254
C 7.155023 0.658231 4.655987
C 8.145747 0.272441 3.799830
C 8.539607 0.840931 3.815637
C 8.338486 1.313682 4.630894
C 7.952507 0.626783 4.534084
C 0.120327 1.944080 3.942630
C 0.388338 2.621297 3.902941
C 0.391197 3.170054 4.781699
C 0.135116 2.483428 4.527981
C 0.838457 1.719491 4.123567
C 1.444901 2.427966 3.671620
C 1.562639 3.010054 4.807223
C 0.978422 2.453526 4.813810
C 2.041384 1.803499 3.868908
C 2.412591 2.515093 4.040335
C 2.343113 3.306544 4.588885
C 2.034990 2.278002 4.505539
C 3.118221 1.729356 4.156218
C 3.411495 2.603978 3.992643
C 3.508867 3.310729 4.623809
C 2.932520 2.377037 4.835619
C 4.143599 1.669019 3.771444
C 4.348999 2.499312 4.045164
C 4.529751 3.082642 4.939973
C 3.927156 2.295128 4.796317
C 5.009038 1.907142 4.033230
C 5.437724 2.356682 3.801666
C 5.544802 3.062753 4.746091
C 4.911762 2.250775 4.744500
C 6.075528 1.884262 3.860108
C 6.668287 2.609699 3.846213
C 6.532265 3.397413 4.808579
C 6.157621 2.369368 4.689433
C 7.079697 1.801505 3.686958
C 7.406166 2.794024 3.983794
C 7.448649 3.223323 4.683618
C 7.067741 2.381122 4.633035
C 7.935897 1.775875 3.700433
C 8.440442 2.519300 3.893282
C 8.454278 3.041553 4.728387
C 8.039248 2.454921 4.630062
C 0.085716 3.459124 4.093059
C 0.592562 4.514495 3.924378
C 0.713294 4.956645 4.648604
C 0.163256 4.127656 4.587251
C 0.909654 3.604724 3.832058
C 1.510387 4.489117 3.878712
C 1.261645 4.878694 4.717391
C 1.095256 3.869665 4.740262
C 2.226553 3.595301 3.864079
C 2.468843 4.435993 3.740205
C 2.600947 4.895987 4.618328
C 1.918866 3.864400 4.861507
C 2.957978 3.452306 3.796885
C 3.423039 4.194410 3.855357
C 3.505879 4.880922 4.731239
C 3.125344 4.004880 4.672769
C 3.876014 3.427683 3.604590
C 4.433241 4.473392 3.751016
C 4.536982 4.984944 4.808553
C 4.140053 4.131616 4.802389
C 5.072534 3.575917 4.038319
C 5.661164 4.270900 3.882944
C 5.437083 5.054815 4.560594
C 5.009589 4.048855 4.510137
C 5.977116 3.358024 3.977918
C 6.492671 4.157102 3.930564
C 6.343245 4.845593 4.406218
C 6.110810 4.068439 4.911864
C 6.880126 3.496840 3.804766
C 7.373034 4.266082 3.969320
C 7.404306 4.978024 4.765667
C 7.167727 4.025718 4.741185
C 8.070281 3.632616 3.769662
C 8.638706 4.171723 4.109859
C 8.553864 4.855216 4.843223
C 7.968326 4.135650 4.801118
C 0.081264 5.053369 3.944230
C 0.557792 5.990550 4.011701
C 0.529938 6.898419 4.530818
C 0.026688 5.735795 4.826281
C 0.806912 5.025655 3.797844
C 1.469961 6.266014 3.793034
C 1.552953 6.616327 4.767069
C 1.041788 5.983076 4.463655
C 1.815163 5.134681 3.898849
C 2.330368 6.190331 3.892839
C 2.591025 6.748917 4.814161
C 1.964433 5.752021 4.954183
C 3.051510 5.214543 3.895266
C 3.398516 6.111731 4.041336
C 3.444980 6.483344 4.627863
C 2.971687 5.607086 4.625716
C 3.897354 5.190366 3.722356
C 4.510085 5.985379 4.009393
C 4.298581 6.528983 4.753962
C 4.103625 5.630235 4.691244
C 5.190716 5.204729 3.910063
C 5.570563 5.978549 3.780327
C 5.362899 6.520264 4.696654
C 5.125085 5.840798 4.633435
C 6.023193 5.405695 3.795933
C 6.720171 5.973859 3.808408
C 6.453298 6.805991 4.619248
C 5.954828 5.651824 4.458913
C 7.018800 5.280397 4.082566
C 7.548601 5.944015 4.024497
C 7.391037 6.655756 4.625984
C 6.893770 5.602028 4.545730
C 8.024980 5.255505 3.779348
C 8.397686 6.213230 3.997853
C 8.422522 6.782059 4.806739
C 8.131049 5.862561 4.571838
C 0.050455 7.009709 3.959006
C 0.684686 7.794634 3.780071
C 0.423219 8.274558 4.905541
C 0.025222 7.519425 4.608839
C 0.818550 6.814031 3.831192
C 1.665844 7.915135 3.842573
C 1.372809 8.264311 4.642376
C 1.094318 7.564588 4.667509
C 1.894260 6.978538 3.759492
C 2.477461 7.881814 3.760248
C 2.433640 8.191976 4.926535
C 1.944414 7.468732 4.614095
C 3.111784 6.781015 3.779009
C 3.467181 8.022518 3.792360
C 3.677871 8.276803 4.786951
C 3.082929 7.664595 4.637885
C 4.091046 6.901198 3.720787
C 4.669682 7.710758 3.815036
C 4.412476 8.420105 4.714981
C 3.813663 7.531548 4.669649
C 4.826243 6.858557 3.808895
C 5.456779 7.985219 3.900327
C 5.388706 8.388596 4.742226
C 4.991050 7.656910 4.907637
C 6.018865 6.836105 4.029231
C 6.397336 7.751917 3.837227
C 6.583810 8.406829 4.821076
C 5.889309 7.342290 4.576416
C 6.780423 6.901221 3.933242
C 7.569808 7.848713 4.139396
C 7.605350 8.303903 4.645580
C 6.976450 7.409962 4.897281
C 7.877118 7.096181 3.874486
C 8.583803 7.646570 3.738701
C 8.427112 8.355220 4.516775
C 7.940478 7.300263 4.639222
C 0.031117 0.296736 5.536760
C 0.544639 1.004767 5.491692
C 0.492496 1.612067 6.254209
C 0.014088 0.522299 6.101080
C 1.248553 0.213335 5.416016
C 1.709827 0.779486 5.447838
C 1.620324 1.596804 6.388844
C 1.087480 0.459406 6.294426
C 2.078819 0.155690 5.591038
C 2.437617 0.800724 5.585659
C 2.625399 1.529546 6.248726
C 1.990183 0.825600 6.261541
C 3.138827 0.023197 5.532560
C 3.565879 1.085088 5.578146
C 3.472998 1.478783 6.410383
C 2.935922 0.566210 6.270587
C 3.948686 0.056461 5.293063
C 4.615401 1.017172 5.718868
C 4.447606 1.446348 6.328514
C 3.873057 0.624896 6.244072
C 4.941316 0.132094 5.490963
C 5.752141 0.980415 5.463588
C 5.521774 1.666324 6.338909
C 5.058477 0.766304 6.233732
C 5.768345 0.030927 5.431973
C 6.340128 0.885551 5.582720
C 6.496334 1.245070 6.190102
C 6.067281 0.560869 6.331717
C 7.158862 0.027764 5.548599
C 7.447736 1.048046 5.607206
C 7.387225 1.313073 6.313815
C 6.893634 0.405216 6.364479
C 7.878036 0.108407 5.574402
C 8.624184 0.778681 5.463855
C 8.620825 1.528914 6.400181
C 8.214133 0.636405 6.511573
C 0.044335 1.571810 5.506145
C 0.708403 2.627903 5.483022
C 0.400450 3.218554 6.249692
C 0.071213 2.308829 6.249831
C 1.156818 1.662966 5.571888
C 1.559808 2.756058 5.598135
C 1.558966 3.265317 6.090866
C 0.971077 2.185445 6.234814
C 1.913248 1.725948 5.360971
C 2.436839 2.625439 5.673451
C 2.602943 3.209581 6.431150
C 1.879009 2.224190 6.345357
C 3.069057 1.642293 5.723686
C 3.520732 2.875977 5.431798
C 3.425004 2.991238 6.329164
C 3.183911 2.382374 6.180658
C 3.917688 1.631492 5.512485
C 4.629348 2.784805 5.572019
C 4.541418 3.297536 6.372431
C 3.767205 2.324028 6.402971
C 4.818072 1.798140 5.485892
C 5.387832 2.551020 5.729455
C 5.502638 3.069791 6.478024
C 4.886976 2.305979 6.219424
C 5.909593 1.546973 5.299248
C 6.289848 2.528839 5.429922
C 6.311541 3.071552 6.237858
C 5.878165 2.206584 6.264043
C 7.161881 1.761197 5.411505
C 7.577373 2.485990 5.582586
C 7.490683 3.095087 6.342377
C 6.932416 2.225820 6.565002
C 7.788738 1.621149 5.571005
C 8.706739 2.714057 5.412077
C 8.366281 3.217711 6.536485
C 7.807362 2.347212 6.533308
C 0.162965 3.522986 5.645853
C 0.717146 4.330093 5.601742
C 0.534519 4.679434 6.336164
C 0.051343 4.123857 6.185704
C 0.943416 3.593380 5.558950
C 1.536751 4.198949 5.453563
C 1.412534 5.033598 6.094035
C 0.876465 4.104131 6.440406
C 1.830988 3.580583 5.605539
C 2.708318 4.274537 5.548436
C 2.584340 5.101112 6.233217
C 1.924282 3.960936 6.342118
C 3.062747 3.279258 5.449552
C 3.376614 4.197392 5.551749
C 3.459432 5.037511 6.288799
C 3.019627 4.012131 6.363546
C 3.916849 3.390177 5.520197
C 4.722786 4.232382 5.395603
C 4.432930 5.034639 6.286870
C 4.117147 4.184223 6.458230
C 4.815806 3.425360 5.395773
C 5.361030 4.143013 5.471289
C 5.546599 5.072542 6.176814
C 4.890240 3.986602 6.511978
C 5.928034 3.735803 5.558896
C 6.478806 4.500826 5.531289
C 6.677886 4.856441 6.355352
C 6.138341 4.142490 6.263933
C 6.951762 3.364955 5.675962
C 7.463293 4.424862 5.364967
C 7.396677 4.963711 6.489581
C 6.818859 3.788091 6.300009
C 8.093918 3.574466 5.586502
C 8.652808 4.428315 5.551982
C 8.326539 4.938695 6.459459
C 7.993681 3.969758 6.446054
C 0.028900 5.385353 5.506460
C 0.395222 6.074955 5.640032
C 0.275486 6.709643 6.232032
C 0.052216 5.994139 6.253255
C 1.052605 5.293532 5.492370
C 1.724559 6.207751 5.530569
C 1.551627 6.552649 6.312100
C 0.777212 5.689705 6.355895
C 2.087227 4.977781 5.524485
C 2.525514 6.167558 5.730700
C 2.672219 6.565162 6.265476
C 2.027558 5.806070 6.555315
C 3.106780 5.328145 5.464756
C 3.283462 6.249045 5.478895
C 3.616427 6.454672 6.412059
C 3.112533 5.901073 6.440810
C 4.211683 5.091154 5.427352
C 4.591156 5.883119 5.408049
C 4.520668 6.535147 6.471894
C 4.097401 5.859564 6.260287
C 4.948033 5.346110 5.559577
C 5.675545 6.217235 5.475405
C 5.422165 6.748087 6.339151
C 5.100733 5.573976 6.338344
C 6.067861 5.179646 5.421468
C 6.624261 5.920643 5.640767
C 6.569787 6.490339 6.339529
C 5.746621 5.701732 6.459636
C 6.942660 5.258205 5.766828
C 7.466992 5.980733 5.650163
C 7.322076 6.664087 6.479401
C 6.957280 5.923789 6.225019
C 7.867083 5.140066 5.526988
C 8.481590 6.065020 5.540785
C 8.422972 6.449482 6.312584
C 8.166148 5.885701 6.183673
C 0.052853 7.122729 5.523910
C 0.611949 7.994764 5.672237
C 0.620171 8.284106 6.222198
C 0.034387 7.560563 6.414704
C 0.990609 6.895743 5.615489
C 1.414496 7.900650 5.712575
C 1.692240 8.529408 6.468477
C 1.058013 7.302666 6.428533
C 2.024089 7.046860 5.712228
C 2.644919 7.740155 5.384894
C 2.641317 8.267563 6.327758
C 1.884809 7.475459 6.215150
C 2.791618 6.869620 5.315297
C 3.238480 7.767000 5.480044
C 3.604721 8.210969 6.182349
C 2.941006 7.354760 6.388732
C 3.995617 7.002244 5.308405
C 4.584995 7.788490 5.383822
C 4.473160 8.461530 6.510503
C 4.021149 7.544283 6.260390
C 4.949631 6.957591 5.487443
C 5.459405 7.653356 5.714293
C 5.382659 8.383241 6.413162
C 5.021207 7.410839 6.502892
C 6.107726 6.922135 5.286753
C 6.513203 7.823938 5.492938
C 6.586369 8.269690 6.336090
C 5.867987 7.484615 6.472483
C 7.019089 7.032000 5.417739
C 7.326234 7.704606 5.307539
C 7.513226 8.368228 6.398781
C 7.151813 7.511347 6.478032
C 7.955531 7.053687 5.636784
C 8.428410 7.628027 5.560258
C 8.669083 8.356366 6.266661
C 7.820286 7.526932 6.219129
C 0.150931 0.197106 7.241509
C 0.458020 0.648557 7.188863
C 0.383320 1.570646 7.910425
C 0.029869 0.532014 8.173653
C 1.067902 0.015644 7.284059
C 1.549406 0.877805 6.944033
C 1.600228 1.637263 7.812269
C 1.026421 0.639199 7.988710
C 2.158468 0.083388 7.209365
C 2.564356 0.755437 7.169569
C 2.587675 1.606986 7.910485
C 1.951213 0.674596 7.824349
C 2.955736 0.133240 7.064700
C 3.740739 0.977418 7.183712
C 3.496237 1.299031 7.695652
C 2.977215 0.684245 8.161410
C 4.008657 0.091632 6.957987
C 4.676907 0.968660 7.037773
C 4.399851 1.445686 8.062777
C 4.109292 0.421748 7.845934
C 4.980783 0.095884 7.218352
C 5.385224 1.119750 7.148099
C 5.390954 1.376234 7.792705
C 4.971349 0.453406 8.150192
C 6.194285 0.120915 7.144310
C 6.577541 0.926271 7.198185
C 6.310725 1.526373 7.911641
C 5.854057 0.434418 8.120815
C 7.148578 0.212228 7.035354
C 7.595122 0.920778 7.023811
C 7.529365 1.531989 7.826020
C 6.924062 0.511572 7.899096
C 7.990674 0.049836 7.128027
C 8.631935 0.945923 7.179722
C 8.398090 1.567829 7.842355
C 7.979475 0.741887 7.977014
C 0.212245 1.772163 7.253489
C 0.515945 2.426814 6.979395
C 0.447320 3.187754 8.048027
C 0.030376 2.375310 7.915250
C 0.970250 1.847644 7.052043
C 1.362979 2.759752 7.128205
C 1.305851 3.187900 7.884453
C 1.078838 2.580524 7.892204
C 1.824831 1.670973 7.117118
C 2.505205 2.731038 7.354894
C 2.357374 3.003256 8.043050
C 1.894828 2.370294 8.014755
C 3.021455 1.793816 7.009409
C 3.602871 2.364985 7.021209
C 3.595731 3.153651 7.913217
C 3.230916 2.206918 7.993972
C 3.972459 1.837001 7.226703
C 4.515356 2.762636 7.182099
C 4.417333 3.200448 8.090311
C 3.906005 2.290277 7.848615
C 5.037496 1.604272 7.152340
C 5.434588 2.668072 7.234199
C 5.385112 3.194192 7.837306
C 4.809554 2.277230 7.862015
C 5.755907 1.609177 6.995705
C 6.638202 2.545199 7.075543
C 6.308372 3.173770 7.824542
C 5.792575 2.312622 7.967081
C 7.209886 1.736112 7.075908
C 7.493589 2.733178 7.092653
C 7.395311 3.339242 7.841019
C 6.999276 2.546687 7.966606
C 7.831499 1.901388 7.247106
C 8.492857 2.571363 7.185977
C 8.359006 3.278984 7.927637
C 8.131141 2.430974 8.089239
C 0.111291 3.161991 7.142115
C 0.614771 4.286496 7.170339
C 0.581431 4.805026 8.072375
C 0.166308 4.192165 7.921812
C 0.979912 3.462326 7.016225
C 1.590497 4.372363 6.918819
C 1.403276 4.731742 7.962150
C 1.109024 3.975259 7.861510
C 2.115782 3.327688 7.133554
C 2.507709 4.328837 6.931920
C 2.548299 4.813008 8.150675
C 1.876675 4.044806 7.765584
C 3.148256 3.558072 7.163005
C 3.511049 4.571504 7.152060
C 3.490442 4.983710 8.178151
C 2.910078 4.107568 7.818256
C 3.964652 3.578457 7.157514
C 4.692763 4.274340 7.119212
C 4.553581 5.150898 8.128781
C 4.075375 4.232670 7.932429
C 4.933547 3.647433 7.042395
C 5.341155 4.283688 7.140876
C 5.464795 4.792392 8.048151
C 4.924347 3.961045 7.813020
C 6.207418 3.338751 7.007220
C 6.687742 4.230084 7.278143
C 6.599570 5.011820 8.245146
C 6.064426 4.235084 7.894190
C 6.948853 3.504120 7.230971
C 7.336769 4.405522 7.209268
C 7.360060 5.127283 8.071136
C 6.870549 3.843529 7.980520
C 7.979463 3.380051 7.184907
C 8.461153 4.511750 7.147235
C 8.400404 4.750905 7.741079
C 7.922860 4.104992 7.995153
C 0.055421 4.963512 7.118659
C 0.481003 6.114818 7.135975
C 0.571085 6.636176 8.124259
C 0.014808 5.845015 7.851332
C 0.923647 5.286541 7.268748
C 1.404553 6.123826 7.266662
C 1.387800 6.744671 8.033003
C 1.206854 5.835945 7.969813
C 2.240481 5.274540 7.212116
C 2.611793 5.901551 7.050112
C 2.596763 6.605973 8.028047
C 1.982160 5.915221 7.956869
C 2.902559 5.104362 7.312846
C 3.567096 6.024733 7.121910
C 3.524198 6.423647 8.024043
C 2.978345 5.642097 7.888236
C 3.984882 5.228624 7.290141
C 4.576119 6.047596 7.147892
C 4.762142 6.618084 7.971159
C 4.086945 5.655112 7.859289
C 5.025948 5.103245 7.085261
C 5.497762 5.959483 7.246545
C 5.591187 6.778854 8.084228
C 5.095201 5.697058 7.970314
C 5.893499 5.197577 7.065026
C 6.568872 5.883545 7.116942
C 6.660841 6.527627 7.904019
C 6.089124 5.896783 7.964330
C 6.925342 5.436857 7.145211
C 7.571330 5.954533 7.206393
C 7.362973 6.532495 7.775368
C 7.147465 5.929055 7.990161
C 8.032881 5.185747 7.095418
C 8.589618 5.839066 6.989479
C 8.507626 6.805641 7.876875
C 7.953872 5.876451 8.000883
C 0.042412 6.903640 7.152368
C 0.460921 7.899152 7.189772
C 0.589465 8.511539 7.896459
C 0.161599 7.512371 8.040962
C 0.962632 6.801492 7.192552
C 1.629669 7.824762 7.290287
C 1.470726 8.610334 8.025610
C 1.098713 7.686542 8.072653
C 1.861750 6.930531 7.366927
C 2.475639 7.910099 7.255647
C 2.731168 8.531283 7.794404
C 1.958528 7.313212 7.887316
C 2.983886 6.794728 6.951643
C 3.328464 7.780573 6.955710
C 3.682323 8.229551 7.888446
C 2.825145 7.570782 8.006125
C 3.988282 6.869554 7.347854
C 4.524115 7.881570 7.360061
C 4.501878 8.428716 7.880014
C 3.962554 7.497502 8.162471
C 5.040830 6.787266 7.254366
C 5.355022 7.612883 7.195150
C 5.363951 8.156062 7.914660
C 4.804614 7.348948 7.859857
C 6.038603 6.832342 7.327686
C 6.456502 7.793811 7.023924
C 6.585135 8.464369 7.866283
C 5.852591 7.495388 7.937775
C 6.920094 7.128541 7.315596
C 7.313032 7.898960 7.310882
C 7.749023 8.368277 8.019503
C 7.205357 7.478588 7.834005
C 7.895230 6.844758 6.925791
C 8.371397 7.873696 7.256705
C 8.609390 8.329907 7.870639
C 7.856268 7.661037 8.075221
C 0.020904 0.188562 8.622489
C 0.562419 0.713636 8.799579
C 0.693729 1.319581 9.550232
C 0.236561 0.410393 9.593198
C 0.912370 0.156519 8.474780
C 1.493368 1.071699 8.665315
C 1.316681 1.434729 9.427016
C 0.844735 0.411324 9.545904
C 1.897033 0.114512 9.012996
C 2.619159 0.709536 8.887875
C 2.516260 1.461012 9.439834
C 1.839391 0.731500 9.564220
C 3.122297 0.039413 8.914908
C 3.500463 0.680519 8.867333
C 3.516999 1.293758 9.570381
C 3.044992 0.525636 9.355635
C 4.176448 0.105426 8.852799
C 4.551553 0.721063 8.677645
C 4.559930 1.519223 9.248694
C 4.159548 0.860223 9.554098
C 4.911163 0.011702 9.097661
C 5.541190 0.706406 8.773791
C 5.517152 1.243146 9.548272
C 4.872451 0.519743 9.383972
C 5.976000 0.021702 8.688585
C 6.521342 0.940159 8.838684
C 6.609990 1.240087 9.532532
C 6.136540 0.916405 9.493021
C 6.721779 0.058550 8.872605
C 7.544826 1.089881 8.966204
C 7.612585 1.297105 9.490107
C 6.837481 0.645222 9.402020
C 7.886408 0.099423 8.708635
C 8.494061 0.678208 8.768452
C 8.689824 1.457217 9.446811
C 8.111981 0.238339 9.567707
C 0.170041 1.659568 8.933722
C 0.304672 2.629586 8.860772
C 0.464522 3.318616 9.321410
C 0.025162 2.324021 9.362218
C 1.093932 1.933495 8.958787
C 1.447873 2.490929 8.745565
C 1.655878 3.096755 9.552282
C 1.143251 2.080816 9.562858
C 1.867836 1.964933 8.972543
C 2.618821 2.577880 8.893002
C 2.647866 3.173381 9.558048
C 2.057346 2.544055 9.567002
C 3.056885 1.781443 8.934364
C 3.665708 2.703140 8.857817
C 3.652073 3.036888 9.496359
C 2.991523 2.510647 9.520858
C 4.148261 1.627148 8.735432
C 4.514858 2.584663 8.760679
C 4.404612 3.393905 9.526029
C 3.957170 2.465866 9.432064
C 4.852825 1.631186 8.795677
C 5.498393 2.839241 8.786311
C 5.696663 3.108605 9.512296
C 4.970598 2.253555 9.540549
C 6.082162 1.675732 8.639133
C 6.509311 2.679547 8.717638
C 6.381684 3.187600 9.593324
C 6.034061 2.075146 9.545722
C 7.187296 1.794291 8.633071
C 7.476038 2.668486 8.924394
C 7.329126 3.053602 9.519158
C 6.862688 2.214066 9.574000
C 8.226557 1.519253 8.798178
C 8.661199 2.663638 8.804678
C 8.252020 3.275589 9.491421
C 7.887592 2.419806 9.505987
C 0.079741 3.551187 8.710244
C 0.511545 4.273414 8.999810
C 0.347597 4.897845 9.504670
C 0.058983 4.127345 9.557967
C 1.063824 3.393817 8.890090
C 1.760011 4.287809 8.721284
C 1.566507 5.008736 9.451941
C 0.886784 3.956629 9.410031
C 1.868999 3.604030 8.744506
C 2.440263 4.303983 8.807000
C 2.461723 5.001845 9.470967
C 1.893005 3.850456 9.480607
C 2.890201 3.314819 8.794856
C 3.542506 4.596361 8.684559
C 3.519687 5.043734 9.549500
C 2.765901 4.118049 9.405840
C 4.132891 3.511020 8.890372
C 4.530709 4.520589 8.645492
C 4.696852 4.988294 9.542272
C 4.283105 4.039884 9.533631
C 5.091835 3.317649 8.778277
C 5.484506 4.297880 8.493410
C 5.398080 4.941689 9.539566
C 5.314931 4.251057 9.527458
C 5.868304 3.352754 8.680780
C 6.324061 4.301109 8.688636
C 6.333988 5.046545 9.542991
C 6.162693 4.046805 9.437164
C 7.166185 3.485956 8.732646
C 7.644244 4.235477 8.772193
C 7.540184 4.593667 9.485945
C 6.956772 4.062002 9.328685
C 8.057924 3.419378 8.937237
C 8.390498 4.188558 8.724806
C 8.546577 4.972192 9.586911
C 7.797781 4.038132 9.538148
C 0.132376 5.189850 8.979647
C 0.388569 6.014723 8.563333
C 0.559480 6.476368 9.380051
C 0.032817 5.625252 9.292773
C 1.024070 5.146665 8.522096
C 1.632424 6.154032 8.967815
C 1.607842 6.715862 9.454441
C 1.034233 5.890120 9.421281
C 2.044324 5.136310 8.850382
C 2.548145 5.871957 8.908030
C 2.438051 6.426327 9.513024
C 2.249798 5.782167 9.548136
C 2.931292 5.253862 8.831359
C 3.594254 5.904681 8.828990
C 3.540112 6.613379 9.525904
C 2.719059 5.680147 9.493913
C 4.008268 4.992844 8.587124
C 4.450797 6.211151 8.615761
C 4.398733 6.442236 9.528470
C 3.824947 5.832450 9.523979
C 5.062476 5.082293 8.751280
C 5.351798 6.135739 8.553032
C 5.644423 6.594672 9.339452
C 4.877443 5.875788 9.514090
C 5.990836 5.063175 8.926402
C 6.406479 6.115358 8.874546
C 6.315195 6.910705 9.359606
C 6.153402 5.710978 9.466349
C 6.910015 5.337024 8.762682
C 7.656067 6.023709 8.820235
C 7.708073 6.676157 9.580795
C 6.890412 5.646723 9.408136
C 7.841272 5.229629 8.605586
C 8.430750 5.927142 8.702018
C 8.641943 6.600209 9.495262
C 7.946246 6.019436 9.479283
C 0.081834 6.869224 8.579291
C 0.568102 7.837346 8.896873
C 0.396870 8.317158 9.558488
C 0.080625 7.818983 9.444998
C 0.787398 6.856843 8.845660
C 1.417154 7.905044 8.827986
C 1.579312 8.445871 9.533884
C 1.090524 7.334089 9.494474
C 1.831620 6.925313 8.977222
C 2.619204 7.924443 8.939075
C 2.711329 8.577045 9.567715
C 1.871694 7.538075 9.372643
C 2.996241 6.942158 8.746466
C 3.717272 7.977782 8.836635
C 3.393700 8.383439 9.381343
C 3.024657 7.543416 9.410081
C 3.793290 6.983864 8.710951
C 4.495647 7.989406 8.652438
C 4.318188 8.383672 9.588432
C 4.139565 7.347742 9.578993
C 4.769347 6.896998 8.726930
C 5.567970 7.594726 8.778727
C 5.473061 8.225623 9.477364
C 5.084617 7.486804 9.294360
C 6.215615 6.925027 8.656650
C 6.453697 7.607818 8.760409
C 6.555526 8.116418 9.503516
C 6.084094 7.680021 9.566184
C 7.166079 6.866327 8.759310
C 7.346080 7.791017 8.621390
C 7.378870 8.350103 9.581086
C 7.268760 7.536965 9.355257
C 7.933296 6.869572 8.633604
C 8.611892 7.813266 8.810167
C 8.499766 8.284356 9.553940
C 8.107283 7.481794 9.584937
2160
Frame 10/10
C 0.003858 0.090800 0.287566
C 0.635824 1.041154 0.043391
C 0.565557 1.423564 0.757491
C 0.041813 0.549235 0.644117
C 0.629772 0.317268 0.105800
C 1.477432 1.064482 0.205009
C 1.526057 1.543945 0.703093
C 0.933928 0.360445 0.754753
C 2.259905 0.022518 0.173677
C 2.478037 1.051515 0.302409
C 2.262869 1.352868 0.925067
C 2.146396 0.731871 0.799644
C 2.727773 0.004813 0.165327
C 3.517370 0.889107 0.175005
C 3.474074 1.500512 0.682971
C 2.942271 0.585156 0.835563
C 4.204373 0.194206 0.026278
C 4.467377 0.855391 0.070519
C 4.510987 1.257857 0.640220
C 3.874175 0.646868 1.036243
C 5.300040 0.199994 0.028396
C 5.463182 0.606240 0.132572
C 5.223827 1.115819 0.775918
C 4.927395 0.403720 0.953352
C 5.702557 0.142053 0.217423
C 6.702157 0.764732 0.025249
C 6.344014 1.458434 0.665880
C 5.985888 0.662627 0.990509
C 7.255682 0.039806 0.120840
C 7.627365 0.779582 0.191118
C 7.312132 1.487163 0.789116
C 6.805905 0.548842 0.622615
C 8.223627 0.013380 0.070585
C 8.443814 0.941002 0.029857
C 8.272881 1.483615 0.737304
C 8.094634 0.850603 0.906881
C 0.005017 1.585502 0.322311
C 0.656725 2.500674 0.091130
C 0.294074 3.155363 0.585978
C 0.165772 2.301773 0.670611
C 1.185666 1.914766 0.142118
C 1.751048 2.707672 0.241838
C 1.467690 3.089843 0.857597
C 1.098066 2.141926 1.063307
C 2.115424 1.859543 0.007012
C 2.589701 2.733610 0.053346
C 2.505411 3.233620 0.899384
C 1.783057 2.330873 0.922837
C 2.910844 1.626641 0.016260
C 3.617731 2.901944 0.129109
C 3.600813 3.125975 0.566978
C 3.191771 2.424037 1.058466
C 3.885988 1.660721 0.212498
C 4.349699 2.611155 0.120963
C 4.706622 2.990183 0.716055
C 3.940484 2.420321 0.775867
C 4.918945 1.360767 0.109031
C 5.591935 2.596134 0.018944
C 5.628247 3.194468 1.047199
C 4.984678 2.293157 0.712979
C 5.943656 1.618017 0.093507
C 6.512164 2.575651 0.191938
C 6.525232 3.014727 0.912622
C 6.312324 2.341883 0.795896
C 7.133525 1.969830 0.031716
C 7.245210 2.476660 0.043296
C 7.393312 3.140190 0.843139
C 7.074421 2.160397 0.723898
C 8.132897 1.948826 0.128257
C 8.208833 2.426968 0.094340
C 8.471956 3.172229 0.975199
C 7.680101 2.279879 0.943758
C 0.060329 3.224050 0.039523
C 0.566756 4.269841 0.179079
C 0.324753 4.944154 0.855015
C 0.019190 3.913489 1.084778
C 0.846214 3.437510 0.288854
C 1.286975 4.292551 0.015175
C 1.625839 4.773387 0.750924
C 0.903450 3.985208 0.667077
C 2.096806 3.673925 0.116277
C 2.339105 4.193243 0.058357
C 2.472193 4.753825 0.952416
C 2.125538 4.168533 1.001061
C 2.755128 3.605261 0.157700
C 3.342684 4.239159 0.024648
C 3.711257 4.983104 0.740312
C 3.008841 4.143317 0.742846
C 3.744697 3.349223 0.244205
C 4.670263 4.285792 0.071370
C 4.342123 4.833114 0.661890
C 4.257002 4.005703 0.739233
C 5.085377 3.553343 0.018658
C 5.315865 4.368346 0.154882
C 5.641851 4.860904 0.640269
C 4.719037 4.264881 0.915919
C 6.081454 3.343514 0.084904
C 6.761896 4.327448 0.009243
C 6.378700 4.923557 0.634609
C 6.034943 3.826055 0.977416
C 7.094729 3.283235 0.153230
C 7.451090 4.176591 0.067929
C 7.406002 4.941000 0.791755
C 6.884659 3.806174 0.811895
C 7.915237 3.332788 0.083510
C 8.472763 4.412975 0.176151
C 8.653381 5.011697 0.929017
C 7.885585 4.228894 0.691267
C 0.113433 5.026654 0.125184
C 0.474014 5.743750 0.106498
C 0.417665 6.876651 0.775367
C 0.053551 5.587809 0.951496
C 1.151817 5.042547 0.098182
C 1.455589 5.944569 0.078387
C 1.633232 6.800807 0.767559
C 0.858573 5.680604 0.767188
C 1.911910 5.380088 0.023076
C 2.627344 6.368933 0.011082
C 2.564399 6.721388 0.736979
C 1.986624 5.867717 0.890047
C 3.119593 4.953456 0.060715
C 3.408474 6.000484 0.162461
C 3.440415 6.786859 0.519954
C 2.903330 5.881154 0.760871
C 3.873403 4.964383 0.147381
C 4.226023 6.120771 0.023673
C 4.490587 6.714766 0.719603
C 4.137497 5.664624 0.979109
C 5.230866 5.277238 0.072063
C 5.744079 5.985282 0.266323
C 5.584257 6.699884 0.874180
C 4.949340 5.880411 0.577128
C 6.042873 5.384951 0.103047
C 6.658071 6.212936 0.165422
C 6.400894 6.938074 0.792364
C 6.038944 5.739686 0.996538
C 7.025721 5.220217 0.041976
C 7.330573 6.103931 0.023585
C 7.271021 6.590230 0.833564
C 6.900841 5.631632 0.943240
C 8.122452 5.461461 0.190487
C 8.522087 6.160832 0.042737
C 8.459062 6.503751 0.672982
C 8.081328 5.871997 0.783789
C 0.120292 6.653620 0.011367
C 0.406104 7.752857 0.173516
C 0.580406 8.424735 0.661518
C 0.187418 7.513699 0.512221
C 1.244140 6.997250 0.079865
C 1.551003 7.893975 0.199710
C 1.626463 8.230583 0.679696
C 1.113078 7.605004 0.670124
C 1.971948 6.863327 0.095634
C 2.742253 7.932242 0.103319
C 2.227006 8.539848 0.717295
C 1.839824 7.531976 0.680556
C 3.079038 7.021119 0.177390
C 3.387984 7.878531 0.016971
C 3.288364 8.509966 0.703005
C 2.891331 7.470445 0.528013
C 4.058125 7.136964 0.100052
C 4.425809 7.870104 0.175311
C 4.471400 8.453824 0.775928
C 4.053990 7.510755 1.102292
C 5.030659 7.143174 0.037206
C 5.738746 7.938979 0.141234
C 5.577815 8.348224 0.722329
C 5.142520 7.444403 0.856620
C 6.005806 7.048808 0.121115
C 6.366178 7.980693 0.142236
C 6.601397 8.265859 0.641946
C 6.066115 7.615956 0.693163
C 6.865914 6.751345 0.054198
C 7.741394 8.027349 0.122218
C 7.205466 8.410262 0.655764
C 6.891199 7.409003 0.941646
C 7.888650 7.208662 0.018871
C 8.494952 7.593458 0.190821
C 8.693961 8.310754 0.956180
C 7.864502 7.325588 0.991845
C 0.028535 0.085973 1.893510
C 0.314360 0.982089 1.438311
C 0.532165 1.262985 2.221691
C 0.107642 0.557377 2.341582
C 0.909072 0.139671 1.447441
C 1.347208 0.700520 1.420852
C 1.628054 1.485605 2.604966
C 1.193215 0.713950 2.203364
C 2.027673 0.032797 1.636868
C 2.349160 0.830788 1.852828
C 2.556544 1.282462 2.407746
C 1.900076 0.783917 2.607489
C 3.044006 0.137513 1.825855
C 3.538401 0.984474 1.777565
C 3.500924 1.578316 2.428283
C 3.209798 0.709978 2.526274
C 3.952007 0.172654 1.763847
C 4.530330 0.864879 1.819028
C 4.434824 1.558749 2.379319
C 4.257164 0.554281 2.374522
C 5.027967 0.165837 1.590266
C 5.419042 0.823141 1.665684
C 5.353742 1.488489 2.435740
C 4.780212 0.588714 2.561315
C 6.057023 0.013679 1.411547
C 6.396526 0.878915 1.517538
C 6.452165 1.230126 2.376735
C 5.987760 0.420090 2.470699
C 6.838731 0.059251 1.471036
C 7.386854 1.030308 1.456898
C 7.238983 1.395381 2.522562
C 7.091676 0.514391 2.444648
C 8.179756 0.166838 1.366866
C 8.503688 1.006655 1.863738
C 8.539352 1.563721 2.306270
C 7.886162 0.405215 2.397325
C 0.078060 1.947040 1.705236
C 0.538166 2.829631 1.418925
C 0.559631 3.142829 2.305424
C 0.028844 2.198550 2.307369
C 1.094379 1.978574 1.653280
C 1.556026 2.622090 1.847967
C 1.454854 3.042690 2.542039
C 0.849326 2.209021 2.361842
C 2.197171 1.600523 1.698830
C 2.369405 2.507926 1.537558
C 2.470812 3.101607 2.650827
C 1.852907 2.467916 2.461287
C 2.983576 1.700589 1.653540
C 3.720889 2.431193 1.661234
C 3.634859 3.206486 2.387946
C 3.145465 2.431917 2.637609
C 4.008962 1.763101 1.388312
C 4.366851 2.677957 1.450591
C 4.666447 3.088780 2.331161
C 3.909394 2.416079 2.621063
C 5.262602 1.610780 1.657062
C 5.512639 2.493741 1.368961
C 5.448342 2.950590 2.443795
C 5.050594 2.265745 2.215067
C 5.911151 1.935532 1.642214
C 6.357443 2.902457 1.622312
C 6.745977 3.079645 2.312295
C 6.173578 2.265105 2.318188
C 7.215635 1.492974 1.769228
C 7.360801 2.568128 1.735756
C 7.491304 3.150288 2.335769
C 6.998530 2.415041 2.266162
C 8.018483 1.703699 1.438560
C 8.550843 2.587226 1.604561
C 8.289274 3.082218 2.403861
C 7.822194 2.151192 2.344731
C 0.148453 3.633221 1.588920
C 0.400919 4.421138 1.932667
C 0.308804 4.858843 2.241444
C 0.042258 4.062286 2.700827
C 0.872033 3.569333 1.621589
C 1.618838 4.218999 1.343356
C 1.603212 4.790271 2.583230
C 1.251748 3.838649 2.417858
C 2.138720 3.465292 1.624579
C 2.613944 4.538803 1.463922
C 2.414876 4.997478 2.636898
C 2.007261 4.290429 2.357332
C 3.009794 3.472365 1.666506
C 3.589180 4.623603 1.770035
C 3.443043 5.063198 2.410559
C 2.877642 4.098927 2.641369
C 4.016718 3.382085 1.473005
C 4.476424 4.373020 1.667300
C 4.515232 4.967841 2.273294
C 3.841828 3.943667 2.591067
C 4.969892 3.593369 1.501935
C 5.477240 4.201409 1.732944
C 5.223938 4.927037 2.537241
C 5.254096 4.033529 2.392612
C 5.904025 3.587093 1.591028
C 6.394243 4.170725 1.531361
C 6.682243 5.059463 2.409517
C 6.276123 4.000497 2.467990
C 6.995652 3.327954 1.839172
C 7.489536 4.320776 1.459418
C 7.547983 5.115952 2.471458
C 6.904441 3.940535 2.514818
C 7.940302 3.555280 1.631280
C 8.591301 4.305161 1.717849
C 8.492483 4.794171 2.390156
C 8.118830 3.900534 2.456752
C 0.283550 5.178072 1.305929
C 0.274548 6.126307 1.573446
C 0.384811 6.750576 2.531655
C 0.046189 5.924010 2.406178
C 0.942091 5.046526 1.788310
C 1.472090 6.121063 1.884889
C 1.299200 6.747477 2.625895
C 1.041363 5.919437 2.592861
C 2.063938 5.244735 1.459320
C 2.415773 6.216744 1.816249
C 2.326887 6.645070 2.600477
C 2.111039 5.655185 2.341712
C 3.084397 5.104478 1.445306
C 3.497130 5.915126 1.762804
C 3.321990 6.689837 2.230103
C 3.076844 5.969312 2.409654
C 4.055379 5.052106 1.665020
C 4.587140 5.894202 1.811485
C 4.371866 6.818580 2.562795
C 4.054747 5.941733 2.241164
C 5.291091 5.221297 1.630748
C 5.460155 6.152996 1.663648
C 5.395426 6.565578 2.689830
C 4.884412 5.654385 2.464063
C 6.150101 5.365156 1.517033
C 6.441438 6.049047 1.956886
C 6.641317 6.551843 2.398799
C 6.157733 5.778406 2.656291
C 6.936377 5.058054 1.767730
C 7.440668 6.206085 1.469868
C 7.731008 6.605615 2.512978
C 6.933114 5.698784 2.349980
C 8.126351 5.110552 1.638186
C 8.586229 6.090091 1.527626
C 8.736569 6.726612 2.561811
C 8.182555 5.726635 2.308865
C 0.064372 6.948073 1.550881
C 0.455826 7.962019 1.429086
C 0.384679 8.450596 2.371264
C 0.067593 7.420190 2.713922
C 0.965190 6.990812 1.316516
C 1.712480 7.831321 1.894881
C 1.376807 8.429485 2.727866
C 0.958907 7.185720 2.447779
C 2.022590 7.039032 1.860695
C 2.352246 7.656900 1.522920
C 2.307654 8.561397 2.522425
C 2.182344 7.560650 2.509575
C 2.959894 6.912083 1.829787
C 3.261148 7.801498 1.452211
C 3.669719 8.498983 2.484041
C 3.033506 7.595110 2.522118
C 3.898739 7.007556 1.321591
C 4.356875 7.687589 1.438222
C 4.677701 8.421195 2.404660
C 3.960947 7.483538 2.429067
C 4.832614 7.087159 1.519105
C 5.624126 7.725214 1.844422
C 5.529240 8.644640 2.503622
C 5.051115 7.401807 2.540159
C 6.099003 6.929223 1.370446
C 6.265721 7.617970 1.556586
C 6.727676 8.362458 2.211912
C 6.180654 7.497625 2.430600
C 7.025856 6.982293 1.634775
C 7.478803 7.750973 1.812143
C 7.510293 8.477000 2.219551
C 6.908482 7.515427 2.407889
C 8.181794 6.937718 1.511200
C 8.415707 7.791119 1.599179
C 8.302457 8.146931 2.441934
C 8.008114 7.563455 2.598708
C 0.304443 0.103693 3.391459
C 0.693291 0.758542 3.212552
C 0.328438 1.606106 3.948311
C 0.068167 0.655547 3.978304
C 1.194083 0.218250 3.334376
C 1.465682 0.947107 3.405944
C 1.480151 1.469485 4.132152
C 1.102405 0.512477 4.248714
C 1.912618 0.264419 3.498941
C 2.445120 0.847112 3.160862
C 2.407496 1.244706 4.084849
C 1.854367 0.710577 4.000179
C 3.164807 0.020250 3.337267
C 3.560526 0.914044 3.565267
C 3.664816 1.626842 4.056757
C 2.977803 0.790227 4.181483
C 4.152668 0.076189 3.134567
C 4.713691 0.996035 3.366721
C 4.683176 1.452778 3.891223
C 3.978729 0.759836 4.019052
C 5.047205 0.102557 3.200301
C 5.445377 0.795604 3.411810
C 5.389260 1.623838 4.084431
C 4.942482 0.688020 3.832952
C 6.130187 0.128042 3.121366
C 6.554871 0.838173 3.226679
C 6.325674 1.666981 4.154982
C 5.949601 0.572117 3.871596
C 6.743731 0.051251 3.181320
C 7.395431 0.715054 3.089522
C 7.502942 1.248624 4.380030
C 6.974036 0.654409 4.129909
C 8.005127 0.200002 3.452727
C 8.633635 0.819141 3.429440
C 8.535949 1.383439 3.993870
C 7.778036 0.595258 3.992642
C 0.027880 1.483953 3.207512
C 0.640745 2.576990 3.329503
C 0.366270 3.146616 4.087866
C 0.163253 2.346472 3.649685
C 1.049167 1.869758 3.286368
C 1.478503 2.635357 2.955809
C 1.700983 3.156644 4.224124
C 0.997168 2.180556 3.978340
C 2.034320 1.683308 3.054717
C 2.546044 2.494393 3.126783
C 2.592616 3.241851 4.059518
C 1.839209 2.461427 4.020471
C 2.950554 1.980922 3.126645
C 3.640974 2.465984 3.376003
C 3.581008 3.202014 3.902617
C 2.985434 2.428842 4.076644
C 4.155575 1.679404 3.383251
C 4.274176 2.821709 3.171164
C 4.618276 3.202140 4.133603
C 3.882920 2.379725 4.310386
C 5.031423 1.922350 3.430557
C 5.273667 2.608804 3.463130
C 5.513975 3.036344 3.945721
C 5.055776 2.494668 4.032387
C 6.098522 1.788328 3.247517
C 6.562520 2.583417 3.300505
C 6.625435 3.162096 3.957215
C 6.279753 2.181473 4.000593
C 7.047187 1.836844 3.286063
C 7.664405 2.769097 3.424569
C 7.427203 3.369865 4.072444
C 7.223166 2.429432 4.095874
C 8.161270 1.713358 3.387822
C 8.399165 2.668940 3.509684
C 8.556087 3.378470 3.994395
C 7.863215 2.349236 4.271435
C 0.142025 3.718474 3.075619
C 0.358371 4.257714 3.041619
C 0.418100 5.206803 3.942776
C 0.238103 3.862842 4.143181
C 0.893094 3.675807 3.296944
C 1.406360 4.475888 3.170105
C 1.253413 5.148298 4.041499
C 1.048630 3.991435 4.228230
C 1.988759 3.645507 3.226390
C 2.627453 4.245900 3.078720
C 2.683486 4.838953 4.229580
C 1.864269 3.995177 4.211895
C 2.971912 3.377794 3.220115
C 3.452606 4.060605 3.083244
C 3.399604 5.024503 3.974373
C 3.139664 3.896773 3.956633
C 4.145426 3.336787 3.296356
C 4.630456 4.447849 3.302730
C 4.640863 4.709736 4.063387
C 3.742374 3.913313 4.118189
C 4.905655 3.534494 3.198243
C 5.355747 4.425272 3.470041
C 5.740390 5.100896 4.194351
C 5.018539 4.274569 3.978180
C 5.825833 3.517560 3.280765
C 6.276894 4.378796 3.538295
C 6.549132 4.701148 4.091219
C 6.079176 3.880110 4.270937
C 6.847909 3.382456 3.240340
C 7.598949 4.536527 3.153025
C 7.559267 4.804413 4.236254
C 6.762171 3.808395 4.032444
C 8.159222 3.457870 3.370692
C 8.611262 4.201828 3.432854
C 8.369981 4.932029 4.189305
C 8.212662 4.050627 3.920595
C 0.126082 5.198057 3.117162
C 0.631077 6.158400 3.158693
C 0.717259 6.434619 4.095683
C 0.030838 6.014212 3.971847
C 1.160475 5.131099 3.125779
C 1.585782 5.934962 3.301889
C 1.566094 6.654249 3.796986
C 0.856391 5.728281 4.171611
C 1.693606 5.263151 3.291030
C 2.439149 5.794073 3.211809
C 2.449157 6.590049 4.084417
C 1.899995 5.815513 4.257034
C 2.966499 5.402213 3.338616
C 3.565033 6.141080 3.242054
C 3.316642 6.694840 4.127193
C 2.917506 5.636150 4.027198
C 4.227998 5.263120 3.335068
C 4.329428 6.181071 3.390009
C 4.403638 6.607390 4.149471
C 4.095436 5.544397 4.164455
C 5.087936 5.342346 3.225074
C 5.464966 5.891408 3.301091
C 5.513876 6.424277 4.020225
C 4.983138 5.556430 4.011965
C 6.030960 5.340450 3.385084
C 6.477653 5.884662 3.361500
C 6.678675 6.514098 4.010902
C 6.151518 5.894837 4.091401
C 7.143232 5.019173 3.101875
C 7.717815 6.215396 3.268392
C 7.562063 6.562797 3.852317
C 7.074587 5.934032 4.004768
C 8.057427 5.070193 3.085009
C 8.638073 6.119278 3.406249
C 8.484810 6.615959 4.214234
C 7.908136 5.781849 4.214302
C 0.027468 6.810227 3.069369
C 0.586311 7.768999 3.114432
C 0.672181 8.191462 4.127935
C 0.290772 7.677825 4.111708
C 0.868555 6.930256 3.314912
C 1.365780 7.734566 3.112326
C 1.360437 8.317685 3.980418
C 1.322051 7.617686 4.160949
C 1.721590 6.910619 3.303509
C 2.298456 7.887719 3.376416
C 2.533507 8.334650 4.330270
C 1.967410 7.766394 4.173802
C 2.900183 6.792428 3.387478
C 3.616101 7.753199 3.292327
C 3.366731 8.400487 3.858218
C 3.044585 7.415988 4.367835
C 4.169090 7.007607 3.151951
C 4.571696 8.077513 3.386838
C 4.239446 8.269664 4.160486
C 3.835335 7.677645 4.029183
C 4.768960 6.973533 3.243755
C 5.410156 7.749717 3.061213
C 5.573738 8.249478 4.193366
C 5.010456 7.357491 4.239695
C 5.892493 6.719379 3.345758
C 6.499713 7.850479 3.258323
C 6.485353 8.528890 4.035013
C 6.101465 7.413547 4.220167
C 7.182837 6.810146 3.333791
C 7.416876 7.780619 3.182478
C 7.279511 8.442303 3.874373
C 6.963720 7.392710 4.233718
C 7.950516 6.831897 3.353528
C 8.782921 7.948957 3.312134
C 8.387041 8.323003 4.070200
C 7.763943 7.315775 4.218785
C 0.070731 0.182442 4.583006
C 0.440509 0.852053 5.079867
C 0.594897 1.487108 5.890992
C 0.190543 0.631230 5.727199
C 1.115786 0.017057 4.979067
C 1.762621 0.820031 4.843985
C 1.483255 1.280835 5.740529
C 1.060788 0.661075 5.923116
C 2.114137 0.062510 5.137714
C 2.548850 0.740342 5.014431
C 2.621077 1.269683 5.709629
C 2.145657 0.685900 5.867978
C 3.168030 0.223393 4.805446
C 3.499225 0.773602 5.048252
C 3.345667 1.398797 5.858960
C 2.991083 0.529193 5.650314
C 3.883573 0.070654 4.851879
C 4.418932 0.824489 5.038930
C 4.399558 1.707662 5.639583
C 4.173299 0.430217 5.840819
C 4.998802 0.039563 4.996530
C 5.659793 0.917157 4.841356
C 5.658942 1.564307 5.647971
C 5.236396 0.596063 5.713159
C 6.032385 0.003334 4.883337
C 6.310107 0.830914 4.707880
C 6.272544 1.481740 5.669733
C 6.091505 0.618768 5.742277
C 7.215577 0.079364 4.790149
C 7.501551 1.172983 4.929904
C 7.490283 1.587294 5.913376
C 6.905250 0.710887 5.869921
C 7.908070 0.066192 5.070616
C 8.366579 0.703148 4.949952
C 8.545529 1.554817 5.776285
C 7.808628 0.417930 5.833241
C 0.097212 1.964366 4.777545
C 0.431414 2.707695 4.989715
C 0.452360 2.944612 5.655555
C 0.092264 2.115880 5.599530
C 0.984161 1.839822 4.721062
C 1.689028 2.604022 4.844011
C 1.463626 3.302217 5.701127
C 1.140726 2.174579 5.816106
C 1.907832 1.819427 4.751111
C 2.336977 2.796706 4.826683
C 2.444070 3.300524 5.730072
C 2.203691 2.292643 5.489679
C 3.177653 1.827942 5.058513
C 3.390927 2.677250 5.009877
C 3.511502 3.292465 5.468309
C 2.751472 2.382688 5.687668
C 3.906855 1.641513 4.790041
C 4.386628 2.650848 5.073438
C 4.422345 3.208091 5.429332
C 3.784661 2.412465 5.616025
C 5.126658 1.949546 4.885704
C 5.425315 2.316348 4.908428
C 5.633202 3.247439 5.664320
C 5.015319 2.455003 5.776046
C 5.844399 1.802069 4.664323
C 6.364485 2.633996 5.081812
C 6.613384 3.090292 5.907560
C 6.162631 2.345860 5.936377
C 7.189414 1.705346 4.817224
C 7.524706 2.499315 5.119924
C 7.303025 3.149353 5.738845
C 7.118955 2.236322 5.543767
C 8.187824 1.708096 4.968178
C 8.644040 2.400478 4.987731
C 8.652942 3.055976 5.714112
C 7.892449 2.407415 5.794066
C 0.174016 3.520503 4.800553
C 0.573673 4.452875 4.633661
C 0.426386 4.697251 5.598231
C 0.018923 4.124453 5.764616
C 1.094658 3.479306 4.934576
C 1.527168 4.384860 5.070096
C 1.431166 5.114673 5.651926
C 1.256945 4.035617 5.672449
C 1.890048 3.435225 5.050384
C 2.610610 4.307965 4.681996
C 2.347870 4.948172 5.865366
C 2.020107 4.228939 5.649541
C 2.930633 3.635523 4.959184
C 3.316328 4.254491 4.876697
C 3.609661 4.985207 5.734242
C 2.997783 3.980722 5.586668
C 4.084707 3.597098 4.944460
C 4.535273 4.417279 4.776242
C 4.721261 4.971817 5.721682
C 4.092832 4.058533 5.981592
C 5.127365 3.562201 4.853345
C 5.709892 4.244833 4.872172
C 5.318333 5.012886 5.744907
C 4.967282 4.053880 5.708789
C 5.888745 3.388947 5.059746
C 6.676298 4.143125 4.966586
C 6.397637 4.916932 5.557019
C 5.979676 4.139559 5.535310
C 7.135231 3.449548 4.731920
C 7.402755 4.376728 4.736611
C 7.402098 4.698027 5.695376
C 7.062566 3.966510 5.649998
C 8.216358 3.350944 4.748908
C 8.504752 4.554768 5.112437
C 8.528436 5.006841 5.492586
C 8.140101 3.944347 5.770084
C 0.305936 5.105858 4.817627
C 0.658332 6.031533 4.840516
C 0.660069 6.709492 5.644769
C 0.095338 5.532228 5.931089
C 1.002868 5.230776 5.096516
C 1.552173 5.958465 4.947274
C 1.516101 6.704177 5.672404
C 0.966722 5.830469 5.878503
C 1.923646 5.298306 4.658362
C 2.683066 6.134186 4.693433
C 2.474948 6.697442 5.590017
C 1.947015 5.907272 5.542672
C 3.206065 5.313566 4.878617
C 3.416925 5.904296 4.795842
C 3.366887 6.634433 5.469592
C 3.098669 5.866766 5.572734
C 4.001151 5.221110 5.096938
C 4.487132 6.092931 5.069898
C 4.447784 6.672954 6.011711
C 4.030492 5.927288 5.822303
C 5.229123 5.169522 4.921981
C 5.636554 6.156367 5.047320
C 5.571231 6.734270 5.501336
C 4.882469 5.742099 5.606092
C 5.750039 5.143137 4.899738
C 6.444660 6.137275 4.774373
C 6.523339 6.631867 5.790593
C 5.906958 5.542115 5.888011
C 6.819730 5.052268 4.932095
C 7.365505 6.220612 4.800360
C 7.567042 6.445486 5.627879
C 6.980363 5.670923 5.618243
C 8.166830 5.144240 5.026631
C 8.444161 5.823495 4.948518
C 8.489958 6.764054 5.771200
C 8.099261 6.011145 5.647315
C 0.058259 6.957260 4.960497
C 0.647887 7.980038 5.068903
C 0.542108 8.478064 5.821693
C 0.099502 7.443678 6.060071
C 1.133544 6.939154 5.074015
C 1.453503 7.651407 4.849341
C 1.431813 8.425156 5.819844
C 0.942918 7.340589 5.745371
C 1.924836 6.760572 4.681090
C 2.449622 7.749296 4.709404
C 2.346622 8.298636 5.633036
C 2.170365 7.441976 5.777557
C 3.103929 6.995636 4.852182
C 3.424940 7.882531 4.819074
C 3.482505 8.402702 5.824715
C 2.828243 7.525450 5.635029
C 3.991455 6.871077 4.749766
C 4.320118 7.541084 4.825287
C 4.395295 8.446358 5.640728
C 4.120150 7.708313 5.721100
C 4.960246 7.052529 5.043945
C 5.502919 7.611038 5.056583
C 5.618816 8.489469 5.554752
C 5.159284 7.344822 5.770244
C 6.182210 6.710702 4.909758
C 6.316432 7.609168 5.142757
C 6.477035 8.517348 5.692995
C 5.798790 7.411803 6.002335
C 7.185276 7.023296 5.058826
C 7.247098 7.657360 4.819025
C 7.574049 8.544993 5.772289
C 7.254910 7.437473 5.577604
C 8.031755 6.873526 4.788049
C 8.456087 7.644756 4.820825
C 8.388116 8.333894 5.787325
C 8.148218 7.710388 5.874109
C 0.183898 0.011541 6.710596
C 0.469399 0.985729 6.331847
C 0.722430 1.456980 7.316528
C 0.122447 0.638639 7.603572
C 1.191398 0.120484 6.757616
C 1.288762 0.815611 6.650734
C 1.489988 1.274809 7.387011
C 0.824114 0.335014 7.315611
C 1.775229 0.105824 6.415385
C 2.539223 0.686736 6.404099
C 2.700302 1.358630 7.288253
C 2.173973 0.499095 7.240138
C 3.131426 0.015027 6.448963
C 3.450149 0.832061 6.220383
C 3.742822 1.437904 7.220685
C 3.191137 0.442053 7.370659
C 3.998520 0.034270 6.565347
C 4.424878 1.051596 6.482274
C 4.719837 1.333861 7.204302
C 4.221347 0.579571 7.389571
C 4.887873 0.119743 6.819522
C 5.665528 0.701124 6.583435
C 5.519114 1.461885 7.445977
C 5.132329 0.548060 7.139883
C 6.126679 0.125582 6.342904
C 6.397997 0.647529 6.539017
C 6.453832 1.314667 7.107711
C 5.934591 0.357712 7.250481
C 6.954092 0.014688 6.654854
C 7.787408 0.761494 6.445635
C 7.800139 1.533569 7.261335
C 7.289241 0.625920 7.542040
C 7.847055 0.049887 6.615054
C 8.379570 1.113822 6.535705
C 8.350105 1.577652 7.412434
C 7.902975 0.544384 7.655868
C 0.033682 1.746216 6.755018
C 0.539458 2.638308 6.501965
C 0.512823 3.064624 7.255832
C 0.005273 2.131420 7.243717
C 1.057975 1.913196 6.476750
C 1.558877 2.343222 6.617595
C 1.538003 3.375553 7.279497
C 1.162563 2.226120 7.345913
C 1.980974 1.631143 6.707821
C 2.665702 2.660621 6.597939
C 2.378986 3.291742 7.495785
C 1.896982 2.549384 7.335626
C 3.125623 1.594044 6.680984
C 3.482150 2.528588 6.642818
C 3.276708 3.201109 7.412185
C 2.998666 2.430956 7.236831
C 3.968262 1.696293 6.441219
C 4.335508 2.685400 6.414868
C 4.405579 3.192632 7.463138
C 3.934651 2.480796 7.223397
C 4.962035 1.780920 6.537185
C 5.392860 2.307359 6.406717
C 5.664443 3.027662 7.444614
C 5.028158 2.444612 7.142761
C 6.076824 1.775883 6.779204
C 6.351227 2.426403 6.749165
C 6.467248 2.988796 7.137307
C 6.101169 2.569910 7.457961
C 7.153853 1.672339 6.678582
C 7.305842 2.490604 6.515649
C 7.575302 3.242664 7.274264
C 6.789269 2.248562 7.259076
C 8.261063 1.594649 6.526176
C 8.758181 2.551059 6.548292
C 8.215012 3.119043 7.453473
C 8.101230 2.099265 7.545788
C 0.016092 3.662033 6.707735
C 0.418267 4.292218 6.357391
C 0.683672 4.998019 7.516888
C 0.244551 4.252943 7.525728
C 0.994671 3.625874 6.446632
C 1.495249 4.197675 6.422012
C 1.747848 4.910955 7.602173
C 0.858456 3.903903 7.352998
C 2.023744 3.663364 6.619611
C 2.368422 4.344796 6.543747
C 2.560162 4.847397 7.202250
C 1.834623 4.261256 7.321113
C 3.021364 3.562763 6.619315
C 3.587594 4.270993 6.368997
C 3.594370 4.999315 7.267982
C 3.096737 3.889031 7.411080
C 3.978897 3.513969 6.274849
C 4.728091 4.317769 6.751824
C 4.287390 4.986983 7.380718
C 4.130666 4.186004 7.515643
C 5.007514 3.346266 6.681291
C 5.524280 4.404651 6.541920
C 5.587695 5.070968 7.306550
C 5.028594 3.750489 7.404430
C 6.109785 3.613424 6.727623
C 6.345050 4.406313 6.478234
C 6.619230 5.011373 7.388268
C 5.959284 3.907340 7.549531
C 6.931484 3.488259 6.577138
C 7.664651 4.158521 6.568427
C 7.385219 5.265560 7.367841
C 7.016223 3.872991 7.136903
C 7.874003 3.340958 6.412104
C 8.576836 4.452936 6.464344
C 8.362334 4.996018 7.348930
C 8.205063 4.017197 7.188950
C 0.238484 5.331410 6.356110
C 0.460186 5.914168 6.370403
C 0.709471 6.635136 7.482884
C 0.035666 5.787395 7.154303
C 0.834918 5.136894 6.306840
C 1.577767 6.208749 6.720237
C 1.721172 6.492556 7.384803
C 1.090990 5.909514 7.266553
C 1.937400 5.352909 6.640822
C 2.548487 5.987774 6.471124
C 2.573039 6.341359 7.363521
C 2.126929 5.750238 7.174445
C 2.981913 4.984897 6.407257
C 3.459766 6.132189 6.553664
C 3.677303 6.654973 7.335733
C 3.064273 5.866106 7.126210
C 3.981833 5.273849 6.723450
C 4.271907 6.207805 6.508341
C 4.340423 6.687015 7.175443
C 3.845328 5.639959 7.183656
C 5.204921 5.100990 6.450452
C 5.395726 6.220017 6.395665
C 5.433284 6.575728 7.599431
C 5.167196 5.699904 7.229026
C 6.075224 5.433417 6.544311
C 6.448221 6.022098 6.735457
C 6.472874 6.525861 7.516105
C 5.882015 5.773013 7.329994
C 6.902616 5.219337 6.326174
C 7.382852 5.860009 6.600135
C 7.289654 6.712525 7.363668
C 6.923830 6.051259 7.285465
C 7.940449 5.180911 6.383333
C 8.419170 5.773887 6.616725
C 8.719762 6.669948 7.445114
C 7.848182 5.672311 7.217203
C 0.110466 6.648822 6.629617
C 0.546358 7.667394 6.377552
C 0.426930 8.266542 7.297401
C 0.005228 7.267107 7.370609
C 1.213392 6.782136 6.612200
C 1.448598 7.873454 6.554184
C 1.690458 8.482961 7.447141
C 1.063306 7.624322 7.084936
C 1.917630 6.897983 6.340352
C 2.268359 7.734731 6.343168
C 2.527986 8.479873 7.468844
C 1.793310 7.438028 7.118337
C 3.102205 6.971890 6.494571
C 3.617756 7.479791 6.588179
C 3.297036 8.419310 7.453866
C 3.110462 7.411166 7.224253
C 3.936441 6.976699 6.493996
C 4.412206 7.842611 6.493910
C 4.559160 8.274964 7.401307
C 3.768826 7.503825 7.323199
C 4.709372 6.948917 6.497896
C 5.626899 7.642149 6.797480
C 5.298300 8.469747 7.437188
C 5.030064 7.599420 7.449610
C 5.949444 7.174606 6.741395
C 6.516043 7.987416 6.647960
C 6.364807 8.230254 7.435499
C 6.165607 7.638760 7.250000
C 7.086827 6.892013 6.705118
C 7.263708 7.940290 6.517676
C 7.538022 8.230110 7.281426
C 6.917083 7.763587 7.429833
C 7.858768 6.901341 6.383299
C 8.410289 8.087859 6.423550
C 8.316401 8.323782 7.412912
C 8.129401 7.484914 7.484848
C 0.084494 0.115689 7.748620
C 0.498467 0.977045 8.064132
C 0.551054 1.291404 8.862036
C 0.067163 0.617400 8.750453
C 1.140894 0.279283 8.008797
C 1.475923 0.936544 7.993325
C 1.632061 1.663842 8.922157
C 1.163503 0.654608 9.187273
C 1.796340 0.028711 8.208601
C 2.360401 0.811190 7.972735
C 2.645577 1.317207 9.041303
C 1.907899 0.802983 9.015589
C 2.991604 0.160804 8.109384
C 3.612461 0.915606 8.292577
C 3.252357 1.477761 9.013818
C 3.092235 0.708605 8.783859
C 3.997506 0.009659 8.008228
C 4.746705 0.722745 7.938156
C 4.232119 1.337629 9.046476
C 4.058347 0.575464 9.255106
C 5.172637 0.136364 7.833006
C 5.487101 0.956129 8.436533
C 5.331340 1.568308 9.046923
C 4.950208 0.560796 8.976088
C 6.012008 0.051998 8.036501
C 6.484950 0.840214 7.863371
C 6.557619 1.350338 8.861924
C 5.907507 0.642776 9.181679
C 7.122364 0.011226 7.972387
C 7.539118 0.865000 8.413540
C 7.536811 1.658368 8.841369
C 7.149571 0.792027 8.997164
C 8.156267 0.207457 8.146790
C 8.587633 1.036189 8.258279
C 8.409883 1.370397 9.179956
C 8.212472 0.547162 9.165434
C 0.308216 1.918684 8.108167
C 0.450190 2.683067 8.404713
C 0.372252 3.303955 8.868228
C 0.310986 2.196075 8.896884
C 0.818268 1.543823 8.128785
C 1.581486 2.687553 8.441281
C 1.458739 3.203045 9.197866
C 1.171719 2.366981 9.148895
C 2.006640 1.737024 8.047879
C 2.502653 2.773180 8.335928
C 2.482355 3.131133 8.685791
C 1.824557 2.365616 8.837570
C 2.868920 1.757630 8.229728
C 3.413325 2.391933 8.274665
C 3.257058 3.177615 9.157870
C 3.104035 2.542023 8.960667
C 3.827721 1.840506 8.383408
C 4.389154 2.582423 8.336903
C 4.463816 3.251725 9.167757
C 3.803218 2.355314 9.098594
C 5.082045 1.516691 8.220623
C 5.504077 2.585888 8.377437
C 5.536330 3.255355 8.841905
C 4.950743 2.261085 9.090906
C 5.857290 1.788015 8.362745
C 6.556040 2.370232 8.261898
C 6.301606 3.161588 8.901992
C 6.181613 2.257036 9.038832
C 7.172891 1.573201 8.110292
C 7.410513 2.699992 8.301154
C 7.554376 3.392577 8.991527
C 6.840089 2.286307 9.168979
C 7.935540 1.480998 8.354028
C 8.540496 2.423112 8.203862
C 8.534732 3.345891 9.011123
C 8.122784 2.475908 9.167568
C 0.079003 3.502699 8.306672
C 0.568507 4.339858 7.845204
C 0.421819 4.982359 9.140089
C 0.028965 4.246092 9.134606
C 1.046323 3.427235 8.287565
C 1.677072 4.172231 8.152750
C 1.646986 4.825580 8.791674
C 0.881585 3.999793 8.950559
C 1.826903 3.322378 8.253158
C 2.697427 4.433547 8.205258
C 2.290328 4.968321 9.109940
C 2.121199 4.212399 8.990426
C 3.164748 3.478583 8.061804
C 3.380779 4.318725 8.294591
C 3.613013 5.006599 9.037212
C 2.951655 3.892769 9.044836
C 4.227031 3.562626 8.203678
C 4.585325 4.366859 7.968687
C 4.593243 5.060454 8.853485
C 3.921349 4.161248 8.922874
C 4.889622 3.457810 8.331349
C 5.353594 4.294256 8.069986
C 5.491904 5.155320 9.078740
C 5.062460 4.091884 9.075619
C 6.014044 3.407144 8.190334
C 6.524011 4.482891 8.320454
C 6.732058 4.960478 8.843913
C 5.895526 3.994203 8.817954
C 7.018375 3.484947 8.026367
C 7.463545 4.160485 8.081230
C 7.515997 5.080194 8.754325
C 7.020127 3.837223 8.927593
C 7.845577 3.605983 8.093287
C 8.520487 4.468356 8.204776
C 8.341495 4.977176 8.965268
C 7.975776 3.983018 8.993233
C 0.039562 5.248684 8.383594
C 0.761730 6.202196 8.164451
C 0.307112 6.364369 8.983517
C 0.269055 5.999775 9.019205
C 1.009185 5.059426 7.958068
C 1.589847 6.104805 8.193142
C 1.279518 6.608012 8.870812
C 1.148038 5.801585 8.797298
C 2.154418 5.108142 8.132884
C 2.331806 6.107615 8.045466
C 2.400835 6.605144 8.856439
C 1.825279 5.837829 8.850930
C 3.148888 5.183732 8.011266
C 3.289514 5.975710 8.083306
C 3.452904 6.600316 9.041628
C 3.106255 5.629668 9.016619
C 3.952895 5.096775 7.963881
C 4.447672 6.040428 8.077192
C 4.696231 6.635613 9.012435
C 3.999380 5.445880 9.043685
C 5.015320 5.245616 8.015387
C 5.442338 5.906985 8.160273
C 5.254114 6.811101 8.878084
C 5.051122 5.578642 9.107338
C 5.913384 5.004056 8.290808
C 6.448785 6.306065 8.243189
C 6.718208 6.685774 9.155900
C 6.061109 5.959362 9.143023
C 6.991838 5.274844 8.413047
C 7.532093 5.828260 8.297875
C 7.410561 6.694511 9.001669
C 7.137076 5.803406 9.100918
C 7.988591 5.061951 8.005009
C 8.706361 5.917997 8.232743
C 8.315911 6.581621 8.934935
C 7.867229 5.716631 8.969769
C 0.020975 7.041793 7.957259
C 0.526195 7.665749 8.075537
C 0.545031 8.362775 8.839509
C 0.130478 7.382799 9.193873
C 0.962367 6.859040 8.087069
C 1.452010 7.761837 7.943684
C 1.501926 8.356928 9.027256
C 1.093628 7.614258 8.784373
C 1.778021 6.790222 8.055515
C 2.550894 8.047808 8.079552
C 2.644650 8.285711 8.811533
C 1.833115 7.450597 8.936673
C 3.326861 6.840166 8.049935
C 3.431854 8.040082 8.209726
C 3.379779 8.489781 8.909414
C 3.045551 7.679906 9.028128
C 4.084568 6.717246 8.344953
C 4.584516 7.706702 7.969219
C 4.323993 8.446223 8.855994
C 3.817704 7.547005 8.810372
C 5.196217 6.924463 8.156220
C 5.361686 7.631786 8.414538
C 5.330334 8.397910 8.899241
C 4.888618 7.532871 8.922868
C 5.944528 6.974469 8.214710
C 6.813145 7.741941 8.254023
C 6.134001 8.346147 9.023513
C 6.207473 7.482274 9.184051
C 6.976276 6.956341 8.243866
C 7.502224 7.928507 8.292777
C 7.691072 8.447569 9.208461
C 7.072673 7.422166 8.792009
C 7.913411 6.728845 8.250092
C 8.690079 7.812370 8.346937
C 8.507765 8.191303 9.168802
C 7.917602 7.758024 9.235730
C 0.134401 0.176094 0.769352
C 0.592018 0.965765 0.649228
C 0.664961 1.536182 1.315719
C 0.013158 0.638995 1.627506
C 1.045480 0.294811 0.342695
C 1.524631 0.788654 0.658128
C 1.503598 1.612586 1.668061
C 0.819146 0.773061 1.561699
C 2.030084 0.286539 0.438915
C 2.620715 0.748884 0.713560
C 2.385120 1.418435 1.380739
C 2.052447 0.785886 1.419674
C 2.869167 0.031361 0.628559
C 3.586778 0.735017 0.575116
C 3.698952 1.544933 1.402954
C 3.090654 0.590847 1.650194
C 4.053249 0.265452 0.488512
C 4.411079 0.706821 0.525641
C 4.325853 1.464714 1.516846
C 3.792007 0.619238 1.544819
C 5.059572 0.036869 0.774146
C 5.680781 0.912535 0.713195
C 5.519332 1.479654 1.223769
C 5.099107 0.570131 1.271465
C 5.953068 0.092196 0.821184
C 6.614075 1.021066 0.775677
C 6.188389 1.495268 1.487313
C 5.841889 0.369673 1.398416
C 7.063232 0.035426 0.929868
C 7.705084 0.736952 0.759589
C 7.271711 1.380962 1.399585
C 7.066030 0.749497 1.267383
C 7.692799 0.140564 0.787599
C 8.535936 0.936900 0.571981
C 8.386678 1.434446 1.624347
C 7.833825 0.561348 1.220497
C 0.076636 1.907528 0.573067
C 0.493685 2.835822 0.464292
C 0.257199 3.050387 1.172864
C 0.328118 2.502359 1.440248
C 0.886555 1.680125 0.363510
C 1.665980 2.694854 0.605599
C 1.376681 3.042173 1.539042
C 0.820419 2.132067 1.351631
C 1.897759 1.720575 0.552357
C 2.500064 2.451336 0.543699
C 2.369958 3.199944 1.309479
C 1.898905 2.048278 1.307009
C 3.181342 1.875245 0.494933
C 3.506225 2.571533 0.608033
C 3.646272 3.297656 1.483034
C 2.865069 2.465513 1.359623
C 3.840245 1.945351 0.691629
C 4.708846 2.573776 0.521996
C 4.444793 3.128547 1.480118
C 3.959685 2.325999 1.395603
C 5.142111 1.610999 0.703669
C 5.330923 2.534819 0.746953
C 5.605934 3.347497 1.496217
C 4.813950 2.386263 1.434295
C 6.011063 1.588693 0.479194
C 6.307422 2.626648 0.515232
C 6.572969 3.249079 1.629155
C 6.156486 2.485863 1.308380
C 7.012616 1.738925 0.837940
C 7.654745 2.706672 0.696725
C 7.209217 3.057109 1.373417
C 6.826201 2.082535 1.410526
C 8.058734 1.877387 0.664559
C 8.568109 2.843672 0.610003
C 8.283132 3.143748 1.403428
C 8.074596 2.350685 1.294706
C 0.223777 3.555166 0.491713
C 0.545849 4.390096 0.846856
C 0.309971 4.910971 1.724416
C 0.227606 3.970716 1.750402
C 0.915982 3.571997 0.802202
C 1.459092 4.460304 0.502018
C 1.452026 4.707892 1.565752
C 1.076541 3.958003 1.589412
C 1.675945 3.449041 0.671398
C 2.285760 4.406940 0.703961
C 2.336073 4.932410 1.427520
C 1.932316 4.089642 1.594011
C 2.933971 3.331108 0.575630
C 3.377210 4.360174 0.676093
C 3.543637 4.711473 1.371028
C 2.865804 4.096216 1.585045
C 4.096830 3.521257 0.428229
C 4.314568 4.406399 0.528442
C 4.428900 5.086081 1.391852
C 4.172283 3.956825 1.401077
C 5.045686 3.324126 0.853170
C 5.451683 4.519851 0.670627
C 5.523830 5.047272 1.384890
C 4.792251 4.174391 1.558463
C 5.878739 3.561575 0.638370
C 6.627766 4.325578 0.512473
C 6.601979 4.718124 1.291317
C 5.999814 4.085331 1.309667
C 6.981848 3.325563 0.691331
C 7.448834 4.421896 0.554135
C 7.602377 4.891305 1.389366
C 6.963727 4.169660 1.373119
C 7.807357 3.448348 0.641970
C 8.439745 4.139698 0.658692
C 8.480246 4.893114 1.257997
C 8.259800 4.054837 1.569945
C 0.129981 5.214435 0.627069
C 0.393372 5.943725 0.497238
C 0.474495 6.942324 1.490846
C 0.090965 5.547060 1.371778
C 0.922754 5.123368 0.390079
C 1.628028 5.861819 0.619320
C 1.294950 6.499487 1.500638
C 0.927740 5.672611 1.450169
C 2.207609 5.142075 0.594616
C 2.485587 6.152771 0.467743
C 2.308910 6.508863 1.576981
C 1.827108 5.744750 1.398057
C 3.046497 5.246711 0.566294
C 3.501351 6.260814 0.759300
C 3.497701 6.820299 1.322537
C 3.156898 6.003103 1.496508
C 4.124266 5.288440 0.322039
C 4.401527 6.091572 0.380867
C 4.568968 6.468310 1.379887
C 4.215163 5.603500 1.516811
C 4.972396 4.843542 0.590163
C 5.388367 6.133825 0.458849
C 5.672425 6.673838 1.452774
C 4.849712 6.022918 1.324080
C 5.980288 5.317264 0.538675
C 6.339921 5.996166 0.593857
C 6.578886 6.737837 1.418473
C 6.198534 5.881964 1.446226
C 7.105103 5.192530 0.510882
C 7.431409 6.222395 0.443523
C 7.384395 6.581957 1.437738
C 6.953436 5.874865 1.580406
C 8.050303 5.145516 0.664429
C 8.389784 6.014797 0.519321
C 8.362570 6.512345 1.305326
C 7.892032 5.737276 1.174693
C 0.097362 7.072685 0.768933
C 0.625645 7.948616 0.682926
C 0.275137 8.283116 1.337726
C 0.027897 7.448539 1.468735
C 0.823430 6.871501 0.494083
C 1.504705 7.757736 0.581381
C 1.481186 8.468364 1.696249
C 0.846215 7.318665 1.480265
C 2.214582 6.954295 0.679300
C 2.665946 7.752697 0.816314
C 2.555186 8.479857 1.310497
C 1.899242 7.736022 1.313920
C 2.897924 7.062082 0.528192
C 3.555157 7.794984 0.838494
C 3.288974 8.413933 1.569477
C 2.900346 7.728243 1.584628
C 3.941882 7.071984 0.661816
C 4.654116 7.550975 0.695411
C 4.445463 8.123669 1.579407
C 3.874860 7.388288 1.419656
C 5.015358 7.135152 0.627854
C 5.541891 7.634075 0.656293
C 5.393665 8.332663 1.359401
C 5.029366 7.419221 1.465299
C 6.061935 7.150871 0.627563
C 6.397962 7.951141 0.513580
C 6.421860 8.552000 1.471290
C 5.868521 7.586679 1.581625
C 7.034431 6.839473 0.652517
C 7.561606 7.606996 0.584577
C 7.521552 8.391100 1.287674
C 7.020628 7.458977 1.358261
C 8.272564 7.032533 0.513276
C 8.387610 7.840781 0.726300
C 8.262231 8.367899 1.355637
C 8.221936 7.381546 1.253530
C 0.241083 0.220635 2.224395
C 0.416537 0.917315 2.377606
C 0.455173 1.280710 3.023823
C 0.076374 0.487621 3.454967
C 0.774833 0.039832 2.338419
C 1.479987 1.142065 2.264107
C 1.470295 1.541524 3.336210
C 0.950702 0.562242 2.834935
C 1.837994 0.069905 2.350103
C 2.417415 0.860875 2.298099
C 2.595812 1.373105 2.988857
C 1.797647 0.401846 2.979234
C 3.074976 0.146765 2.395170
C 3.388477 0.993093 2.224991
C 3.326091 1.364360 3.253068
C 2.866493 0.441983 2.993656
C 3.675754 0.005216 2.327322
C 4.585572 1.211613 2.217405
C 4.490410 1.464323 2.818834
C 3.826096 0.505329 3.038796
C 5.012764 0.006006 2.009863
C 5.296188 0.819692 2.117107
C 5.707491 1.438477 2.901589
C 4.963817 0.504946 2.881233
C 5.803936 0.038877 2.427270
C 6.425023 0.786022 2.307162
C 6.678623 1.404204 3.105191
C 6.033622 0.611825 3.198621
C 7.090598 0.121603 2.042987
C 7.390948 0.892450 2.221108
C 7.464886 1.507215 2.804218
C 6.999415 0.783826 3.056195
C 8.183027 0.075548 1.945709
C 8.441112 0.964719 2.376243
C 8.574634 1.610100 3.311007
C 7.994048 0.394317 3.132876
C 0.003953 1.867417 2.109466
C 0.392134 2.648760 2.299967
C 0.666875 3.076492 3.174762
C 0.273981 2.378223 3.273778
C 0.884679 1.845485 2.133846
C 1.294813 2.535238 2.319647
C 1.472904 3.109681 2.905737
C 1.299228 2.295281 3.048762
C 2.173018 1.789236 2.347348
C 2.530212 2.763738 2.391869
C 2.623447 2.954441 3.136879
C 2.170253 2.278456 3.074311
C 3.046882 1.778622 2.205956
C 3.353160 2.596672 2.252280
C 3.431046 3.031964 3.106559
C 2.925246 2.369439 3.144299
C 3.970374 1.549011 2.384274
C 4.720166 2.679277 2.340954
C 4.625105 3.161217 3.233402
C 3.882117 2.198267 2.946857
C 5.058541 1.487101 2.206361
C 5.292334 2.585771 2.153988
C 5.683600 2.952506 2.946017
C 4.696189 2.459983 2.971693
C 5.912247 1.913409 2.261547
C 6.407990 2.563269 2.333796
C 6.267156 3.173025 2.891473
C 6.140176 2.149664 3.164946
C 6.893014 1.752464 2.290766
C 7.576813 2.768899 2.454729
C 7.441231 2.978645 3.203770
C 7.141734 2.242663 3.294143
C 8.079836 1.836788 2.209670
C 8.557254 2.437461 2.273890
C 8.637157 3.137098 2.953852
C 7.772867 2.312489 3.213578
C 0.212391 3.486605 2.214180
C 0.707180 4.212435 2.065895
C 0.281723 4.874022 2.878238
C 0.150986 4.128610 3.342086
C 0.917554 3.553262 2.313295
C 1.436199 4.176618 2.392634
C 1.440440 4.865204 2.910078
C 1.109574 4.061345 3.049469
C 1.845049 3.499913 2.351963
C 2.351403 4.248160 2.183949
C 2.554920 4.929288 3.130729
C 1.985759 3.920382 2.982508
C 3.019359 3.665467 2.189370
C 3.753684 4.132642 2.282421
C 3.412051 4.741279 3.086558
C 3.001329 4.057561 2.993563
C 3.963422 3.486767 2.084048
C 4.424745 4.422183 2.345101
C 4.296977 4.904603 2.839260
C 4.178363 4.082399 3.192001
C 5.170604 3.471659 2.317201
C 5.433480 4.320455 2.171754
C 5.763010 4.900370 3.079774
C 4.920789 3.924670 3.030341
C 6.052392 3.400174 2.016497
C 6.279895 4.328409 2.296864
C 6.426330 4.822939 3.249760
C 6.049965 3.909681 3.186833
C 6.854731 3.513621 2.154443
C 7.512132 4.105081 2.343847
C 7.376260 4.895821 2.775631
C 6.768261 4.006261 3.132515
C 7.802026 3.505874 2.149179
C 8.353749 4.398990 2.088868
C 8.662566 5.008011 3.197584
C 7.987418 4.159825 3.012023
C 0.061740 5.354062 2.196123
C 0.511492 6.234284 2.348661
C 0.415617 6.681054 3.088179
C 0.048516 5.607281 3.042314
C 0.977978 5.305339 2.063087
C 1.569693 6.197662 2.496642
C 1.711008 6.547439 3.094213
C 0.849259 5.744113 3.022150
C 2.024511 5.256345 1.922033
C 2.416763 6.258907 2.400319
C 2.619267 6.723826 2.812850
C 1.874853 5.553395 3.150483
C 2.866351 5.037506 2.540147
C 3.504285 6.076851 2.151211
C 3.409837 6.697394 2.951482
C 2.963319 5.571762 2.939578
C 4.133192 5.051313 2.219723
C 4.621466 6.037332 2.160835
C 4.415986 6.541132 3.014792
C 4.248187 5.977883 3.004820
C 5.097216 5.268389 2.049606
C 5.192691 6.007695 2.358331
C 5.638706 6.689176 3.061394
C 4.851791 5.820890 2.992890
C 5.796829 5.184392 2.205818
C 6.743133 6.111642 2.260202
C 6.519056 6.538040 3.035277
C 5.816571 5.874276 3.054203
C 7.119024 5.192552 2.201391
C 7.462278 6.066594 2.004962
C 7.499009 6.566355 3.293672
C 7.054416 5.723275 2.815906
C 8.122763 5.009771 2.063441
C 8.547146 6.057348 2.123902
C 8.267756 6.550913 3.097893
C 7.939060 5.804605 2.804921
C 0.184339 6.745475 2.091091
C 0.454807 7.965327 2.514436
C 0.518573 8.341102 3.309795
C 0.160791 7.459631 3.174018
C 0.845760 6.958380 2.114948
C 1.305650 7.610766 2.232358
C 1.400747 8.616584 3.046300
C 0.983124 7.644574 3.059621
C 1.918229 6.804248 2.297454
C 2.429600 7.670406 2.042621
C 2.669047 8.490392 3.000549
C 1.932667 7.390725 2.850211
C 2.978908 6.739329 2.405242
C 3.647779 7.756118 1.972902
C 3.474732 8.572795 3.018470
C 2.920085 7.488082 3.028291
C 4.080640 7.073753 2.372110
C 4.664854 7.889531 2.219173
C 4.453612 8.149745 3.004303
C 3.951676 7.429104 2.799233
C 4.895194 7.001084 2.162520
C 5.202033 7.832694 2.174753
C 5.718915 8.417735 2.970728
C 5.100372 7.689342 2.841073
C 6.038242 6.938850 2.346449
C 6.588212 7.872597 2.536048
C 6.359866 8.325549 3.041616
C 6.193092 7.669269 3.052476
C 6.897237 6.941029 2.200288
C 7.426674 7.877081 2.173891
C 7.797858 8.309666 3.114233
C 6.733021 7.448856 3.035872
C 7.995305 7.015226 2.420074
C 8.447699 7.916772 2.125822
C 8.376053 8.218724 3.149222
C 8.229088 7.608371 2.983187
C 0.061349 0.012256 3.723111
C 0.523867 1.137008 3.974633
C 0.453984 1.446008 4.737517
C 0.083928 0.404532 4.972958
C 0.823910 0.081625 3.682012
C 1.494868 0.679413 3.795538
C 1.357124 1.598939 4.934758
C 0.820417 0.649380 4.738667
C 1.913548 0.009145 3.880425
C 2.423819 0.809254 4.148183
C 2.610176 1.424031 4.442575
C 1.964369 0.570696 4.443005
C 3.152383 0.022468 4.083045
C 3.294873 0.861870 3.847561
C 3.445106 1.368124 4.594921
C 2.815421 0.666034 4.619737
C 3.941732 0.177104 3.695560
C 4.446995 1.071627 3.917990
C 4.622235 1.241848 4.635184
C 4.053780 0.697176 4.558579
C 4.969696 0.013110 3.717279
C 5.656495 0.847492 3.834972
C 5.261443 1.571125 4.872903
C 4.943499 0.660892 4.953683
C 6.266046 0.017699 3.671776
C 6.356018 0.723775 3.899615
C 6.700685 1.468775 4.744416
C 5.945815 0.472671 4.895773
C 7.235815 0.048674 3.752751
C 7.562518 1.046500 3.702126
C 7.739719 1.622833 4.698678
C 7.174401 0.668341 4.651127
C 8.163966 0.306496 3.790013
C 8.544558 0.837795 3.807796
C 8.318297 1.297469 4.622898
C 7.946570 0.632962 4.513987
C 0.135368 1.970583 3.950663
C 0.374380 2.624199 3.906013
C 0.377597 3.169382 4.792554
C 0.152005 2.505181 4.507121
C 0.818264 1.717921 4.154218
C 1.438013 2.406701 3.645777
C 1.570469 2.989382 4.821268
C 0.975725 2.471542 4.828679
C 2.046557 1.812431 3.867727
C 2.401664 2.504720 4.060582
C 2.323502 3.322934 4.575638
C 2.039364 2.274077 4.481874
C 3.132998 1.729019 4.190951
C 3.400432 2.604716 4.006929
C 3.509976 3.327641 4.614927
C 2.924085 2.385492 4.853214
C 4.161549 1.661140 3.758079
C 4.330124 2.486965 4.066015
C 4.533470 3.071044 4.970612
C 3.918050 2.293345 4.808999
C 5.010167 1.929029 4.052589
C 5.429940 2.326508 3.792079
C 5.550403 3.048669 4.752495
C 4.900732 2.243447 4.750705
C 6.084969 1.903289 3.857826
C 6.689323 2.611151 3.842194
C 6.536298 3.425161 4.822794
C 6.177324 2.376864 4.688755
C 7.089659 1.810187 3.663033
C 7.394437 2.818517 3.996973
C 7.442230 3.229309 4.682212
C 7.076209 2.390088 4.625307
C 7.927884 1.781353 3.678192
C 8.432998 2.509452 3.895147
C 8.448563 3.024819 4.732578
C 8.044154 2.473111 4.621962
C 0.096431 3.458502 4.119897
C 0.604132 4.537540 3.930130
C 0.739956 4.962791 4.642823
C 0.183663 4.138432 4.573799
C 0.898361 3.622302 3.826271
C 1.511686 4.508990 3.878756
C 1.231851 4.875096 4.720208
C 1.107163 3.848192 4.745937
C 2.254872 3.611701 3.862294
C 2.464948 4.449226 3.722936
C 2.613565 4.894550 4.608761
C 1.908725 3.842269 4.882338
C 2.952725 3.450832 3.786700
C 3.413419 4.177445 3.852481
C 3.506614 4.877602 4.735786
C 3.141012 4.000309 4.670008
C 3.860515 3.423131 3.570368
C 4.424896 4.491300 3.735098
C 4.541605 4.994627 4.822765
C 4.157560 4.142887 4.815830
C 5.081601 3.589894 4.058314
C 5.681310 4.263496 3.883517
C 5.429218 5.073232 4.543811
C 5.010787 4.049780 4.487047
C 5.974256 3.344765 3.990363
C 6.491755 4.135473 3.937089
C 6.323650 4.837857 4.370138
C 6.124661 4.071813 4.938990
C 6.865142 3.500933 3.795567
C 7.357163 4.258076 3.980690
C 7.392345 4.986842 4.774518
C 7.188692 4.023751 4.746975
C 8.079066 3.653681 3.756075
C 8.656045 4.151922 4.138796
C 8.560597 4.848683 4.861769
C 7.964367 4.147424 4.814400
C 0.091422 5.035522 3.952464
C 0.565016 5.981596 4.028369
C 0.533680 6.930781 4.510313
C 0.030024 5.731082 4.842709
C 0.782776 5.004343 3.787779
C 1.466206 6.291493 3.782369
C 1.559572 6.613426 4.776095
C 1.047012 6.009274 4.434755
C 1.792058 5.126998 3.901410
C 2.309164 6.206350 3.894649
C 2.602403 6.762590 4.829074
C 1.959987 5.749336 4.986598
C 3.057949 5.216842 3.897380
C 3.385831 6.117925 4.061708
C 3.438102 6.463821 4.619488
C 2.968148 5.586284 4.617073
C 3.884523 5.189643 3.702855
C 4.511346 5.975779 4.025772
C 4.273404 6.515165 4.761349
C 4.116578 5.612327 4.690792
C 5.214555 5.205802 3.914026
C 5.579384 5.968095 3.768073
C 5.345761 6.505356 4.696878
C 5.140720 5.849211 4.625757
C 6.026092 5.431888 3.785630
C 6.747693 5.962819 3.799664
C 6.447461 6.826799 4.609797
C 5.949182 5.636614 4.429420
C 7.021150 5.290928 4.108091
C 7.554676 5.929244 4.042765
C 7.377417 6.657785 4.617374
C 6.880491 5.580594 4.527088
C 8.028103 5.262924 3.766972
C 8.384896 6.232112 4.012790
C 8.412837 6.799875 4.820724
C 8.147430 5.873693 4.556461
C 0.056762 7.019897 3.969087
C 0.707771 7.794684 3.767785
C 0.413621 8.262431 4.931876
C 0.028375 7.521159 4.598086
C 0.795869 6.799759 3.825296
C 1.686574 7.930249 3.838099
C 1.356910 8.250902 4.635815
C 1.106108 7.571968 4.664090
C 1.881042 6.984831 3.744634
C 2.474643 7.892762 3.745484
C 2.425345 8.169525 4.955494
C 1.937466 7.464129 4.603999
C 3.125757 6.762617 3.766590
C 3.463079 8.051054 3.781610
C 3.700105 8.264956 4.798463
C 3.093295 7.684475 4.630763
C 4.102427 6.897822 3.701090
C 4.690893 7.700324 3.807120
C 4.401536 8.426171 4.717496
C 3.790371 7.534798 4.666498
C 4.804524 6.849852 3.800212
C 5.451376 8.009092 3.903073
C 5.374795 8.390723 4.748147
C 4.989932 7.675830 4.934234
C 6.021223 6.824593 4.048090
C 6.384503 7.746627 3.832086
C 6.594286 8.411236 4.836853
C 5.875472 7.321883 4.561610
C 6.752976 6.897848 3.940102
C 7.578534 7.855523 4.172025
C 7.618519 8.295444 4.639420
C 6.973506 7.398013 4.922584
C 7.861758 7.117178 3.874001
C 8.594278 7.628112 3.721244
C 8.418001 8.353175 4.494515
C 7.933038 7.274602 4.632267
C 0.035007 0.333828 5.539936
C 0.550219 1.022110 5.489235
C 0.491558 1.633153 6.245004
C 0.015849 0.515418 6.072734
C 1.279622 0.240002 5.404099
C 1.736056 0.768669 5.439899
C 1.635365 1.615982 6.396468
C 1.098415 0.444663 6.290248
C 2.088671 0.175151 5.600999
C 2.429819 0.792561 5.594947
C 2.641074 1.540317 6.238836
C 1.988956 0.856632 6.253252
C 3.156180 0.026097 5.535211
C 3.574114 1.112471 5.586495
C 3.469623 1.483208 6.420700
C 2.927913 0.564818 6.263429
C 3.942271 0.063518 5.265777
C 4.629826 1.036066 5.744808
C 4.441057 1.446719 6.328597
C 3.857190 0.630839 6.233600
C 4.933980 0.148606 5.488415
C 5.783659 0.994713 5.457617
C 5.524496 1.694192 6.340291
C 5.065787 0.789923 6.221967
C 5.739388 0.034793 5.422051
C 6.320144 0.887992 5.591641
C 6.495876 1.220281 6.172884
C 6.075691 0.558809 6.332200
C 7.178720 0.031234 5.553255
C 7.441203 1.070799 5.619188
C 7.373128 1.296784 6.312061
C 6.880338 0.383699 6.369058
C 7.862790 0.121958 5.582284
C 8.639707 0.767763 5.457918
C 8.635929 1.539606 6.409222
C 8.240900 0.643787 6.534539
C 0.049877 1.551780 5.505495
C 0.734453 2.631631 5.479481
C 0.388006 3.223945 6.239922
C 0.080114 2.308758 6.240079
C 1.176420 1.654331 5.579455
C 1.567285 2.775805 5.608983
C 1.566337 3.276553 6.061243
C 0.967462 2.169950 6.223184
C 1.902404 1.725186 5.342173
C 2.428944 2.628859 5.693714
C 2.615811 3.213849 6.444062
C 1.863885 2.213539 6.347545
C 3.077690 1.631073 5.750228
C 3.523324 2.910714 5.421854
C 3.415629 2.968214 6.329328
C 3.206899 2.391495 6.162260
C 3.907399 1.618922 5.512626
C 4.645516 2.808145 5.579602
C 4.546596 3.312800 6.378004
C 3.738106 2.325856 6.412361
C 4.795331 1.806402 5.482710
C 5.373810 2.545138 5.756718
C 5.502968 3.056586 6.496795
C 4.872848 2.305552 6.205870
C 5.898293 1.523838 5.272735
C 6.263579 2.520183 5.419743
C 6.287984 3.058567 6.226609
C 5.862935 2.193732 6.256068
C 7.182116 1.764840 5.399025
C 7.587045 2.471979 5.591491
C 7.489518 3.085044 6.344193
C 6.923968 2.215372 6.594646
C 7.762330 1.607286 5.578462
C 8.732581 2.728554 5.399668
C 8.349566 3.222996 6.562564
C 7.783283 2.351939 6.558990
C 0.183336 3.530347 5.662666
C 0.744289 4.330088 5.613041
C 0.538834 4.650929 6.337203
C 0.057761 4.134158 6.167936
C 0.936343 3.609540 5.564900
C 1.541345 4.182552 5.446340
C 1.401600 5.049362 6.064809
C 0.861023 4.111967 6.454475
C 1.809861 3.595144 5.617313
C 2.734357 4.267588 5.553072
C 2.594883 5.125317 6.221388
C 1.914817 3.950871 6.343901
C 3.070590 3.256152 5.441828
C 3.361190 4.180800 5.556799
C 3.454361 5.053765 6.283917
C 3.022080 4.008466 6.368008
C 3.906455 3.380937 5.521303
C 4.750634 4.220163 5.381135
C 4.424547 5.050534 6.281747
C 4.131790 4.202070 6.474528
C 4.792781 3.420517 5.381326
C 5.343659 4.119623 5.466282
C 5.552424 5.093175 6.157935
C 4.876519 3.979746 6.534994
C 5.919039 3.769766 5.564840
C 6.476157 4.522163 5.533781
C 6.700121 4.850061 6.358790
C 6.155634 4.155120 6.255944
C 6.945732 3.352562 5.696539
C 7.458705 4.436703 5.346669
C 7.383762 4.970740 6.509797
C 6.796216 3.756421 6.296529
C 8.105658 3.588261 5.595896
C 8.671909 4.440588 5.557061
C 8.304857 4.942597 6.475910
C 7.992891 3.960797 6.460829
C 0.032513 5.409004 5.505849
C 0.382125 6.076552 5.656118
C 0.247421 6.718407 6.220054
C 0.058743 6.021719 6.243931
C 1.059181 5.305705 5.489997
C 1.752629 6.225947 5.532972
C 1.558080 6.541789 6.310131
C 0.749364 5.679231 6.359400
C 2.098131 4.950485 5.526127
C 2.528703 6.180730 5.758119
C 2.693746 6.555867 6.257679
C 2.031003 5.810141 6.583748
C 3.120127 5.344644 5.458931
C 3.256395 6.272403 5.474839
C 3.630981 6.431564 6.422585
C 3.126599 5.917019 6.454930
C 4.238143 5.078029 5.416852
C 4.602551 5.860736 5.395137
C 4.523251 6.522100 6.489899
C 4.109576 5.870322 6.251842
C 4.941537 5.364855 5.565605
C 5.697488 6.236617 5.470912
C 5.412435 6.761657 6.340564
C 5.113325 5.549036 6.339655
C 6.076343 5.177583 5.410232
C 6.639793 5.902951 5.656945
C 6.578510 6.471690 6.340989
C 5.714948 5.692761 6.476109
C 6.935492 5.265961 5.798763
C 7.462866 5.970552 5.667514
C 7.299836 6.667157 6.498344
C 6.951940 5.942575 6.212165
C 7.850469 5.133055 5.528943
C 8.479288 6.065375 5.544464
C 8.413343 6.425726 6.310676
C 8.186916 5.899726 6.165651
C 0.059460 7.147045 5.525479
C 0.625943 8.019831 5.692347
C 0.635192 8.273171 6.208992
C 0.038686 7.567440 6.425560
C 0.989436 6.891685 5.628506
C 1.403808 7.913952 5.737728
C 1.716270 8.549137 6.486055
C 1.065265 7.277305 6.441119
C 2.027100 7.061692 5.737338
C 2.663034 7.733395 5.369088
C 2.658982 8.254560 6.327747
C 1.870410 7.471698 6.201063
C 2.765571 6.862298 5.290791
C 3.205790 7.763597 5.476131
C 3.617811 8.190893 6.164161
C 2.933632 7.335911 6.396343
C 3.995070 7.011500 5.283037
C 4.595620 7.787772 5.367881
C 4.469805 8.472773 6.533335
C 4.023793 7.549125 6.251957
C 4.943335 6.961265 5.484454
C 5.454330 7.635746 5.739661
C 5.367992 8.384699 6.423826
C 5.023857 7.399001 6.524772
C 6.121192 6.921377 5.258678
C 6.514854 7.827652 5.490636
C 6.597165 8.256954 6.337120
C 5.851486 7.481998 6.490562
C 7.021475 7.044975 5.406038
C 7.304513 7.693403 5.282063
C 7.514879 8.367809 6.407647
C 7.170790 7.512071 6.496805
C 7.949973 7.069373 5.652463
C 8.419461 7.607252 5.566372
C 8.690219 8.354465 6.259013
C 7.797822 7.529605 6.205539
C 0.169797 0.221745 7.253654
C 0.452773 0.621374 7.194427
C 0.368735 1.586554 7.904124
C 0.033602 0.526347 8.200254
C 1.076390 0.017599 7.301523
C 1.555582 0.879277 6.918994
C 1.612757 1.661499 7.793698
C 1.029724 0.646930 7.992194
C 2.178277 0.093811 7.217491
C 2.572400 0.741613 7.172722
C 2.598634 1.627437 7.904190
C 1.945115 0.686751 7.807287
C 2.950203 0.149895 7.054744
C 3.770831 0.991342 7.188633
C 3.495767 1.280987 7.662503
C 2.974367 0.697606 8.186481
C 4.009739 0.103086 6.934691
C 4.699020 0.981490 7.024450
C 4.387332 1.445974 8.075519
C 4.122954 0.402297 7.831571
C 4.978381 0.107870 7.227602
C 5.370877 1.151466 7.148568
C 5.377323 1.367841 7.771688
C 4.967767 0.437913 8.173861
C 6.218570 0.136029 7.144305
C 6.587234 0.933802 7.204914
C 6.287065 1.536747 7.905491
C 5.835814 0.416552 8.140812
C 7.167150 0.238757 7.021729
C 7.607013 0.927622 7.008743
C 7.533036 1.543065 7.809167
C 6.914570 0.503349 7.891378
C 7.989509 0.056065 7.125986
C 8.648427 0.955910 7.184143
C 8.385351 1.583386 7.827545
C 7.976909 0.762454 7.979036
C 0.238776 1.777177 7.267131
C 0.517938 2.405405 6.958776
C 0.440735 3.189295 8.058926
C 0.034173 2.383549 7.909551
C 0.966531 1.862093 7.040504
C 1.345852 2.779961 7.126187
C 1.281582 3.189459 7.874904
C 1.088692 2.614414 7.883624
C 1.802935 1.663338 7.113714
C 2.505856 2.747657 7.381212
C 2.339546 2.981735 8.053326
C 1.881681 2.377905 8.021494
C 3.024137 1.801537 6.992542
C 3.615730 2.335848 7.005816
C 3.607697 3.150929 7.907264
C 3.259781 2.194108 7.998114
C 3.969016 1.850120 7.236997
C 4.517276 2.783206 7.186818
C 4.406999 3.203575 8.106495
C 3.894255 2.287886 7.834587
C 5.042183 1.588300 7.153339
C 5.426412 2.676822 7.245431
C 5.370751 3.196537 7.821864
C 4.785749 2.273209 7.849662
C 5.725395 1.593818 6.977125
C 6.655478 2.538589 7.066943
C 6.284418 3.173562 7.807505
C 5.766647 2.313024 7.967861
C 7.236122 1.736619 7.067353
C 7.492787 2.750065 7.086191
C 7.382225 3.359719 7.826042
C 6.999186 2.576348 7.967326
C 7.810437 1.922555 7.259951
C 8.491965 2.568023 7.191180
C 8.341382 3.291929 7.923487
C 8.147534 2.446171 8.105288
C 0.125202 3.124227 7.141836
C 0.629117 4.281042 7.173587
C 0.591610 4.792219 8.086316
C 0.187097 4.211004 7.916933
C 0.977401 3.462104 7.000209
C 1.601809 4.377642 6.890628
C 1.391185 4.709775 7.962314
C 1.122652 3.966985 7.849094
C 2.130255 3.310637 7.132204
C 2.508672 4.328675 6.905367
C 2.554337 4.801199 8.174404
C 1.861259 4.045226 7.741177
C 3.166788 3.569819 7.165337
C 3.512430 4.601676 7.153024
C 3.489248 4.993239 8.205315
C 2.898837 4.115833 7.800433
C 3.960234 3.592752 7.159159
C 4.716858 4.267366 7.116070
C 4.560279 5.181325 8.149774
C 4.084797 4.256572 7.928877
C 4.925240 3.670349 7.029651
C 5.321299 4.277883 7.140442
C 5.460395 4.778006 8.059064
C 4.914890 3.950994 7.794543
C 6.233345 3.323082 6.990079
C 6.711209 4.217578 7.294867
C 6.612017 5.024862 8.280684
C 6.072479 4.259288 7.885859
C 6.942460 3.509123 7.241799
C 7.316365 4.414946 7.217383
C 7.342567 5.154758 8.084923
C 6.854368 3.818789 7.982980
C 7.976895 3.369545 7.189976
C 8.456297 4.534452 7.147596
C 8.387955 4.731333 7.713609
C 7.913217 4.112935 7.999442
C 0.062349 4.934432 7.115447
C 0.478629 6.121397 7.134928
C 0.579971 6.635757 8.144686
C 0.016659 5.853954 7.837644
C 0.914103 5.297839 7.284297
C 1.392622 6.131532 7.281951
C 1.373775 6.757814 8.042024
C 1.232711 5.843750 7.970935
C 2.270541 5.284339 7.220586
C 2.625767 5.881473 7.038332
C 2.608858 6.601779 8.036448
C 1.979931 5.932936 7.956373
C 2.890379 5.092888 7.333908
C 3.575482 6.020052 7.119105
C 3.527222 6.396661 8.031943
C 2.975638 5.625672 7.879161
C 3.982992 5.232683 7.308365
C 4.585634 6.045773 7.148335
C 4.794910 6.615403 7.972449
C 4.097813 5.640314 7.846595
C 5.029192 5.091632 7.077874
C 5.497482 5.946646 7.259319
C 5.602586 6.796270 8.099652
C 5.107101 5.687503 7.971499
C 5.880186 5.197755 7.055111
C 6.577481 5.861215 7.113516
C 6.680946 6.513639 7.896917
C 6.100264 5.912193 7.964766
C 6.916010 5.466945 7.145318
C 7.580246 5.941077 7.214148
C 7.345844 6.519116 7.752184
C 7.165899 5.948499 7.993826
C 8.036991 5.184446 7.089302
C 8.600820 5.811177 6.970120
C 8.508579 6.826404 7.866379
C 7.948106 5.889320 8.005888
C 0.047714 6.900570 7.153371
C 0.456036 7.912268 7.195450
C 0.600648 8.529033 7.888412
C 0.181799 7.513224 8.050977
C 0.957961 6.785653 7.198577
C 1.645877 7.828579 7.308529
C 1.467066 8.640179 8.033706
C 1.111052 7.709166 8.086629
C 1.844469 6.930822 7.394749
C 2.472594 7.924582 7.269559
C 2.760064 8.551246 7.773600
C 1.953344 7.289170 7.878126
C 2.981871 6.778044 6.927555
C 3.307022 7.778866 6.932130
C 3.705113 8.211797 7.879397
C 2.803289 7.578936 8.011786
C 3.986817 6.862224 7.373291
C 4.527130 7.892487 7.387025
C 4.502113 8.435858 7.869911
C 3.957873 7.496496 8.187675
C 5.045933 6.769649 7.268118
C 5.336900 7.590215 7.201500
C 5.346944 8.129122 7.908888
C 4.780191 7.329372 7.847234
C 6.043429 6.820360 7.350602
C 6.451064 7.793759 7.008870
C 6.595776 8.475967 7.854463
C 5.834165 7.494117 7.934892
C 6.910106 7.153584 7.337002
C 7.289661 7.912052 7.331699
C 7.780151 8.367864 8.026836
C 7.231027 7.475218 7.818151
C 7.882134 6.834327 6.898471
C 8.355322 7.883629 7.270749
C 8.623064 8.324697 7.859363
C 7.838302 7.680473 8.089519
C 0.023517 0.212133 8.603132
C 0.570221 0.694588 8.802359
C 0.717946 1.304106 9.544782
C 0.266131 0.389524 9.593119
C 0.901416 0.176084 8.436960
C 1.492539 1.097408 8.651311
C 1.293766 1.433648 9.406164
C 0.825327 0.390571 9.539913
C 1.884162 0.128826 9.042453
C 2.634054 0.689975 8.901692
C 2.518292 1.463215 9.420584
C 1.819315 0.750769 9.560518
C 3.137584 0.044340 8.932104
C 3.500521 0.657330 8.878582
C 3.519124 1.275055 9.567450
C 3.050616 0.519171 9.325860
C 4.198504 0.118605 8.862232
C 4.557997 0.702943 8.665184
C 4.567421 1.528704 9.205552
C 4.179491 0.895582 9.549132
C 4.900058 0.013165 9.137701
C 5.546339 0.686454 8.773347
C 5.519296 1.218117 9.542577
C 4.856507 0.512542 9.357739
C 5.973000 0.024414 8.677490
C 6.524009 0.949426 8.846352
C 6.623739 1.214675 9.524870
C 6.153607 0.958787 9.480420
C 6.687001 0.065869 8.884513
C 7.550429 1.117863 8.989812
C 7.626658 1.278821 9.477141
C 6.817167 0.653706 9.378044
C 7.872209 0.111851 8.700047
C 8.493318 0.654731 8.767341
C 8.713552 1.458946 9.428434
C 8.125978 0.195963 9.564441
C 0.191296 1.650508 8.953270
C 0.280256 2.633525 8.871201
C 0.460087 3.336514 9.287357
C 0.028307 2.325849 9.333266
C 1.105674 1.958676 8.981468
C 1.441357 2.477535 8.741593
C 1.675362 3.086921 9.547089
C 1.161157 2.052243 9.558987
C 1.851316 1.994043 8.996943
C 2.633674 2.575355 8.907460
C 2.666349 3.173125 9.553576
C 2.064515 2.573387 9.563649
C 3.063996 1.787617 8.953992
C 3.686422 2.716272 8.867877
C 3.671082 3.019571 9.484175
C 2.990463 2.535803 9.511736
C 4.166793 1.614036 8.730193
C 4.516715 2.582986 8.758596
C 4.392688 3.421215 9.517554
C 3.951816 2.485424 9.411843
C 4.834428 1.618578 8.797969
C 5.498192 2.869386 8.787433
C 5.721246 3.100252 9.502104
C 4.966923 2.246574 9.533889
C 6.092432 1.668692 8.621857
C 6.510475 2.689730 8.710175
C 6.366895 3.189121 9.593261
C 6.038318 2.045865 9.539709
C 7.210709 1.802071 8.615037
C 7.473042 2.677286 8.942776
C 7.307766 3.038374 9.509824
C 6.845524 2.202149 9.571522
C 8.254877 1.492653 8.800783
C 8.681349 2.671832 8.808095
C 8.221022 3.288109 9.478620
C 7.873541 2.433607 9.495007
C 0.089709 3.562073 8.701858
C 0.512988 4.266324 9.027618
C 0.328546 4.896641 9.493525
C 0.066356 4.138082 9.553484
C 1.071802 3.385032 8.904184
C 1.792512 4.282519 8.714277
C 1.574820 5.021394 9.434205
C 0.872632 3.946027 9.387056
C 1.852623 3.621521 8.740402
C 2.432796 4.300715 8.810707
C 2.456938 5.013641 9.455609
C 1.879631 3.826582 9.466454
C 2.876476 3.296158 8.797046
C 3.547819 4.629640 8.672962
C 3.522148 5.060766 9.543959
C 2.736638 4.127624 9.382341
C 4.149503 3.516885 8.904501
C 4.534548 4.544396 8.629010
C 4.721459 4.998396 9.535827
C 4.318493 4.039689 9.526106
C 5.103314 3.299343 8.778395
C 5.482569 4.293849 8.457919
C 5.385340 4.945965 9.532783
C 5.354297 4.277258 9.519162
C 5.851842 3.338835 8.668710
C 6.302069 4.297481 8.677548
C 6.313237 5.063928 9.536636
C 6.183030 4.047475 9.417581
C 7.186958 3.488688 8.727059
C 7.662274 4.223645 8.771550
C 7.545207 4.554440 9.472460
C 6.951368 4.064571 9.295542
C 8.065165 3.413788 8.957224
C 8.376810 4.170861 8.718240
C 8.552399 4.980281 9.586046
C 7.772504 4.037718 9.531188
C 0.148923 5.189062 9.004935
C 0.374640 6.008791 8.536582
C 0.566915 6.455972 9.353329
C 0.036920 5.606720 9.255141
C 1.027079 5.140479 8.490190
C 1.648977 6.165513 8.991624
C 1.621323 6.725403 9.437017
C 1.038512 5.904697 9.399712
C 2.049865 5.128830 8.859512
C 2.554164 5.848179 8.924366
C 2.430307 6.399676 9.502923
C 2.281022 5.783250 9.542425
C 2.922703 5.261076 8.838111
C 3.606036 5.884994 8.835446
C 3.545126 6.610110 9.517413
C 2.683941 5.668478 9.481424
C 4.009301 4.967431 8.563347
C 4.444646 6.229772 8.595564
C 4.386074 6.417574 9.520300
C 3.803066 5.839819 9.515248
C 5.070285 5.068061 8.748023
C 5.333273 6.144933 8.524993
C 5.662476 6.589065 9.307655
C 4.862123 5.888574 9.504122
C 5.989691 5.046553 8.945034
C 6.394789 6.122005 8.886697
C 6.292094 6.944601 9.330328
C 6.172577 5.703163 9.450414
C 6.898767 5.354634 8.760849
C 7.675575 6.018900 8.825597
C 7.734082 6.680736 9.579166
C 6.876714 5.630876 9.384925
C 7.821431 5.233814 8.584117
C 8.422094 5.910263 8.692603
C 8.659686 6.595293 9.482941
C 7.939526 6.050178 9.464965
C 0.092064 6.861853 8.554535
C 0.576615 7.842736 8.911814
C 0.383979 8.310355 9.554070
C 0.090703 7.858162 9.426394
C 0.760822 6.847923 8.854200
C 1.406798 7.918895 8.834316
C 1.589226 8.455157 9.526391
C 1.101839 7.312656 9.482054
C 1.810573 6.924953 9.002208
C 2.634105 7.940719 8.959292
C 2.737746 8.602728 9.564450
C 1.855656 7.542141 9.344994
C 2.995771 6.943903 8.742607
C 3.744431 8.000726 8.844046
C 3.380413 8.384922 9.354782
C 3.027739 7.548150 9.387113
C 3.767452 6.990822 8.702652
C 4.495103 8.013803 8.636825
C 4.295462 8.385184 9.587758
C 4.157011 7.328016 9.577138
C 4.740515 6.893098 8.720628
C 5.576466 7.569788 8.778900
C 5.469693 8.207379 9.462806
C 5.095194 7.484460 9.256927
C 6.242567 6.924630 8.641564
C 6.447909 7.584516 8.758292
C 6.562467 8.084523 9.492227
C 6.094605 7.701830 9.562728
C 7.186839 6.858592 8.757056
C 7.326841 7.790616 8.601897
C 7.363729 8.347419 9.579493
C 7.302355 7.540892 9.325436
C 7.924958 6.862244 8.615636
C 8.625878 7.815646 8.814271
C 8.499737 8.273453 9.548954
C 8.120694 7.478825 9.583825
